;; SWMM5 .inp converted from XPSWMM .xp file
;; Generated by XPSWMM Card Reader
;; Source format: XP_CARD | Original title: Test

[TITLE]
;;Project Title/Notes
Test

[OPTIONS]
FLOW_UNITS           CFS
INFILTRATION         HORTON
FLOW_ROUTING         DYNWAVE
LINK_OFFSETS         DEPTH
MIN_SLOPE            0.0
ALLOW_PONDING        NO
SKIP_STEADY_STATE    NO
ROUTING_STEP         00:01:00
VARIABLE_STEP        0.75
INERTIAL_DAMPING     PARTIAL
NORMAL_FLOW_LIMITED  BOTH
MAX_TRIALS           100
START_DATE           01/01/2001
START_TIME           00:00:00
REPORT_START_DATE    01/01/2001
REPORT_START_TIME    00:00:00
END_DATE             01/02/2001
END_TIME             00:00:00
SWEEP_START          01/01
SWEEP_END            12/31
DRY_DAYS             0
REPORT_STEP          00:15:00
WET_STEP             00:05:00
DRY_STEP             01:00:00

[JUNCTIONS]
;;Name           Elev       MaxDepth   InitDepth  SurDepth   Aponded
;;-------------- ---------- ---------- ---------- ---------- ----------
Struct10         615.10     0          0          0          0
Struct11         612.10     0          0          0          0
Struct12         607.90     0          0          0          0
Struct9          611.46     0          0          0          0
Struct8          601.60     0          0          0          0
Struct7          600.80     0          0          0          0
Struct6          604.00     0          0          0          0
Struct4          591.50     0          0          0          0
Struct3          593.60     0          0          0          0
Struct2          593.50     0          0          0          0
Struct1          594.70     0          0          0          0
24               612.60     0          0          0          0
26               588.30     0          0          0          0
28               588.64     0          0          0          0
32               595.00     0          0          0          0
Struct13         608.40     0          0          0          0
47               608.00     0          0          0          0
49               608.00     0          0          0          0
51               588.30     0          0          0          0
56               586.00     0          0          0          0
60               611.50     0          0          0          0
65               633.00     0          0          0          0
68               590.00     0          0          0          0
70               599.50     0          0          0          0
87               594.51     0          0          0          0
Junc             593.86     0          0          0          0
91               594.00     0          0          0          0
Cl2Tank          594.00     0          0          0          0
132              593.98     0          0          0          0
134              593.86     0          0          0          0
137              595.00     0          0          0          0

[OUTFALLS]
;;Name           Elev       Type       Stage      Gated
;;-------------- ---------- ---------- ---------- -----
58               582.27     FREE                  NO

[STORAGE]
;;Name           Elev       MaxDepth   InitDepth  Shape      Curve/Params
;;-------------- ---------- ---------- ---------- ---------- ----------
62               611.50     10.00      0          FUNCTIONAL 540.00 0          0
81               633.00     10.00      0          FUNCTIONAL 86700.00 0          0
85               633.00     10.00      0          FUNCTIONAL 57800.00 0          0
97               633.00     10.00      0          FUNCTIONAL 9.42 0          0

[CONDUITS]
;;Name           From             To               Length     Roughness  InOffset   OutOffset  InitFlow   MaxFlow
;;-------------- ---------------- ---------------- ---------- ---------- ---------- ---------- ---------- ----------
202              Struct11         Struct10         2802.48    0.0150     572.66     571.82     0          0
204              Struct12         Struct11         2592.04    0.0150     573.44     572.66     0          0
201              Struct10         Struct9          684.22     0.0150     571.82     571.62     0          0
206              Struct9          Struct8          1023.30    0.0150     571.62     571.31     0          0
208              Struct8          Struct7          181.64     0.0150     571.31     571.25     0          0
210              Struct7          Struct6          603.70     0.0150     571.25     571.07     0          0
212              Struct6          Struct4          841.79     0.0150     571.07     570.82     0          0
214              Struct4          Struct3          140.74     0.0150     570.82     570.77     0          0
216              Struct3          Struct2          306.89     0.0150     570.77     570.67     0          0
218              Struct2          Struct1          290.86     0.0150     570.67     570.58     0          0
224              24               Struct12         2934.83    0.0150     577.84     575.78     0          0
226              26               Struct1          4080.00    0.0150     572.28     570.51     0          0
228              28               26               690.00     0.0150     573.64     573.28     0          0
220              Struct1          32               450.00     0.0150     570.45     570.25     0          0
249              49               Struct13         100.00     0.0150     584.59     584.56     0          0
247              47               51               3240.00    0.0150     584.56     575.78     0          0
251              51               56               300.00     0.0150     575.78     574.97     0          0
260              60               62               50.00      0.0150     570.50     570.35     0          0
270              70               Struct7          25.50      0.0140     575.96     575.93     0          0
265              65               81               33.00      0.0140     628.00     627.00     0          0
Overflow         85               97               20.00      0.0140     628.00     627.00     0          0
287              87               Junc             623.60     0.0140     590.18     586.85     0          0
332              132              91               1142.92    0.0110     586.85     582.42     0          0
291              91               Cl2Tank          93.48      0.0140     581.70     579.75     0          0
297              97               87               50.00      0.0140     590.20     590.18     0          0
336.1            Junc             134              33.00      0.0140     586.85     586.75     0          0
334              134              137              2400.00    0.0140     586.75     579.55     0          0

[ORIFICES]
;;Name           From             To               Type       Offset     Qcoeff     Gated    CloseTime
;;-------------- ---------------- ---------------- ---------- ---------- ---------- -------- ----------
253.1            51               26               SIDE       0          0.650      NO       0

[WEIRS]
;;Name           From             To               Type       CrestHt    Qcoeff     Gated    EndCon   EndCoeff   Surcharge
;;-------------- ---------------- ---------------- ---------- ---------- ---------- -------- -------- ---------- ----------
246.1            Struct13         Struct12         TRANSVERSE 590.90     1.840      NO       0        0          YES
248.1            Struct13         47               TRANSVERSE 590.90     1.840      NO       0        0          YES
256              56               58               TRANSVERSE 582.27     1.840      NO       0        0          YES
206_2            Struct9          60               V-NOTCH    574.00     1.840      NO       0        0          YES
281              81               85               TRANSVERSE 629.00     1.840      NO       0        0          YES

[PUMPS]
;;Name           From             To               PumpCurve  Status   Startup    Shutoff
;;-------------- ---------------- ---------------- ---------- -------- ---------- ----------
262              62               65               PC_262     ON       1.00       0         
232              32               68               PC_232     ON       1.00       0         

[CURVES]
;;Name           Type       X-Value    Y-Value
;;-------------- ---------- ---------- ----------
;; Synthesized generic pump curves — replace with actual pump data
PC_262           Pump1      0          5
PC_262                      10         10
PC_232           Pump1      0          5
PC_232                      10         10

[XSECTIONS]
;;Link           Shape        Geom1      Geom2      Geom3      Geom4      Barrels
;;-------------- ------------ ---------- ---------- ---------- ---------- ----------
202              CIRCULAR     8.00       0          0          0          1
204              CIRCULAR     8.00       0          0          0          1
201              CIRCULAR     8.00       0          0          0          1
206              CIRCULAR     7.00       0          0          0          1
208              CIRCULAR     7.00       0          0          0          1
210              CIRCULAR     7.00       0          0          0          1
212              CIRCULAR     7.00       0          0          0          1
214              CIRCULAR     7.00       0          0          0          1
216              CIRCULAR     7.00       0          0          0          1
218              CIRCULAR     7.00       0          0          0          1
224              CIRCULAR     7.00       0          0          0          1
226              CIRCULAR     6.00       0          0          0          1
228              CIRCULAR     5.00       0          0          0          1
220              CIRCULAR     6.00       0          0          0          1
249              CIRCULAR     8.25       0          0          0          1
247              CIRCULAR     8.25       0          0          0          1
251              CIRCULAR     8.25       0          0          0          1
260              CIRCULAR     6.00       0          0          0          1
270              CIRCULAR     4.50       0          0          0          1
265              CIRCULAR     4.00       0          0          0          1
Overflow         CIRCULAR     3.00       0          0          0          1
287              CIRCULAR     3.00       0          0          0          1
332              CIRCULAR     2.50       0          0          0          1
291              CIRCULAR     3.00       0          0          0          1
297              CIRCULAR     3.00       0          0          0          1
336.1            CIRCULAR     0.16       0          0          0          1
334              CIRCULAR     7.00       0          0          0          1
253.1            RECT_CLOSED  2.12       2.12       0          0
246.1            RECT_OPEN    1.00       13.00      0          0
248.1            RECT_OPEN    1.00       8.25       0          0
256              RECT_OPEN    1.00       10.00      0          0
206_2            TRIANGULAR   1.00       15.00      0          0
281              RECT_OPEN    1.00       15.00      0          0

[LOSSES]
;;Link           Inlet      Outlet     Average    Flap Gate
;;-------------- ---------- ---------- ---------- ----------
202              0          0          0          NO
204              0          0          0          NO
201              0          0          0          NO
206              0          0          0          NO
208              0          0          0          NO
210              0          0          0          NO
212              0          0          0          NO
214              0          0          0          NO
216              0          0          0          NO
218              0          0          0          NO
224              0          0          0          NO
226              0          0          0          NO
228              0          0          0          NO
220              0          0          0          NO
249              0          0          0          NO
247              0          0          0          NO
251              0          0          0          NO
260              0          0          0          NO
270              0          0          0          NO
265              0          0          0          NO
Overflow         0          0          0          NO
287              0          0          0          NO
332              0          0          0          NO
291              0          0          0          NO
297              0          0          0          NO
336.1            0          0          0          NO
334              0          0          0          NO

[COORDINATES]
;;Node           X-Coord            Y-Coord
;;-------------- ------------------ ------------------
Struct10         139.11             48.31             
Struct11         72.45              47.36             
Struct12         -1.69              47.94             
Struct9          139.68             108.00            
Struct8          139.58             181.00            
Struct7          117.45             196.41            
Struct6          88.88              196.09            
Struct4          88.63              231.17            
Struct3          76.62              241.14            
Struct2          53.07              240.81            
Struct1          52.87              283.51            
24               -23.24             47.16             
26               23.33              282.98            
28               -24.19             282.98            
32               67.75              284.31            
Struct13         18.22              33.49             
47               17.71              46.12             
49               17.97              15.42             
51               15.25              276.05            
56               15.90              304.66            
58               15.90              321.83            
60               155.98             107.92            
62               170.34             107.58            
65               201.54             107.16            
68               78.40              284.90            
70               134.26             198.31            
81               201.24             132.89            
85               200.93             155.81            
87               171.08             155.66            
Junc             170.96             193.29            
91               170.84             286.53            
Cl2Tank          151.13             301.94            
97               187.83             155.80            
132              170.83             208.98            
134              181.33             215.47            
137              181.52             316.05            

[MAP]
DIMENSIONS -24.19 15.42 201.54 321.83
Units      None

[REPORT]
SUBCATCHMENTS ALL
NODES ALL
LINKS ALL
