;; SWMM5 .inp converted from XPSWMM .xp file
;; Generated by XPSWMM Card Reader
;; Source format: XP_CARD | Original title: MCWD 100yr 10day storm over lower watershed
;; Links parsed from source: 330 | Routable in this .inp: 327
;; NOTE: 1 link(s) dropped (missing endpoint): MC-16exfil
;; NOTE: 3 link(s) classified Special (no conduit/pump/orifice/weir data — likely 2D-coupling or non-standard elements, excluded from routing): MC-81exfil, MC-75exfil, MC-16exfil

[TITLE]
;;Project Title/Notes
MCWD 100yr 10day storm over lower watershed

[OPTIONS]
FLOW_UNITS           CFS
INFILTRATION         HORTON
FLOW_ROUTING         DYNWAVE
LINK_OFFSETS         DEPTH
MIN_SLOPE            0.0
ALLOW_PONDING        NO
SKIP_STEADY_STATE    NO
ROUTING_STEP         00:03:20
VARIABLE_STEP        0.75
INERTIAL_DAMPING     PARTIAL
NORMAL_FLOW_LIMITED  BOTH
MAX_TRIALS           500
START_DATE           01/01/2001
START_TIME           00:00:00
REPORT_START_DATE    01/01/2001
REPORT_START_TIME    00:00:00
END_DATE             01/02/2001
END_TIME             00:00:00
SWEEP_START          01/01
SWEEP_END            12/31
DRY_DAYS             0
REPORT_STEP          00:15:00
WET_STEP             00:05:00
DRY_STEP             01:00:00

[JUNCTIONS]
;;Name           Elev       MaxDepth   InitDepth  SurDepth   Aponded
;;-------------- ---------- ---------- ---------- ---------- ----------
MC-1             970.00     0          0          0          0
MC-3             964.00     0          0          0          0
MC-4             950.00     0          0          0          0
MC-5             954.00     0          0          0          0
MC-7             954.00     0          0          0          0
MC-8             944.00     0          0          0          0
MC-6             958.00     0          0          0          0
MC-2             964.00     0          0          0          0
MC-18            968.00     0          0          0          0
MC-20            963.00     0          0          0          0
MC-19            952.00     0          0          0          0
MC-23            938.00     0          0          0          0
MC-25            938.00     0          0          0          0
MC-21            940.00     0          0          0          0
MC-10            1028.00    0          0          0          0
MC-16            940.00     0          0          0          0
MC-17            956.50     0          0          0          0
MC-28            940.00     0          0          0          0
MC-9             940.00     0          0          0          0
MC-11            938.00     0          0          0          0
MC-12            960.50     0          0          0          0
MC-15            960.50     0          0          0          0
MC-13            948.00     0          0          0          0
MC-14            950.00     0          0          0          0
MC-31            918.00     0          0          0          0
MC-32            923.90     0          0          0          0
MC-37            941.50     0          0          0          0
MC-41            920.00     0          0          0          0
MC-43            920.00     0          0          0          0
MC-53            920.00     0          0          0          0
MC-45            942.00     0          0          0          0
MC-46            940.00     0          0          0          0
MC-52            930.00     0          0          0          0
MC-22            940.00     0          0          0          0
MC-30            918.00     0          0          0          0
MC-34            922.00     0          0          0          0
MC-27            940.00     0          0          0          0
MC-36            918.00     0          0          0          0
MC-40            911.00     0          0          0          0
MC-42            918.00     0          0          0          0
MC-38            946.00     0          0          0          0
MC-39            946.00     0          0          0          0
MC-51            920.00     0          0          0          0
MC-54            913.50     0          0          0          0
MC-56            914.90     0          0          0          0
MC-60            912.76     0          0          0          0
MC-65            904.00     0          0          0          0
MC-68            913.70     0          0          0          0
MC-69            900.00     0          0          0          0
MC-77            899.20     0          0          0          0
MC-81            898.00     0          0          0          0
MC-59            930.00     0          0          0          0
MC-58            907.75     0          0          0          0
MC-66            894.00     0          0          0          0
MC-57            908.00     0          0          0          0
MC-55            908.30     0          0          0          0
MC-63            915.00     0          0          0          0
MC-64            912.30     0          0          0          0
MC-71            994.00     0          0          0          0
MC-79            910.00     0          0          0          0
MC-78            910.00     0          0          0          0
MC-80            894.84     0          0          0          0
MC-50            950.00     0          0          0          0
MC-47_2          898.30     0          0          0          0
MC-49_2          920.00     0          0          0          0
MC-50_2          918.50     0          0          0          0
MC-51_2          917.20     0          0          0          0
MC-50_3          918.50     0          0          0          0
MC-61            911.30     0          0          0          0
MC-62            911.40     0          0          0          0
MC-75            994.00     0          0          0          0
MC-72            892.00     0          0          0          0
MC-73            894.00     0          0          0          0
MC-74            893.00     0          0          0          0
MC-67            895.00     0          0          0          0
MC-71_2          993.00     0          0          0          0
MC-76            897.38     0          0          0          0
MC-76_2          897.00     0          0          0          0
MC-76_3          896.90     0          0          0          0
MC-76_4          896.50     0          0          0          0
MC-76_5          900.00     0          0          0          0
MC-77_2          895.90     0          0          0          0
MC-65_2          918.10     0          0          0          0
MC-66_2          892.20     0          0          0          0
MC-67_2          898.80     0          0          0          0
MC-67_3          898.80     0          0          0          0
MC-67_4          896.00     0          0          0          0
MC-64_2          909.00     0          0          0          0
MC-65_3          904.10     0          0          0          0
MC-65_4          910.20     0          0          0          0
MC-65_5          910.00     0          0          0          0
MC-65_6          910.80     0          0          0          0
MC-62_2          911.30     0          0          0          0
MC-62_3          909.80     0          0          0          0
MC-62_4          910.40     0          0          0          0
MC-62_5          909.50     0          0          0          0
MC-62_6          909.50     0          0          0          0
MC-62_7          912.80     0          0          0          0
MC-62_8          912.80     0          0          0          0
MC-62_9          908.30     0          0          0          0
MC-62_10         908.30     0          0          0          0
MC-62_11         912.90     0          0          0          0
MC-62_12         912.90     0          0          0          0
MC-62_13         911.00     0          0          0          0
MC-62_14         910.00     0          0          0          0
MC-62_15         910.60     0          0          0          0
MC-62_16         910.80     0          0          0          0
MC-61_2          912.66     0          0          0          0
MC-61_3          910.90     0          0          0          0
MC-61_4          912.76     0          0          0          0
MC-58_2          915.80     0          0          0          0
MC-58_3          914.30     0          0          0          0
MC-57_2          918.00     0          0          0          0
MC-57_3          906.90     0          0          0          0
MC-57_4          918.00     0          0          0          0
MC-57_5          909.30     0          0          0          0
MC-57_6          906.90     0          0          0          0
MC-56_2          910.40     0          0          0          0
MC-56_3          915.00     0          0          0          0
MC-56_4          908.10     0          0          0          0
MC-56_5          914.00     0          0          0          0
MC-56_6          911.30     0          0          0          0
MC-56_7          910.60     0          0          0          0
MC-56_8          920.00     0          0          0          0
MC-56_9          916.00     0          0          0          0
MC-56_10         916.00     0          0          0          0
MC-56_11         915.60     0          0          0          0
MC-56_12         914.90     0          0          0          0
MC-56_13         920.00     0          0          0          0
MC-56_14         921.10     0          0          0          0
MC-41_2          941.50     0          0          0          0
MC-41_3          941.80     0          0          0          0
MC-41_4          938.00     0          0          0          0
MC-41_5          921.10     0          0          0          0
MC-41_6          941.50     0          0          0          0
MC-41_7          921.00     0          0          0          0
MC-41_8          920.00     0          0          0          0
MC-37_2          941.50     0          0          0          0
MC-37_3          941.50     0          0          0          0
MC-37_4          921.90     0          0          0          0
MC-37_5          921.30     0          0          0          0
MC-37_6          918.60     0          0          0          0
MC-32_2          920.40     0          0          0          0
MC-32_3          927.80     0          0          0          0
MC-32_4          920.00     0          0          0          0
MC-32_5          924.00     0          0          0          0
MC-32_6          928.00     0          0          0          0
MC-29            930.00     0          0          0          0
MC-31_2          930.00     0          0          0          0
MC-31_3          930.00     0          0          0          0
MC-31_4          942.50     0          0          0          0
MC-31_5          941.80     0          0          0          0
MC-28_2          938.00     0          0          0          0
MC-28_3          930.00     0          0          0          0
MC-28_4          931.70     0          0          0          0
MC-28_5          931.10     0          0          0          0
MC-28_6          940.00     0          0          0          0
MC-28_7          930.00     0          0          0          0
MC-28_8          930.00     0          0          0          0
MC-28_9          936.00     0          0          0          0
MC-28_10         930.00     0          0          0          0
MC-28_11         946.60     0          0          0          0
MC-28_12         946.50     0          0          0          0
MC-28_13         932.80     0          0          0          0
MC-28_14         932.00     0          0          0          0
MC-28_15         931.30     0          0          0          0
MC-28_16         930.00     0          0          0          0
MC-28_17         930.00     0          0          0          0
MC-17_2          944.00     0          0          0          0
MC-17_3          944.80     0          0          0          0
MC-17_4          940.00     0          0          0          0
MC-17_5          956.00     0          0          0          0
MC-17_6          956.00     0          0          0          0
MC-17_7          944.00     0          0          0          0
MC-17_8          956.00     0          0          0          0
MC-17_9          943.00     0          0          0          0
MC-17_10         943.50     0          0          0          0
MC-17_11         949.60     0          0          0          0
MC-17_12         956.00     0          0          0          0
MC-17_13         940.60     0          0          0          0
MC-17_14         951.00     0          0          0          0
MC-77_3          899.00     0          0          0          0
MC-77_4          900.00     0          0          0          0
MC-77_5          895.50     0          0          0          0
MC-77_6          900.00     0          0          0          0
MC-77_7          900.00     0          0          0          0
MC-77_8          900.70     0          0          0          0
MC-81_2          898.00     0          0          0          0
MC-80_2          894.78     0          0          0          0
MC-80_3          894.04     0          0          0          0
MC-78_2          920.00     0          0          0          0
MC-78_3          920.00     0          0          0          0
MC-81_3          900.00     0          0          0          0
MC-85            994.00     0          0          0          0
MC-16_2          940.00     0          0          0          0
MC-9_2           0          0          0          0          0
MC-15_2          0          0          0          0          0
MC-17_15         0          0          0          0          0
MC-100           889.00     0          0          0          0
MC-101           890.00     0          0          0          0
MC-102           890.00     0          0          0          0
MC-103           875.30     0          0          0          0
MC-104           876.30     0          0          0          0
MC-105           860.30     0          0          0          0
MC-109           865.00     0          0          0          0
MC-121           860.00     0          0          0          0
MC-126           860.00     0          0          0          0
MC-127           860.00     0          0          0          0
MC-130           860.00     0          0          0          0
MC-131           850.34     0          0          0          0
MC-110           886.00     0          0          0          0
MC-114           878.80     0          0          0          0
MC-122           960.00     0          0          0          0
MC-118           865.00     0          0          0          0
MC-117           865.30     0          0          0          0
MC-123           876.00     0          0          0          0
MC-120           877.00     0          0          0          0
MC-119           863.00     0          0          0          0
MC-108           865.00     0          0          0          0
MC-107           865.00     0          0          0          0
MC-128           894.00     0          0          0          0
MC-124           869.50     0          0          0          0
MC-125           860.30     0          0          0          0
MC-115           885.00     0          0          0          0
MC-116           870.00     0          0          0          0
MC-112           890.00     0          0          0          0
MC-82            907.10     0          0          0          0
MC-86            880.00     0          0          0          0
MC-88            874.00     0          0          0          0
MC-92            863.50     0          0          0          0
MC-93            866.00     0          0          0          0
MC-93_2          864.00     0          0          0          0
MC-94            860.00     0          0          0          0
MC-96            860.00     0          0          0          0
MC-98            854.90     0          0          0          0
MC-99            846.34     0          0          0          0
MC-132           850.00     0          0          0          0
MC-133           848.00     0          0          0          0
MC-136           846.00     0          0          0          0
MC-137           841.50     0          0          0          0
MC-141           836.00     0          0          0          0
MC-141_2         836.30     0          0          0          0
MC-173           830.00     0          0          0          0
MC-174           830.00     0          0          0          0
MC-175           831.62     0          0          0          0
MC-178           821.60     0          0          0          0
MC-180           830.00     0          0          0          0
MC-184           750.00     0          0          0          0
MC-89            878.00     0          0          0          0
MC-90            864.00     0          0          0          0
MC-91            864.00     0          0          0          0
MC-129           860.00     0          0          0          0
MC-83            886.00     0          0          0          0
MC-95            860.30     0          0          0          0
MC-97            845.30     0          0          0          0
MC-134           878.30     0          0          0          0
MC-139           847.00     0          0          0          0
MC-140           830.00     0          0          0          0
MC-147           827.00     0          0          0          0
MC-179           820.90     0          0          0          0
MC-183           762.16     0          0          0          0
MC-176           827.30     0          0          0          0
MC-111           887.80     0          0          0          0
MC-84            886.00     0          0          0          0
MC-85_2          880.50     0          0          0          0
MC-87            874.80     0          0          0          0
MC-100_2         882.30     0          0          0          0
MC-100_3         894.80     0          0          0          0
MC-100_4         894.80     0          0          0          0
MC-100_5         890.20     0          0          0          0
MC-100_6         892.80     0          0          0          0
MC-81_4          889.40     0          0          0          0
MC-81_5          884.30     0          0          0          0
MC-81_6          891.00     0          0          0          0
MC-101_3         889.30     0          0          0          0
MC-102_2         878.60     0          0          0          0
MC-102_3         883.80     0          0          0          0
MC-101_4         880.41     0          0          0          0
MC-102_4         875.80     0          0          0          0
MC-102_5         876.30     0          0          0          0
MC-102_6         881.88     0          0          0          0
MC-104_2         878.10     0          0          0          0
MC-104_3         876.30     0          0          0          0
MC-104_4         876.30     0          0          0          0
MC-104_5         870.80     0          0          0          0
MC-104_6         865.00     0          0          0          0
MC-104_7         870.10     0          0          0          0
MC-104_8         866.20     0          0          0          0
MC-104_9         866.30     0          0          0          0
MC-104_10        866.30     0          0          0          0
MC-104_11        866.10     0          0          0          0
MC-104_12        866.60     0          0          0          0
MC-104_13        866.10     0          0          0          0
MC-104_14        865.00     0          0          0          0
MC-105_2         860.30     0          0          0          0
MC-105_3         860.30     0          0          0          0
MC-106_2         860.50     0          0          0          0
MC-106_3         861.80     0          0          0          0
MC-106_4         862.50     0          0          0          0
MC-110_2         882.80     0          0          0          0
MC-110_3         890.00     0          0          0          0
MC-110_4         878.50     0          0          0          0
MC-115_2         886.30     0          0          0          0
MC-115_3         883.00     0          0          0          0
MC-115_4         881.80     0          0          0          0
MC-119_2         863.00     0          0          0          0
MC-89_2          878.00     0          0          0          0
MC-89_3          878.00     0          0          0          0
MC-84_2          892.85     0          0          0          0
MC-84_3          884.91     0          0          0          0
MC-84_4          884.85     0          0          0          0
MC-85_3          874.34     0          0          0          0
MC-85_4          870.00     0          0          0          0
MC-82_2          880.00     0          0          0          0
MC-82_3          880.00     0          0          0          0
MC-82_4          880.00     0          0          0          0
MC-82_5          891.00     0          0          0          0
MC-125_2         849.80     0          0          0          0
MC-86_2          880.60     0          0          0          0
MC-125eof        860.30     0          0          0          0
MC-126_3         860.95     0          0          0          0
MC-126_4         860.95     0          0          0          0
MC-126_5         860.49     0          0          0          0
MC-126_6         860.32     0          0          0          0
MC-126_7         862.94     0          0          0          0
MC-130_2         852.57     0          0          0          0
MC-86_3          880.00     0          0          0          0
MC-86_4          876.00     0          0          0          0
MC-86_5          874.00     0          0          0          0
MC-86_6          874.00     0          0          0          0
MC-87_2          874.00     0          0          0          0
MC-87_3          874.00     0          0          0          0
MC-87_4          876.80     0          0          0          0
MC-87_5          874.00     0          0          0          0
MC-88_2          875.50     0          0          0          0
MC-88_3          870.00     0          0          0          0
MC-88_4          870.00     0          0          0          0
MC-88_5          872.00     0          0          0          0
MC-92_2          872.00     0          0          0          0
MC-92_3          880.00     0          0          0          0
MC-92_4          868.00     0          0          0          0
MC-92_5          870.00     0          0          0          0
MC-92_6          870.00     0          0          0          0
MC-92_7          859.80     0          0          0          0
MC-92_8          862.00     0          0          0          0
MC-93_3          880.00     0          0          0          0
MC-93_4          870.90     0          0          0          0
MC-93_5          866.00     0          0          0          0
MC-93_6          866.00     0          0          0          0
MC-93_7          864.00     0          0          0          0
MC-93_8          864.00     0          0          0          0
MC-93_9          864.00     0          0          0          0
MC-93_10         864.00     0          0          0          0
MC-94_2          864.00     0          0          0          0
MC-94_3          860.00     0          0          0          0
MC-94_4          860.00     0          0          0          0
MC-96_2          860.50     0          0          0          0
MC-96_3          860.00     0          0          0          0
MC-96_4          864.00     0          0          0          0
MC-96_5          891.50     0          0          0          0
MC-96_6          891.50     0          0          0          0
MC-96_7          868.50     0          0          0          0
MC-98_2          868.50     0          0          0          0
MC-98_3          868.00     0          0          0          0
MC-97_2          867.00     0          0          0          0
MC-98_4          854.90     0          0          0          0
MC-98_5          853.90     0          0          0          0
MC-98_6          851.50     0          0          0          0
MC-98_7          851.20     0          0          0          0
MC-98_8          855.10     0          0          0          0
MC-98_9          855.10     0          0          0          0
MC-98_10         852.00     0          0          0          0
MC-98_11         852.30     0          0          0          0
MC-98_12         850.55     0          0          0          0
MC-99_2          850.00     0          0          0          0
MC-99_3          852.00     0          0          0          0
MC-99_4          849.00     0          0          0          0
MC-99_5          850.00     0          0          0          0
MC-98_13         850.00     0          0          0          0
MC-99_6          852.00     0          0          0          0
MC-99_7          849.00     0          0          0          0
MC-131_2         850.52     0          0          0          0
MC-131_3         851.00     0          0          0          0
MC-132_2         850.00     0          0          0          0
MC-132_3         848.40     0          0          0          0
MC-132_4         850.44     0          0          0          0
MC-132_5         850.03     0          0          0          0
MC-132_6         850.00     0          0          0          0
MC-132_7         850.29     0          0          0          0
MC-132_8         850.19     0          0          0          0
MC-133_2         870.24     0          0          0          0
MC-133_3         870.00     0          0          0          0
MC-133_4         888.00     0          0          0          0
MC-136_2         877.90     0          0          0          0
MC-136_3         877.30     0          0          0          0
MC-136_4         848.00     0          0          0          0
MC-136_5         848.00     0          0          0          0
MC-136_6         849.00     0          0          0          0
MC-136_7         847.40     0          0          0          0
MC-136_8         846.00     0          0          0          0
MC-133_5         886.00     0          0          0          0
MC-135           861.30     0          0          0          0
MC-137_2         848.00     0          0          0          0
MC-136FN10       846.00     0          0          0          0
MC-136FN11       878.00     0          0          0          0
MC-136_9         878.30     0          0          0          0
MC-136FN12       880.50     0          0          0          0
MC-136FN13       862.40     0          0          0          0
MC-136FN14       843.00     0          0          0          0
MC-136FN15       842.50     0          0          0          0
MC-136FN16       842.50     0          0          0          0
MC-136FN17       842.30     0          0          0          0
MC-136FN18       842.20     0          0          0          0
MC-137_3         847.40     0          0          0          0
MC-137_4         847.00     0          0          0          0
MC-137_5         842.20     0          0          0          0
MC-138           841.50     0          0          0          0
MC-141_3         836.00     0          0          0          0
MC-141_4         842.20     0          0          0          0
MC-138_2         840.00     0          0          0          0
MC-138_3         842.20     0          0          0          0
MC-138_4         842.20     0          0          0          0
MC-148           834.30     0          0          0          0
MC-149           831.50     0          0          0          0
MC-151           830.00     0          0          0          0
MC-154           832.00     0          0          0          0
MC-153           818.30     0          0          0          0
MC-169           822.00     0          0          0          0
MC-142           841.00     0          0          0          0
MC-144           842.60     0          0          0          0
MC-145           834.30     0          0          0          0
MC-143           837.30     0          0          0          0
MC-158           836.33     0          0          0          0
MC-160           840.00     0          0          0          0
MC-161           826.00     0          0          0          0
MC-162           821.80     0          0          0          0
MC-167           825.00     0          0          0          0
MC-155           831.90     0          0          0          0
MC-155_2         830.55     0          0          0          0
MC-155_3         836.25     0          0          0          0
MC-156           832.30     0          0          0          0
MC-156_2         832.30     0          0          0          0
MC-157           845.30     0          0          0          0
MC-157_2         839.30     0          0          0          0
MC-157_3         839.30     0          0          0          0
MC-159           829.13     0          0          0          0
MC-166           820.00     0          0          0          0
MC-163           820.00     0          0          0          0
MC-164           820.00     0          0          0          0
MC-165           820.00     0          0          0          0
MC-170           820.00     0          0          0          0
MC-172           824.55     0          0          0          0
MC-168           825.20     0          0          0          0
MC-146           828.90     0          0          0          0
MC-157_4         849.30     0          0          0          0
MC-156_3         836.33     0          0          0          0
MC-155_4         836.60     0          0          0          0
MC-155_5         840.00     0          0          0          0
MC-155_6         840.00     0          0          0          0
MC-162_2         817.40     0          0          0          0
MC-163_2         815.10     0          0          0          0
MC-166_2         815.10     0          0          0          0
MC-155_7         833.57     0          0          0          0
MC-159_2         850.13     0          0          0          0
MC-159_3         821.00     0          0          0          0
MC-159_4         850.13     0          0          0          0
MC-160_2         825.00     0          0          0          0
MC-160_3         826.00     0          0          0          0
MC-171           823.30     0          0          0          0
MC-143_2         837.30     0          0          0          0
MC-145_2         824.30     0          0          0          0
MC-144_2         839.60     0          0          0          0
MC-170_2         818.00     0          0          0          0
MC-170_3         817.00     0          0          0          0
MC-158_2         825.00     0          0          0          0
MC-141_5         836.00     0          0          0          0
MC-148_2         836.80     0          0          0          0
MC-148_3         838.00     0          0          0          0
MC-148_4         838.00     0          0          0          0
MC-148_5         841.00     0          0          0          0
MC-148_6         841.00     0          0          0          0
MC-149_2         835.00     0          0          0          0
MC-149_3         832.00     0          0          0          0
MC-149_4         832.00     0          0          0          0
MC-149_5         832.00     0          0          0          0
MC-149_6         832.00     0          0          0          0
MC-151_2         833.00     0          0          0          0
MC-150           823.00     0          0          0          0
MC-151_3         833.00     0          0          0          0
MC-151_4         830.70     0          0          0          0
MC-154_2         835.30     0          0          0          0
MC-152           832.30     0          0          0          0
MC-154_3         830.00     0          0          0          0
MC-154_4         825.40     0          0          0          0
MC-168_2         830.00     0          0          0          0
MC-168_3         822.00     0          0          0          0
MC-168_4         825.20     0          0          0          0
MC-154_5         830.00     0          0          0          0
MC-168_5         822.50     0          0          0          0
MC-168_6         823.23     0          0          0          0
MC-168_7         824.00     0          0          0          0
MC-168_8         822.70     0          0          0          0
MC-169_2         822.70     0          0          0          0
MC-169_3         820.00     0          0          0          0
MC-169_4         821.40     0          0          0          0
MC-169_5         820.80     0          0          0          0
MC-169_6         820.10     0          0          0          0
MC-169_7         820.00     0          0          0          0
MC-169_8         820.00     0          0          0          0
MC-169_9         820.00     0          0          0          0
MC-169_10        825.00     0          0          0          0
MC-177           825.30     0          0          0          0
MC-173_2         823.29     0          0          0          0
MC-173_3         822.00     0          0          0          0
MC-173_4         830.00     0          0          0          0
MC-174_2         831.00     0          0          0          0
MC-174_3         828.00     0          0          0          0
MC-175_2         828.00     0          0          0          0
MC-175_3         828.00     0          0          0          0
MC-178_2         824.00     0          0          0          0
MC-178_3         821.60     0          0          0          0
MC-178WOMP       820.00     0          0          0          0
MC-179_2         830.00     0          0          0          0
MC-180_2         830.00     0          0          0          0
MC-180_3         826.00     0          0          0          0
MC-180_4         826.00     0          0          0          0
MC-182           822.30     0          0          0          0
MC-182_2         818.20     0          0          0          0
MC-182_3         818.20     0          0          0          0
MC-182_4         814.00     0          0          0          0
MC-182_5         814.00     0          0          0          0
MC-184_2         810.00     0          0          0          0
MC-184_3         764.90     0          0          0          0
MC-184_4         755.90     0          0          0          0
MC-184_5         733.80     0          0          0          0
MC-184_6         730.80     0          0          0          0
MC-184_7         740.00     0          0          0          0
MC-128_2         866.00     0          0          0          0
MC-135_2         902.80     0          0          0          0
MC-135_3         861.00     0          0          0          0
MC-95_2          852.30     0          0          0          0
MC-183_2         752.63     0          0          0          0
MC-183_3         744.85     0          0          0          0
MC-183_4         736.66     0          0          0          0
MC-183_5         732.77     0          0          0          0
MC-180_5         825.00     0          0          0          0
MC-181           828.00     0          0          0          0
MC-181_2         828.00     0          0          0          0
MC-181_3         823.49     0          0          0          0
MC-181_4         823.49     0          0          0          0
MC-181_5         819.30     0          0          0          0
MC-181_6         820.50     0          0          0          0
MC-182_6         822.60     0          0          0          0
MC-182_7         822.60     0          0          0          0
MC-182_8         822.30     0          0          0          0
MC-158_3         837.00     0          0          0          0
WL-1             840.00     0          0          0          0
WL-3             840.00     0          0          0          0
N4               840.00     0          0          0          0
MR-1             830.00     0          0          0          0
MR-2             830.00     0          0          0          0
MR-3             850.00     0          0          0          0
MC-184FN13       800.00     0          0          0          0
MR-3_2           860.00     0          0          0          0
N13              850.00     0          0          0          0
MC-184_8         740.00     0          0          0          0
MC-184_9         739.00     0          0          0          0
MC-184_10        731.00     0          0          0          0
MC-184FN10       730.00     0          0          0          0
MC-184FN11       730.00     0          0          0          0
MC-184FN12       730.00     0          0          0          0
Miss             800.00     0          0          0          0
MC-113           882.00     0          0          0          0
MC-1CPkwyT       956.00     0          0          0          0
MC-3Hwy12T       940.90     0          0          0          0
Node_38773878    939.30     0          0          0          0
HW_MC-4          939.50     0          0          0          0
Node_38783879    938.00     0          0          0          0
MC-5_Sh_C2       934.00     0          0          0          0
MC-5_Sh_T        933.75     0          0          0          0
MC-7_RR_T        931.80     0          0          0          0
Node_38803881    931.50     0          0          0          0
MC-6_StRdT       940.00     0          0          0          0
Node_38823880    934.00     0          0          0          0
MC-2CPkwyT       945.60     0          0          0          0
Node_38833877    942.00     0          0          0          0
HW_MC-18nat      963.00     0          0          0          0
Node_38843885    958.00     0          0          0          0
HW_MC-19weir     0          0          0          0          0
Node_38863885    0          0          0          0          0
MC-20_SRdC       932.50     0          0          0          0
Node_38853887    932.50     0          0          0          0
MC-23_SRdT       926.00     0          0          0          0
Node_38873888    925.00     0          0          0          0
HW_MC-21nat      933.80     0          0          0          0
Node_38893914    933.80     0          0          0          0
MC-8_McG_T       929.10     0          0          0          0
Node_38813890    928.75     0          0          0          0
MC-10PDBrT       923.50     0          0          0          0
Node_38903891    923.50     0          0          0          0
MC-17_MRdT       919.40     0          0          0          0
Node_41414116    919.40     0          0          0          0
MC-9_Out_T       932.60     0          0          0          0
Node_38943890    932.30     0          0          0          0
HW_MC-11         930.00     0          0          0          0
Node_38953891    927.00     0          0          0          0
HW_MC-12nat      958.50     0          0          0          0
Node_38963897    958.50     0          0          0          0
MC-15MBdC1       936.00     0          0          0          0
MC-15MBdC2       936.00     0          0          0          0
MC-13BermC       945.00     0          0          0          0
Node_38983899    945.00     0          0          0          0
MC-14_494C       947.00     0          0          0          0
Node_38993897    947.00     0          0          0          0
MC-24_SDrT       921.70     0          0          0          0
Node_39003888    918.00     0          0          0          0
MC-25CRdC1       926.00     0          0          0          0
MC-25CRdC2       926.00     0          0          0          0
HW_MC-28_RRBr    912.32     0          0          0          0
Node_38934111    912.32     0          0          0          0
MC-31_CCrT       907.35     0          0          0          0
Node_39014106    907.20     0          0          0          0
MC-32_RRT        906.90     0          0          0          0
Node_41074103    906.90     0          0          0          0
Node_73          904.80     0          0          0          0
Node_41014098    904.80     0          0          0          0
MC-41MBdT        0          0          0          0          0
Node_39043905    0          0          0          0          0
MC-43_169C       895.10     0          0          0          0
MC-43_169R       895.00     0          0          0          0
MC-44_RCtT       936.70     0          0          0          0
Node_39073908    934.70     0          0          0          0
MC-45_WLnT       930.90     0          0          0          0
Node_39083909    926.40     0          0          0          0
HW_MC-46         910.00     0          0          0          0
Node_39093910    910.00     0          0          0          0
HW_MC-47weir     0          0          0          0          0
Node_39104012    0          0          0          0          0
HW_MC-48         927.00     0          0          0          0
Node_39113912    927.00     0          0          0          0
Node_52          0          0          0          0          0
Node_39123906    0          0          0          0          0
HW_MC-49         0          0          0          0          0
Node_39134013    0          0          0          0          0
HW_MC-22nat      929.00     0          0          0          0
Node_39143887    928.99     0          0          0          0
MC-30_CRdT       908.40     0          0          0          0
Node_39153901    908.10     0          0          0          0
HW_MC-33nat      917.00     0          0          0          0
Node_39163917    917.00     0          0          0          0
HW_MC-34         910.00     0          0          0          0
Node_39173903    906.00     0          0          0          0
HW_MC-26MDrT     933.00     0          0          0          0
Node_39184123    933.00     0          0          0          0
HW_MC-27         939.00     0          0          0          0
Node_39193893    939.00     0          0          0          0
MC-35_MBdT       905.60     0          0          0          0
Node_39203903    905.15     0          0          0          0
MC-36_MBdT       909.90     0          0          0          0
Node_39213903    909.45     0          0          0          0
HW_MC-40         907.00     0          0          0          0
Node_39223904    902.00     0          0          0          0
MC-42ORdC2       900.30     0          0          0          0
MC-42ORdT        899.90     0          0          0          0
MC-38_CRdT       916.70     0          0          0          0
Node_39243925    902.00     0          0          0          0
HW_MC-39         900.00     0          0          0          0
Node_39253904    899.70     0          0          0          0
Node_51          900.00     0          0          0          0
Node_39264015    894.90     0          0          0          0
MC-53_34T        899.00     0          0          0          0
Node_39063927    0          0          0          0          0
MC-56_36Br       898.30     0          0          0          0
MC-56_36Rt       898.30     0          0          0          0
MC-56_37Br       896.60     0          0          0          0
MC-56_37Rt       896.60     0          0          0          0
Node_61          896.60     0          0          0          0
Node_40734071    896.50     0          0          0          0
Node_65          887.60     0          0          0          0
Node_40524037    887.50     0          0          0          0
MC-68LABrC       883.70     0          0          0          0
MC-68LABrR       883.70     0          0          0          0
MC-65MRdBC       888.40     0          0          0          0
MC-65MRdBR       888.40     0          0          0          0
MC-69EBdT        883.40     0          0          0          0
Node_39324021    883.40     0          0          0          0
MC-77_100T       881.00     0          0          0          0
Node_41473935    881.00     0          0          0          0
MC-59_VAvT       900.00     0          0          0          0
Node_39363929    899.50     0          0          0          0
MC-58CStT        895.50     0          0          0          0
Node_40753929    895.50     0          0          0          0
Node_66          891.80     0          0          0          0
Node_39384029    891.80     0          0          0          0
MC-57_7T         897.00     0          0          0          0
Node_40764074    897.00     0          0          0          0
Node_55          899.06     0          0          0          0
Node_39404085    895.60     0          0          0          0
Node_63          910.00     0          0          0          0
Node_39693970    908.30     0          0          0          0
Node_64          908.30     0          0          0          0
Node_39704051    895.00     0          0          0          0
Node_71          992.00     0          0          0          0
Node_39714021    992.00     0          0          0          0
Node_79          896.38     0          0          0          0
Node_39953935    882.00     0          0          0          0
Node_78          0          0          0          0          0
Node_39964202    0          0          0          0          0
Node_80          885.45     0          0          0          0
Node_40014195    882.48     0          0          0          0
Node_50          0          0          0          0          0
Node_40114014    0          0          0          0          0
HW_MC-47         894.30     0          0          0          0
Node_40123911    893.60     0          0          0          0
HW_MC-47_2       922.00     0          0          0          0
Node_39103911    922.00     0          0          0          0
HW_MC-49_2       917.00     0          0          0          0
Node_39134011    917.00     0          0          0          0
HW_MC-49_3       898.21     0          0          0          0
Node_40133926    913.21     0          0          0          0
Node_40144017    911.30     0          0          0          0
MC-16MRd.1       935.00     0          0          0          0
Node_38914137    935.00     0          0          0          0
Node_40153912    894.20     0          0          0          0
Node_40174015    910.30     0          0          0          0
MC-61LStT        897.00     0          0          0          0
Node_40194020    896.30     0          0          0          0
Node_40543930    887.80     0          0          0          0
MC-71_OutT       883.90     0          0          0          0
Node_40224021    881.50     0          0          0          0
Node_40234021    891.50     0          0          0          0
Node_74          884.90     0          0          0          0
Node_40244021    883.40     0          0          0          0
MC-75BAvT        883.40     0          0          0          0
Node_40214031    883.39     0          0          0          0
Node_76          883.40     0          0          0          0
Node_40314032    883.70     0          0          0          0
Node_67          880.80     0          0          0          0
Node_40294042    880.30     0          0          0          0
Node_39714030    887.52     0          0          0          0
Node_40304021    882.07     0          0          0          0
Node_40324033    881.80     0          0          0          0
Node_40334034    881.30     0          0          0          0
Node_40344035    882.80     0          0          0          0
MC-76_44T        882.80     0          0          0          0
Node_40354036    881.60     0          0          0          0
Node_77          881.60     0          0          0          0
Node_40364145    881.60     0          0          0          0
Node_39384041    885.50     0          0          0          0
MC-66LStC2       885.50     0          0          0          0
Node_40414029    884.50     0          0          0          0
Node_40424043    0          0          0          0          0
Node_40434044    886.30     0          0          0          0
Node_40443931    884.70     0          0          0          0
Node_39694021    912.00     0          0          0          0
Node_40513930    891.55     0          0          0          0
Node_39304052    887.60     0          0          0          0
Node_40554053    890.60     0          0          0          0
Node_40534054    890.20     0          0          0          0
Node_62          890.60     0          0          0          0
Node_40694070    890.60     0          0          0          0
Node_40204056    896.20     0          0          0          0
Node_40564057    894.70     0          0          0          0
Node_40574058    895.00     0          0          0          0
Node_40584059    893.00     0          0          0          0
Node_40594060    893.00     0          0          0          0
Node_40604061    892.50     0          0          0          0
Node_40614062    892.50     0          0          0          0
Node_40624063    892.40     0          0          0          0
Node_40634064    892.20     0          0          0          0
Node_40644065    892.10     0          0          0          0
MC-62_RR_T       892.10     0          0          0          0
Node_40654066    892.10     0          0          0          0
Node_40664067    891.30     0          0          0          0
Node_40674068    890.00     0          0          0          0
Node_40684069    890.60     0          0          0          0
MC-62_BTT        890.60     0          0          0          0
Node_40704055    890.60     0          0          0          0
Node_40714072    897.00     0          0          0          0
Node_40724019    897.00     0          0          0          0
MC-60BRdT        896.60     0          0          0          0
Node_39294073    896.60     0          0          0          0
Node_169         903.42     0          0          0          0
Node_39374074    898.28     0          0          0          0
Node_58          897.00     0          0          0          0
Node_40744075    895.50     0          0          0          0
Node_57          896.63     0          0          0          0
Node_39394080    894.70     0          0          0          0
Node_40794078    897.00     0          0          0          0
Node_40784076    897.00     0          0          0          0
Node_40774080    894.70     0          0          0          0
Node_40804079    896.10     0          0          0          0
Node_56          897.90     0          0          0          0
Node_40864081    897.70     0          0          0          0
Node_40814082    896.30     0          0          0          0
Node_40823928    896.20     0          0          0          0
Node_39284084    895.80     0          0          0          0
Node_40844085    895.60     0          0          0          0
Node_40854083    895.60     0          0          0          0
Node_54          898.20     0          0          0          0
Node_39274088    898.20     0          0          0          0
Node_40884089    898.20     0          0          0          0
Node_40894090    897.80     0          0          0          0
Node_40904091    897.80     0          0          0          0
Node_40914092    896.80     0          0          0          0
Node_40924093    897.90     0          0          0          0
Node_40934087    897.90     0          0          0          0
HW_MC-41         915.00     0          0          0          0
Node_39043923    915.00     0          0          0          0
HW_MC-41xsec1    904.80     0          0          0          0
Node_40984094    904.80     0          0          0          0
HW_MC-41xsec2    904.80     0          0          0          0
Node_40944095    905.10     0          0          0          0
HW_MC-41xsec3    905.10     0          0          0          0
Node_40954096    905.10     0          0          0          0
HW_MC-41xsec4    905.10     0          0          0          0
Node_40964097    905.20     0          0          0          0
HW_MC-41xsec5    905.20     0          0          0          0
Node_40974099    905.00     0          0          0          0
HW_MC-41xsec6    905.00     0          0          0          0
Node_40994100    903.50     0          0          0          0
HW_MC-41xsec7    903.50     0          0          0          0
Node_41003904    901.60     0          0          0          0
HW_MC-37xsec4    904.60     0          0          0          0
Node_39034102    904.80     0          0          0          0
HW_MC-37xsec5    904.80     0          0          0          0
Node_41024101    904.80     0          0          0          0
HW_MC-37xsec1    906.90     0          0          0          0
Node_41034104    906.30     0          0          0          0
HW_MC-37xsec2    906.30     0          0          0          0
Node_41044105    905.90     0          0          0          0
HW_MC-37xsec3    905.90     0          0          0          0
Node_41053903    904.60     0          0          0          0
HW_MC-32xsec1    907.20     0          0          0          0
Node_41064108    906.80     0          0          0          0
HW_MC-32xsec2    906.80     0          0          0          0
Node_41084109    907.20     0          0          0          0
HW_MC-32xsec3    907.20     0          0          0          0
Node_41093902    907.10     0          0          0          0
HW_MC-32xsec4    907.10     0          0          0          0
Node_39024110    907.10     0          0          0          0
HW_MC-32xsec5    907.10     0          0          0          0
Node_41104107    906.90     0          0          0          0
MC-29_AMiT       909.60     0          0          0          0
Node_41114112    909.60     0          0          0          0
HW_MC-31xsec1    909.60     0          0          0          0
Node_41124113    909.60     0          0          0          0
HW_MC-31xsec2    909.60     0          0          0          0
Node_41134114    909.10     0          0          0          0
HW_MC-31xsec3    909.10     0          0          0          0
Node_41144115    908.40     0          0          0          0
MC-31_PDT        908.40     0          0          0          0
Node_41153901    908.40     0          0          0          0
HW_MC-28xsec9    914.80     0          0          0          0
Node_41244117    914.20     0          0          0          0
HW_MC-28sec10    914.20     0          0          0          0
Node_41174118    914.30     0          0          0          0
HW_MC-28sec11    914.30     0          0          0          0
Node_41184119    913.70     0          0          0          0
HW_MC-28sec12    913.70     0          0          0          0
Node_41194120    913.10     0          0          0          0
MC-28_PDT        912.40     0          0          0          0
Node_41263893    912.40     0          0          0          0
HW_MC-28xsec5    916.50     0          0          0          0
Node_41314121    916.50     0          0          0          0
HW_MC-28xsec6    916.50     0          0          0          0
Node_41214122    914.80     0          0          0          0
HW_MC-28xsec7    914.80     0          0          0          0
Node_41224123    915.00     0          0          0          0
HW_MC-28xsec8    915.00     0          0          0          0
Node_41234124    914.80     0          0          0          0
HW_MC-28sec13    913.10     0          0          0          0
Node_41204125    912.50     0          0          0          0
HW_MC-28sec14    912.50     0          0          0          0
Node_41254126    912.40     0          0          0          0
HW_MC-28xsec1    919.40     0          0          0          0
Node_41164127    917.20     0          0          0          0
HW_MC-28xsec2    917.20     0          0          0          0
Node_41274128    916.80     0          0          0          0
HW_MC-28xsec3    916.80     0          0          0          0
Node_41284129    916.50     0          0          0          0
HW_MC-28xsec4    916.50     0          0          0          0
Node_41294130    916.50     0          0          0          0
MC-28_BStT       916.50     0          0          0          0
Node_41304131    916.50     0          0          0          0
HW_MC-17xsec1    923.70     0          0          0          0
Node_41374132    923.70     0          0          0          0
HW_MC-17xsec2    923.70     0          0          0          0
Node_41324133    924.50     0          0          0          0
HW_MC-17xsec3    924.50     0          0          0          0
Node_41334134    924.50     0          0          0          0
HW_MC-17xsec4    924.50     0          0          0          0
Node_41344135    924.00     0          0          0          0
HW_MC-17xsec5    924.00     0          0          0          0
Node_41354136    924.00     0          0          0          0
MC17_494C2       924.00     0          0          0          0
MC-17_494T       924.00     0          0          0          0
HW_MC-17xsec6    924.00     0          0          0          0
Node_41424138    924.00     0          0          0          0
HW_MC-17xsec7    924.00     0          0          0          0
Node_41383892    924.50     0          0          0          0
HW_MC-17xsec8    924.50     0          0          0          0
Node_38924140    924.80     0          0          0          0
HW_MC-17xsec9    924.80     0          0          0          0
Node_41404139    924.30     0          0          0          0
HW_MC-17sec10    924.30     0          0          0          0
Node_41394143    922.90     0          0          0          0
HW_MC-17sec11    922.90     0          0          0          0
Node_41434144    920.80     0          0          0          0
HW_MC-17sec12    920.80     0          0          0          0
Node_41444141    919.40     0          0          0          0
Node_41454146    881.60     0          0          0          0
Node_41463934    880.80     0          0          0          0
Node_39344148    881.40     0          0          0          0
Node_41484149    880.70     0          0          0          0
Node_41494150    881.40     0          0          0          0
Node_41504147    881.00     0          0          0          0
Node_41954196    882.04     0          0          0          0
Node_41963935    882.00     0          0          0          0
Node_42024203    911.36     0          0          0          0
Node_42033995    896.38     0          0          0          0
Node_81          0          0          0          0          0
Node_39354212    0          0          0          0          0
Node_75          0          0          0          0          0
Node_40214213    0          0          0          0          0
Node_443         0          0          0          0          0
Node_42153894    0          0          0          0          0
HW_MC-15         0          0          0          0          0
Node_42163897    0          0          0          0          0
HW_MC-17         0          0          0          0          0
Node_42173892    0          0          0          0          0
MC-81_BAvT       883.15     0          0          0          0
Node_39354151    883.15     0          0          0          0
Node_100         873.30     0          0          0          0
Node_94969564    873.30     0          0          0          0
Node_101         874.60     0          0          0          0
Node_95749577    873.91     0          0          0          0
Node_102         870.35     0          0          0          0
Node_95769581    868.10     0          0          0          0
Node_103         869.83     0          0          0          0
Node_94999581    868.19     0          0          0          0
Node_104         0          0          0          0          0
Node_95009584    0          0          0          0          0
Node_105         0          0          0          0          0
Node_95959597    0          0          0          0          0
Node_109         847.00     0          0          0          0
Node_95029503    847.00     0          0          0          0
Node_121         847.00     0          0          0          0
Node_95039510    847.00     0          0          0          0
Node_126         0          0          0          0          0
Node_95049505    0          0          0          0          0
Node_127         848.00     0          0          0          0
Node_95059506    846.00     0          0          0          0
Node_110         876.00     0          0          0          0
Node_95089604    871.30     0          0          0          0
Node_122         847.00     0          0          0          0
Node_95109504    847.00     0          0          0          0
Node_118         855.00     0          0          0          0
Node_95119504    850.00     0          0          0          0
Node_117         857.50     0          0          0          0
Node_95129504    852.10     0          0          0          0
Node_123         851.70     0          0          0          0
Node_95139504    847.70     0          0          0          0
Node_120         855.90     0          0          0          0
Node_95149503    853.60     0          0          0          0
Node_119         854.30     0          0          0          0
Node_95159610    852.16     0          0          0          0
MC-108CPkT       845.00     0          0          0          0
Node_95169502    845.00     0          0          0          0
Node_107         857.50     0          0          0          0
Node_95179516    850.00     0          0          0          0
Node_128         864.70     0          0          0          0
Node_95189845    858.80     0          0          0          0
Node_124         856.50     0          0          0          0
Node_95199624    854.05     0          0          0          0
Node_125         842.80     0          0          0          0
Node_96229623    842.80     0          0          0          0
Node_115         870.30     0          0          0          0
Node_95219607    869.30     0          0          0          0
Node_116         861.00     0          0          0          0
Node_95229504    852.90     0          0          0          0
Node_112         870.85     0          0          0          0
Node_95239521    869.48     0          0          0          0
Node_114         869.70     0          0          0          0
Node_95099606    867.80     0          0          0          0
Node_82          871.70     0          0          0          0
Node_96219618    869.10     0          0          0          0
MC-87_54T        858.40     0          0          0          0
Node_96419642    858.40     0          0          0          0
MC-88_56T        852.80     0          0          0          0
Node_96459646    852.80     0          0          0          0
MC-92_FAvT       851.70     0          0          0          0
Node_96479653    851.30     0          0          0          0
Node_94          845.70     0          0          0          0
Node_96619530    844.50     0          0          0          0
MC-94_UAvT       843.10     0          0          0          0
Node_96629665    843.10     0          0          0          0
Node_96          841.70     0          0          0          0
Node_95319666    841.80     0          0          0          0
Node_99          836.20     0          0          0          0
Node_96849688    836.20     0          0          0          0
MC-99_HAvT       835.90     0          0          0          0
Node_96859691    835.50     0          0          0          0
Node_132         834.61     0          0          0          0
Node_96959697    834.80     0          0          0          0
MC-133LAvT       833.90     0          0          0          0
Node_97009701    833.90     0          0          0          0
Node_136         829.40     0          0          0          0
Node_97169717    829.00     0          0          0          0
Node_137         826.50     0          0          0          0
Node_95379724    825.80     0          0          0          0
MC-141MPkT       821.10     0          0          0          0
Node_95389539    821.10     0          0          0          0
Node_141         821.10     0          0          0          0
Node_95399783    820.00     0          0          0          0
Node_98189759    810.30     0          0          0          0
Node_173         809.13     0          0          0          0
Node_98219822    810.79     0          0          0          0
Node_174         809.50     0          0          0          0
Node_95419824    806.05     0          0          0          0
MC-175NAvT       809.50     0          0          0          0
Node_98269827    809.50     0          0          0          0
MC-178Ft2T       807.90     0          0          0          0
Node_98299557    807.90     0          0          0          0
MC-182_FtT       798.20     0          0          0          0
Node_98379838    798.20     0          0          0          0
MC-184Ft3T       719.10     0          0          0          0
Node_98429843    719.10     0          0          0          0
Node_89          862.60     0          0          0          0
Node_95469611    861.45     0          0          0          0
Node_90          856.40     0          0          0          0
Node_95479548    856.40     0          0          0          0
MC-91_58T        855.00     0          0          0          0
Node_95489649    853.50     0          0          0          0
MC-129_P2        847.06     0          0          0          0
Node_95499506    846.16     0          0          0          0
MC-131HAvT       840.47     0          0          0          0
Node_96909691    840.00     0          0          0          0
Node_95          845.84     0          0          0          0
Node_95519848    843.93     0          0          0          0
Node_97          838.90     0          0          0          0
Node_95529675    838.50     0          0          0          0
Node_134         850.20     0          0          0          0
Node_95539701    850.18     0          0          0          0
Node_139         838.80     0          0          0          0
Node_95549555    822.70     0          0          0          0
Node_140         822.70     0          0          0          0
Node_95559783    821.30     0          0          0          0
Node_147         820.80     0          0          0          0
Node_95569786    818.30     0          0          0          0
Node_179         807.90     0          0          0          0
Node_95579830    808.50     0          0          0          0
Node_183         728.27     0          0          0          0
Node_98529842    726.65     0          0          0          0
Node_176         810.30     0          0          0          0
Node_95599827    810.00     0          0          0          0
Node_95609521    873.10     0          0          0          0
Node_83          884.00     0          0          0          0
Node_95509561    884.00     0          0          0          0
Node_84          875.99     0          0          0          0
Node_95619613    872.58     0          0          0          0
Node_85          866.14     0          0          0          0
Node_95629616    866.14     0          0          0          0
Node_86          861.30     0          0          0          0
Node_95259636    860.90     0          0          0          0
Node_95649565    874.30     0          0          0          0
MC-100_P2        0          0          0          0          0
Node_95659566    0          0          0          0          0
Node_95669567    886.50     0          0          0          0
Node_95679568    885.30     0          0          0          0
Node_95689497    876.60     0          0          0          0
Node_41519570    873.50     0          0          0          0
Node_95709571    872.70     0          0          0          0
Node_95719572    872.60     0          0          0          0
MC-81_50T        872.60     0          0          0          0
MC-81nat         871.70     0          0          0          0
MC-101weir       0          0          0          0          0
Node_94979573    0          0          0          0          0
Node_95739574    874.60     0          0          0          0
Node_94989578    873.26     0          0          0          0
Node_95759576    870.35     0          0          0          0
Node_95779575    871.98     0          0          0          0
MC-102SS1b       873.26     0          0          0          0
Node_95789579    873.30     0          0          0          0
Node_95799580    873.05     0          0          0          0
Node_95809575    872.57     0          0          0          0
MC-104_W2        0          0          0          0          0
Node_95819582    0          0          0          0          0
Node_95829583    868.30     0          0          0          0
Node_95839500    869.70     0          0          0          0
Node_95849586    864.30     0          0          0          0
Node_95939502    852.30     0          0          0          0
Node_95869587    861.80     0          0          0          0
Node_95879588    860.80     0          0          0          0
Node_95889589    860.20     0          0          0          0
MC-104BrmT       860.30     0          0          0          0
Node_95899590    859.98     0          0          0          0
Node_95909591    858.80     0          0          0          0
Node_95919592    858.60     0          0          0          0
Node_95859501    850.30     0          0          0          0
Node_95929585    854.03     0          0          0          0
Node_95859593    0          0          0          0          0
Node_95019596    0          0          0          0          0
Node_95949595    852.80     0          0          0          0
MC-105_P1B       850.30     0          0          0          0
MC-105_P1C       850.30     0          0          0          0
Node_95019594    855.30     0          0          0          0
Node_95959598    0          0          0          0          0
Node_95959599    0          0          0          0          0
Node_95999597    848.80     0          0          0          0
Node_95989597    848.80     0          0          0          0
Node_95979502    848.80     0          0          0          0
Node_95959502    857.30     0          0          0          0
Node_106         860.00     0          0          0          0
Node_96009601    859.99     0          0          0          0
MC-106SS1T       855.30     0          0          0          0
Node_96019602    854.80     0          0          0          0
MC-106SS2T       854.30     0          0          0          0
Node_96029603    853.94     0          0          0          0
MC-106SS3T       853.43     0          0          0          0
Node_96039502    853.30     0          0          0          0
Node_96049605    870.10     0          0          0          0
Node_96059606    867.70     0          0          0          0
Node_96069521    867.30     0          0          0          0
Node_96079608    868.26     0          0          0          0
Node_96089609    866.70     0          0          0          0
Node_96099522    866.30     0          0          0          0
Node_96109503    850.60     0          0          0          0

[OUTFALLS]
;;Name           Elev       Type       Stage      Gated
;;-------------- ---------- ---------- ---------- -----
Node_38763877    955.00     FREE                  NO

[STORAGE]
;;Name           Elev       MaxDepth   InitDepth  Shape      Curve/Params
;;-------------- ---------- ---------- ---------- ---------- ----------
MC-24            926.00     10.00      0          FUNCTIONAL 1000.00 0          0
MC-44            942.00     10.00      0.70       FUNCTIONAL 1000.00 0          0
MC-47            929.00     10.00      2.00       FUNCTIONAL 1000.00 0          0
MC-48            930.00     10.00      2.70       FUNCTIONAL 1000.00 0          0
MC-49            950.00     10.00      1.21       FUNCTIONAL 1000.00 0          0
MC-33            920.00     10.00      3.60       FUNCTIONAL 1000.00 0          0
MC-26            936.00     10.00      2.00       FUNCTIONAL 1000.00 0          0
MC-35            918.00     10.00      0          FUNCTIONAL 1000.00 0          0
MC-101_2         879.58     10.00      0          FUNCTIONAL 16.00 0          0
MC-105_4         856.30     10.00      2.50       FUNCTIONAL 38.48 0          0
MC-105_5         852.80     10.00      3.05       FUNCTIONAL 38.48 0          0
MC-105_6         852.80     10.00      3.05       FUNCTIONAL 38.48 0          0
MC-105_7         852.80     10.00      3.05       FUNCTIONAL 38.48 0          0
MC-106           864.00     10.00      0          FUNCTIONAL 1000.00 0          0
MC-125Out        853.80     10.00      9.05       FUNCTIONAL 96.00 0          0
MC-124_2         859.20     10.00      6.05       FUNCTIONAL 84.00 0          0
MC-126_2         859.25     10.00      5.46       FUNCTIONAL 28.30 0          0

[CONDUITS]
;;Name           From             To               Length     Roughness  InOffset   OutOffset  InitFlow   MaxFlow
;;-------------- ---------------- ---------------- ---------- ---------- ---------- ---------- ---------- ----------
MC-1CPkwyC       MC-1CPkwyT       Node_38763877    210.00     0.0130     956.00     955.00     0          0
MC-3Hwy12C       MC-3Hwy12T       Node_38773878    320.00     0.0130     940.90     939.30     0          0
MC-4             HW_MC-4          Node_38783879    200.00     0.0140     939.50     938.00     0          0
MC-5_Sh_C1       MC-5_Sh_C2       MC-5_Sh_T        50.00      0.0130     934.00     933.75     0          0
MC-7_RR_C        MC-7_RR_T        Node_38803881    65.00      0.0130     931.80     931.50     0          0
MC-6_StRdC       MC-6_StRdT       Node_38823880    700.00     0.0240     940.00     934.00     0          0
MC-2CPkwyC       MC-2CPkwyT       Node_38833877    260.00     0.0130     945.60     942.00     0          0
MC-18nat         HW_MC-18nat      Node_38843885    200.00     0.0140     963.00     958.00     0          0
MC-20_SRdT       MC-20_SRdC       Node_38853887    30.00      0.0130     932.50     932.50     0          0
MC-23_SRdC       MC-23_SRdT       Node_38873888    200.00     0.0240     926.00     925.00     0          0
MC-21nat         HW_MC-21nat      Node_38893914    20.00      0.0140     933.80     933.80     0          0
MC-8_McG_C       MC-8_McG_T       Node_38813890    70.00      0.0130     929.10     928.75     0          0
MC-10PDBrO       MC-10PDBrT       Node_38903891    8.00       0.0300     923.50     923.50     0          0
MC-17_MRdB       MC-17_MRdT       Node_41414116    66.30      0.0140     919.40     919.40     0          0
MC-9_Out_C       MC-9_Out_T       Node_38943890    55.00      0.0130     932.60     932.30     0          0
MC-11            HW_MC-11         Node_38953891    2000.00    0.0140     930.00     927.00     0          0
MC-12nat         HW_MC-12nat      Node_38963897    20.00      0.0140     958.50     958.50     0          0
MC-15MBdT        MC-15MBdC1       MC-15MBdC2       50.00      0.0130     936.00     936.00     0          0
MC-13BermT       MC-13BermC       Node_38983899    40.00      0.0130     945.00     945.00     0          0
MC14_494OC       MC-14_494C       Node_38993897    200.00     0.0130     947.00     947.00     0          0
MC-24_SDrC       MC-24_SDrT       Node_39003888    300.00     0.0240     921.70     918.00     0          0
MC-25CRdT        MC-25CRdC1       MC-25CRdC2       70.00      0.0130     926.00     926.00     0          0
MC-28_RRBr       HW_MC-28_RRBr    Node_38934111    15.00      0.0140     912.32     912.32     0          0
MC-31_CCrB       MC-31_CCrT       Node_39014106    60.00      0.0130     907.35     907.20     0          0
MC-32_RRBr       MC-32_RRT        Node_41074103    34.00      0.0140     906.90     906.90     0          0
MC-37_73Br       Node_73          Node_41014098    62.00      0.0140     904.80     904.80     0          0
MC-41MBdBr       MC-41MBdT        Node_39043905    50.00      0.0600     0          0          0          0
MC-43_169L       MC-43_169C       MC-43_169R       129.00     0.0150     895.10     895.00     0          0
MC-44_PD_C       MC-44_RCtT       Node_39073908    400.00     0.0240     936.70     934.70     0          0
MC-45_WLnC       MC-45_WLnT       Node_39083909    900.00     0.0130     930.90     926.40     0          0
MC-46            HW_MC-46         Node_39093910    100.00     0.0130     910.00     910.00     0          0
MC-48            HW_MC-48         Node_39113912    50.00      0.0140     927.00     927.00     0          0
MC-22nat         HW_MC-22nat      Node_39143887    70.00      0.0140     929.00     928.99     0          0
MC-30_CRdC       MC-30_CRdT       Node_39153901    60.00      0.0240     908.40     908.10     0          0
MC-33nat         HW_MC-33nat      Node_39163917    20.00      0.0140     917.00     917.00     0          0
MC-34            HW_MC-34         Node_39173903    3000.00    0.0140     910.00     906.00     0          0
MC-26MDrT        HW_MC-26MDrT     Node_39184123    10.00      0.0140     933.00     933.00     0          0
MC-27            HW_MC-27         Node_39193893    12.00      0.0140     939.00     939.00     0          0
MC-35_MBdC       MC-35_MBdT       Node_39203903    90.00      0.0240     905.60     905.15     0          0
MC-36_MBdC       MC-36_MBdT       Node_39213903    90.00      0.0240     909.90     909.45     0          0
MC-40            HW_MC-40         Node_39223904    1000.00    0.0130     907.00     902.00     0          0
MC-42ORdC1       MC-42ORdC2       MC-42ORdT        80.00      0.0130     900.30     899.90     0          0
MC-38_CRdC       MC-38_CRdT       Node_39243925    1000.00    0.0130     916.70     902.00     0          0
MC-39            HW_MC-39         Node_39253904    50.00      0.0600     900.00     899.70     0          0
MC-51CAveC       Node_51          Node_39264015    2203.50    0.0140     900.00     894.90     0          0
MC-53_34Br       MC-53_34T        Node_39063927    40.00      0.0130     899.00     0          0          0
MC-56_36Lt       MC-56_36Br       MC-56_36Rt       67.00      0.0140     898.30     898.30     0          0
MC-56_37Lt       MC-56_37Br       MC-56_37Rt       66.00      0.0140     896.60     896.60     0          0
MC-61xsec1       Node_61          Node_40734071    37.00      0.0140     896.60     896.50     0          0
MC-65xsec5       Node_65          Node_40524037    43.00      0.0140     887.60     887.50     0          0
MC-68LABrL       MC-68LABrC       MC-68LABrR       39.70      0.0130     883.70     883.70     0          0
MC-65MRdBL       MC-65MRdBC       MC-65MRdBR       59.00      0.0140     888.40     888.40     0          0
MC-69EBdBr       MC-69EBdT        Node_39324021    62.00      0.0300     883.40     883.40     0          0
MC-77_100B       MC-77_100T       Node_41473935    133.00     0.0140     881.00     881.00     0          0
MC-59_VAvC       MC-59_VAvT       Node_39363929    200.00     0.0140     900.00     899.50     0          0
MC-58CStBr       MC-58CStT        Node_40753929    54.00      0.0140     895.50     895.50     0          0
MC-66            Node_66          Node_39384029    20.00      0.0140     891.80     891.80     0          0
MC-57_7Br        MC-57_7T         Node_40764074    108.00     0.0130     897.00     897.00     0          0
MC-55            Node_55          Node_39404085    1470.00    0.0140     899.06     895.60     0          0
MC-63KCiFM       Node_63          Node_39693970    1600.00    0.0150     910.00     908.30     0          0
MC-64PRdC1       Node_64          Node_39704051    1357.00    0.0140     908.30     895.00     0          0
MC-71            Node_71          Node_39714021    30.00      0.0140     992.00     992.00     0          0
MC-79            Node_79          Node_39953935    3900.00    0.0140     896.38     882.00     0          0
MC-80            Node_80          Node_40014195    1039.00    0.0130     885.45     882.48     0          0
MC-47            HW_MC-47         Node_40123911    500.00     0.0130     894.30     893.60     0          0
MC-47_2          HW_MC-47_2       Node_39103911    50.00      0.0130     922.00     922.00     0          0
MC-49_2          HW_MC-49_2       Node_39134011    30.00      0.0140     917.00     917.00     0          0
MC-49_3          HW_MC-49_3       Node_40133926    3000.00    0.0130     898.21     913.21     0          0
MC-50_2          Node_50          Node_40144017    1500.00    0.0130     895.49     911.30     0          0
MC-16MRdT        MC-16MRd.1       Node_38914137    50.00      0.0140     935.00     935.00     0          0
MC-51MBdC        Node_51          Node_40153912    470.50     0.0140     894.90     894.20     0          0
MC-50MBdC        Node_50          Node_40174015    68.00      0.0140     911.30     910.30     0          0
MC-61LStBr       MC-61LStT        Node_40194020    53.00      0.0140     897.00     896.30     0          0
MC-65xsec3       Node_65          Node_40543930    151.00     0.0140     890.20     887.80     0          0
MC-71_OutC       MC-71_OutT       Node_40224021    3500.00    0.0240     883.90     881.50     0          0
MC-73            Node_73          Node_40234021    10.00      0.0130     891.50     891.50     0          0
MC-74            Node_74          Node_40244021    740.00     0.0130     884.90     883.40     0          0
MC-75BAvBr       MC-75BAvT        Node_40214031    37.00      0.0130     883.40     883.39     0          0
MC-76xsec1       Node_76          Node_40314032    49.00      0.0140     883.40     883.70     0          0
MC-67            Node_67          Node_40294042    270.00     0.0140     880.80     880.30     0          0
MC-71MLnC1       Node_71          Node_39714030    247.00     0.0130     887.00     887.52     0          0
MC-71MLnC2       Node_71          Node_40304021    1445.00    0.0140     886.29     882.07     0          0
MC-76xsec2       Node_76          Node_40324033    768.00     0.0140     883.70     881.80     0          0
MC-76xsec3       Node_76          Node_40334034    613.00     0.0140     881.80     881.30     0          0
MC-76xsec4       Node_76          Node_40344035    49.00      0.0140     881.30     882.80     0          0
MC-76_44Br       MC-76_44T        Node_40354036    41.00      0.0140     882.80     881.60     0          0
MC-77xsec1       Node_77          Node_40364145    43.00      0.0140     881.60     881.60     0          0
MC-66_2          Node_66          Node_39384041    1270.00    0.0130     886.30     885.50     0          0
MC-66LStC1       MC-66LStC2       Node_40414029    460.00     0.0130     885.50     884.50     0          0
MC-67_3          Node_67          Node_40434044    328.00     0.0120     887.30     886.30     0          0
MC-67_4          Node_67          Node_40443931    638.00     0.0140     886.30     884.70     0          0
MC-63            Node_63          Node_39694021    35.00      0.0130     912.00     912.00     0          0
MC-64PRdC2       Node_64          Node_40513930    1150.00    0.0140     895.00     891.55     0          0
MC-65xsec4       Node_65          Node_39304052    290.00     0.0140     887.80     887.60     0          0
MC-65xsec1       Node_65          Node_40554053    10.00      0.0140     890.60     890.60     0          0
MC-65xsec2       Node_65          Node_40534054    34.00      0.0140     890.60     890.20     0          0
MC-62sec14       Node_62          Node_40694070    10.00      0.0130     890.60     890.60     0          0
MC-62xsec1       Node_62          Node_40204056    41.00      0.0140     896.30     896.20     0          0
MC-62xsec2       Node_62          Node_40564057    672.00     0.0140     896.20     894.70     0          0
MC-62xsec3       Node_62          Node_40574058    265.00     0.0140     894.70     895.00     0          0
MC-62xsec4       Node_62          Node_40584059    343.00     0.0140     895.00     893.00     0          0
MC-62xsec5       Node_62          Node_40594060    538.00     0.0140     893.00     893.00     0          0
MC-62xsec6       Node_62          Node_40604061    145.00     0.0140     893.00     892.50     0          0
MC-62xsec7       Node_62          Node_40614062    36.00      0.0140     892.50     892.50     0          0
MC-62xsec8       Node_62          Node_40624063    28.00      0.0140     892.50     892.40     0          0
MC-62xsec9       Node_62          Node_40634064    132.00     0.0140     892.40     892.20     0          0
MC-62sec10       Node_62          Node_40644065    46.00      0.0140     892.20     892.10     0          0
MC-62_RRBr       MC-62_RR_T       Node_40654066    25.00      0.0140     892.10     892.10     0          0
MC-62sec11       Node_62          Node_40664067    30.00      0.0140     892.10     891.30     0          0
MC-62sec12       Node_62          Node_40674068    95.00      0.0130     891.30     890.00     0          0
MC-62sec13       Node_62          Node_40684069    8.00       0.0140     890.00     890.60     0          0
MC-62_BTBr       MC-62_BTT        Node_40704055    10.00      0.0140     890.60     890.60     0          0
MC-61xsec2       Node_61          Node_40714072    180.00     0.0140     896.50     897.00     0          0
MC-61xsec3       Node_61          Node_40724019    29.00      0.0140     897.00     897.00     0          0
MC-60BRdBr       MC-60BRdT        Node_39294073    112.00     0.0140     896.60     896.60     0          0
MC-58            Node_169         Node_39374074    1866.00    0.0140     903.42     898.28     0          0
MC-58xsec1       Node_58          Node_40744075    87.00      0.0140     897.00     895.50     0          0
MC-57            Node_57          Node_39394080    705.30     0.0140     896.63     894.70     0          0
MC-57xsec3       Node_57          Node_40794078    62.00      0.0140     896.10     897.00     0          0
MC-57xsec4       Node_57          Node_40784076    10.00      0.0140     897.00     897.00     0          0
MC-57xsec1       Node_57          Node_40774080    64.00      0.0140     895.60     894.70     0          0
MC-57xsec2       Node_57          Node_40804079    210.00     0.0140     894.70     896.10     0          0
MC-56xsec7       Node_56          Node_40864081    26.00      0.0140     897.90     897.70     0          0
MC-56xsec8       Node_56          Node_40814082    200.00     0.0140     897.70     896.30     0          0
MC-56xsec9       Node_56          Node_40823928    492.00     0.0140     896.30     896.20     0          0
MC-56sec10       Node_56          Node_39284084    352.00     0.0140     896.20     895.80     0          0
MC-56sec11       Node_56          Node_40844085    50.00      0.0140     895.80     895.60     0          0
MC-56sec12       Node_56          Node_40854083    10.00      0.0140     895.60     895.60     0          0
MC-54            Node_54          Node_39274088    10.00      0.0140     898.20     898.20     0          0
MC-56xsec1       Node_56          Node_40884089    10.00      0.0140     898.20     898.20     0          0
MC-56xsec2       Node_56          Node_40894090    30.00      0.0140     898.20     897.80     0          0
MC-56xsec3       Node_56          Node_40904091    314.00     0.0140     897.80     897.80     0          0
MC-56xsec4       Node_56          Node_40914092    180.00     0.0140     897.80     896.80     0          0
MC-56xsec5       Node_56          Node_40924093    45.00      0.0140     896.80     897.90     0          0
MC-56xsec6       Node_56          Node_40934087    10.00      0.0140     897.90     897.90     0          0
MC-41            HW_MC-41         Node_39043923    10.00      0.0140     915.00     915.00     0          0
MC-41xsec1       HW_MC-41xsec1    Node_40984094    25.00      0.0140     904.80     904.80     0          0
MC-41xsec2       HW_MC-41xsec2    Node_40944095    375.00     0.0140     904.80     905.10     0          0
MC-41xsec3       HW_MC-41xsec3    Node_40954096    320.00     0.0140     905.10     905.10     0          0
MC-41xsec4       HW_MC-41xsec4    Node_40964097    390.00     0.0140     905.10     905.20     0          0
MC-41xsec5       HW_MC-41xsec5    Node_40974099    295.00     0.0140     905.20     905.00     0          0
MC-41xsec6       HW_MC-41xsec6    Node_40994100    275.00     0.0140     905.00     903.50     0          0
MC-41xsec7       HW_MC-41xsec7    Node_41003904    360.00     0.0140     903.50     901.60     0          0
MC-37xsec4       HW_MC-37xsec4    Node_39034102    145.00     0.0140     904.60     904.80     0          0
MC-37xsec5       HW_MC-37xsec5    Node_41024101    197.00     0.0140     904.80     904.80     0          0
MC-37xsec1       HW_MC-37xsec1    Node_41034104    70.00      0.0140     906.90     906.30     0          0
MC-37xsec2       HW_MC-37xsec2    Node_41044105    193.00     0.0140     906.30     905.90     0          0
MC-37xsec3       HW_MC-37xsec3    Node_41053903    340.00     0.0140     905.90     904.60     0          0
MC-32xsec1       HW_MC-32xsec1    Node_41064108    5.00       0.0140     907.20     906.80     0          0
MC-32xsec2       HW_MC-32xsec2    Node_41084109    97.00      0.0140     906.80     907.20     0          0
MC-32xsec3       HW_MC-32xsec3    Node_41093902    220.00     0.0140     907.20     907.10     0          0
MC-32xsec4       HW_MC-32xsec4    Node_39024110    250.00     0.0140     907.10     907.10     0          0
MC-32xsec5       HW_MC-32xsec5    Node_41104107    40.00      0.0140     907.10     906.90     0          0
MC-29_AMiB       MC-29_AMiT       Node_41114112    37.00      0.0140     909.60     909.60     0          0
MC-31xsec1       HW_MC-31xsec1    Node_41124113    5.00       0.0140     909.60     909.60     0          0
MC-31xsec2       HW_MC-31xsec2    Node_41134114    120.00     0.0140     909.60     909.10     0          0
MC-31xsec3       HW_MC-31xsec3    Node_41144115    70.00      0.0140     909.10     908.40     0          0
MC-31_PDBr       MC-31_PDT        Node_41153901    16.00      0.0140     908.40     908.40     0          0
MC-28xsec9       HW_MC-28xsec9    Node_41244117    200.00     0.0140     914.80     914.20     0          0
MC-28sec10       HW_MC-28sec10    Node_41174118    660.00     0.0140     914.20     914.30     0          0
MC-28sec11       HW_MC-28sec11    Node_41184119    620.00     0.0140     914.30     913.70     0          0
MC-28sec12       HW_MC-28sec12    Node_41194120    380.00     0.0140     913.70     913.10     0          0
MC-28_PDBr       MC-28_PDT        Node_41263893    8.00       0.0140     912.40     912.40     0          0
MC-28xsec5       HW_MC-28xsec5    Node_41314121    180.00     0.0140     916.50     916.50     0          0
MC-28xsec6       HW_MC-28xsec6    Node_41214122    200.00     0.0140     916.50     914.80     0          0
MC-28xsec7       HW_MC-28xsec7    Node_41224123    50.00      0.0140     914.80     915.00     0          0
MC-28xsec8       HW_MC-28xsec8    Node_41234124    180.00     0.0140     915.00     914.80     0          0
MC-28sec13       HW_MC-28sec13    Node_41204125    485.00     0.0140     913.10     912.50     0          0
MC-28sec14       HW_MC-28sec14    Node_41254126    242.00     0.0140     912.50     912.40     0          0
MC-28xsec1       HW_MC-28xsec1    Node_41164127    28.00      0.0140     919.40     917.20     0          0
MC-28xsec2       HW_MC-28xsec2    Node_41274128    282.00     0.0140     917.20     916.80     0          0
MC-28xsec3       HW_MC-28xsec3    Node_41284129    55.00      0.0140     916.80     916.50     0          0
MC-28xsec4       HW_MC-28xsec4    Node_41294130    10.00      0.0140     916.50     916.50     0          0
MC-28_BStB       MC-28_BStT       Node_41304131    31.50      0.0140     916.50     916.50     0          0
MC-17xsec1       HW_MC-17xsec1    Node_41374132    6.00       0.0140     923.70     923.70     0          0
MC-17xsec2       HW_MC-17xsec2    Node_41324133    275.00     0.0140     923.70     924.50     0          0
MC-17xsec3       HW_MC-17xsec3    Node_41334134    445.00     0.0140     924.50     924.50     0          0
MC-17xsec4       HW_MC-17xsec4    Node_41344135    60.00      0.0140     924.50     924.00     0          0
MC-17xsec5       HW_MC-17xsec5    Node_41354136    6.00       0.0140     924.00     924.00     0          0
MC17_494C1       MC17_494C2       MC-17_494T       118.00     0.0130     924.00     924.00     0          0
MC-17xsec6       HW_MC-17xsec6    Node_41424138    6.00       0.0140     924.00     924.00     0          0
MC-17xsec7       HW_MC-17xsec7    Node_41383892    270.00     0.0140     924.00     924.50     0          0
MC-17xsec8       HW_MC-17xsec8    Node_38924140    565.00     0.0140     924.50     924.80     0          0
MC-17xsec9       HW_MC-17xsec9    Node_41404139    490.00     0.0140     924.80     924.30     0          0
MC-17sec10       HW_MC-17sec10    Node_41394143    430.00     0.0140     924.30     922.90     0          0
MC-17sec11       HW_MC-17sec11    Node_41434144    360.00     0.0140     922.90     920.80     0          0
MC-17sec12       HW_MC-17sec12    Node_41444141    78.00      0.0140     920.80     919.40     0          0
MC-77xsec2       Node_77          Node_41454146    446.00     0.0140     881.60     881.60     0          0
MC-77xsec3       Node_77          Node_41463934    530.00     0.0140     881.60     880.80     0          0
MC-77xsec4       Node_77          Node_39344148    324.00     0.0140     880.80     881.40     0          0
MC-77xsec5       Node_77          Node_41484149    25.00      0.0140     881.40     880.70     0          0
MC-77xsec6       Node_77          Node_41494150    112.00     0.0140     880.70     881.40     0          0
MC-77xsec7       Node_77          Node_41504147    27.00      0.0140     881.40     881.00     0          0
MC-80_2          Node_80          Node_41954196    133.00     0.0130     882.48     882.04     0          0
MC-80_3          Node_80          Node_41963935    95.00      0.0130     882.04     882.00     0          0
MC-78_2          Node_78          Node_42024203    1475.00    0.0140     886.00     911.36     0          0
MC-78_3          Node_78          Node_42033995    1212.00    0.0130     911.36     896.38     0          0
L443             Node_443         Node_42153894    100.00     0.0130     0          0          0          0
MC-15            HW_MC-15         Node_42163897    100.00     0.0130     0          0          0          0
MC-17            HW_MC-17         Node_42173892    100.00     0.0130     0          0          0          0
MC-81_BAvB       MC-81_BAvT       Node_39354151    11.50      0.0160     883.15     883.15     0          0
MC-100PAvC       Node_100         Node_94969564    43.00      0.0130     873.30     873.30     0          0
MC-101           Node_101         Node_95749577    989.00     0.0140     874.60     873.91     0          0
MC-102           Node_102         Node_95769581    1689.10    0.0140     870.35     868.10     0          0
MC-103           Node_103         Node_94999581    943.50     0.0140     869.83     868.19     0          0
MC-109nat        Node_109         Node_95029503    30.00      0.0140     847.00     847.00     0          0
MC-121nat        Node_121         Node_95039510    50.00      0.0130     847.00     847.00     0          0
MC-126           Node_126         Node_95049505    100.00     0.0130     0          0          0          0
MC-127           Node_127         Node_95059506    1200.00    0.0240     848.00     846.00     0          0
MC-110           Node_110         Node_95089604    766.90     0.0140     876.00     871.30     0          0
MC-122nat        Node_122         Node_95109504    60.00      0.0130     847.00     847.00     0          0
MC-118           Node_118         Node_95119504    1950.00    0.0140     855.00     850.00     0          0
MC-117           Node_117         Node_95129504    750.00     0.0240     857.50     852.10     0          0
MC-123           Node_123         Node_95139504    130.00     0.0130     851.70     847.70     0          0
MC-120           Node_120         Node_95149503    900.00     0.0140     855.90     853.60     0          0
MC-119           Node_119         Node_95159610    330.00     0.0140     854.30     852.16     0          0
MC-108CPkC       MC-108CPkT       Node_95169502    90.00      0.0140     845.00     845.00     0          0
MC-107           Node_107         Node_95179516    1500.00    0.0130     857.50     850.00     0          0
MC-128           Node_128         Node_95189845    900.00     0.0140     864.70     858.80     0          0
MC-124           Node_124         Node_95199624    1450.00    0.0130     856.50     854.05     0          0
MC-125OutC       Node_125         Node_96229623    382.00     0.0130     842.80     842.80     0          0
MC-115           Node_115         Node_95219607    562.00     0.0140     870.30     869.30     0          0
MC-116           Node_116         Node_95229504    1230.00    0.0240     861.00     852.90     0          0
MC-112           Node_112         Node_95239521    1963.00    0.0140     870.85     869.48     0          0
MC-114           Node_114         Node_95099606    799.00     0.0140     869.70     867.80     0          0
MC-82xsec1       Node_82          Node_96219618    480.00     0.0140     871.70     869.10     0          0
MC-87_54Br       MC-87_54T        Node_96419642    33.00      0.0140     858.40     858.40     0          0
MC-88_56Br       MC-88_56T        Node_96459646    40.00      0.0140     852.80     852.80     0          0
MC-92_FAvC       MC-92_FAvT       Node_96479653    137.00     0.0240     851.70     851.30     0          0
MC-94xsec1       Node_94          Node_96619530    561.00     0.0140     845.70     844.50     0          0
MC-94_UAvB       MC-94_UAvT       Node_96629665    48.00      0.0300     843.10     843.10     0          0
MC-96xsec3       Node_96          Node_95319666    566.00     0.0140     841.70     841.80     0          0
MC-99xsec4       Node_99          Node_96849688    170.00     0.0140     836.20     836.20     0          0
MC-99_HAvB       MC-99_HAvT       Node_96859691    54.00      0.0140     835.90     835.50     0          0
MC-132sec6       Node_132         Node_96959697    275.00     0.0140     834.61     834.80     0          0
MC-133LAvB       MC-133LAvT       Node_97009701    50.00      0.0400     833.90     833.90     0          0
MC136sec11       Node_136         Node_97169717    433.00     0.0140     829.40     829.00     0          0
MC-137I35B       Node_137         Node_95379724    205.00     0.0140     826.50     825.80     0          0
MC-141MPkB       MC-141MPkT       Node_95389539    48.00      0.0140     821.10     821.10     0          0
MC-141sec3       Node_141         Node_95399783    472.00     0.0140     821.10     820.00     0          0
MC-169sec5       Node_169         Node_98189759    484.00     0.0140     810.50     810.30     0          0
MC-173sec2       Node_173         Node_98219822    382.00     0.0140     809.13     810.79     0          0
MC-174sec2       Node_174         Node_95419824    95.00      0.0140     809.50     806.05     0          0
MC-175NAvB       MC-175NAvT       Node_98269827    54.00      0.0360     809.50     809.50     0          0
MC-178Ft2B       MC-178Ft2T       Node_98299557    9.00       0.0140     807.90     807.90     0          0
MC-182_FtB       MC-182_FtT       Node_98379838    18.00      0.0140     798.20     798.20     0          0
MC-184Ft3B       MC-184Ft3T       Node_98429843    9.00       0.0140     719.10     719.10     0          0
MC-89            Node_89          Node_95469611    604.50     0.0140     862.60     861.45     0          0
MC-90nat         Node_90          Node_95479548    5.00       0.0130     856.40     856.40     0          0
MC-129_P1        MC-129_P2        Node_95499506    326.00     0.0120     847.06     846.16     0          0
MC-131HAvC       MC-131HAvT       Node_96909691    500.00     0.0130     840.47     840.00     0          0
MC-95            Node_95          Node_95519848    650.00     0.0130     845.84     843.93     0          0
MC-97            Node_97          Node_95529675    150.00     0.0230     838.90     838.50     0          0
MC-134           Node_134         Node_95539701    128.00     0.0110     850.20     850.18     0          0
MC-139           Node_139         Node_95549555    1600.00    0.0130     838.80     822.70     0          0
MC-140           Node_140         Node_95559783    600.00     0.0130     822.70     821.30     0          0
MC-147           Node_147         Node_95569786    200.00     0.0130     820.80     818.30     0          0
MC-179sec1       Node_179         Node_95579830    641.00     0.0140     807.90     808.50     0          0
MC-183           Node_183         Node_98529842    120.00     0.0230     728.27     726.65     0          0
MC-176           Node_176         Node_95599827    500.00     0.0240     810.30     810.00     0          0
MC-111           Node_100         Node_95609521    795.00     0.0140     873.97     873.10     0          0
MC-83nat         Node_83          Node_95509561    60.00      0.0140     884.00     884.00     0          0
MC-84            Node_84          Node_95619613    898.00     0.0150     875.99     872.58     0          0
MC-85            Node_85          Node_95629616    857.00     0.0130     866.14     866.14     0          0
MC-86xsec4       Node_86          Node_95259636    556.00     0.0140     861.30     860.90     0          0
MC-100PAC2       Node_100         Node_95649565    80.00      0.0130     874.30     874.30     0          0
MC-100           Node_100         Node_95669567    1700.00    0.0150     880.40     886.50     0          0
MC-100NAvC       Node_100         Node_95679568    880.00     0.0140     886.50     885.30     0          0
MC-100_2         Node_100         Node_95689497    3700.00    0.0130     885.30     876.60     0          0
MC-81xsec1       Node_81          Node_41519570    20.00      0.0140     874.10     873.50     0          0
MC-81xsec2       Node_81          Node_95709571    30.00      0.0140     873.50     872.70     0          0
MC-81xsec3       Node_81          Node_95719572    10.00      0.0140     872.70     872.60     0          0
MC-81_50Br       MC-81_50T        MC-81nat         80.00      0.0200     872.60     871.70     0          0
MC-101_2         Node_101         Node_95739574    1098.00    0.0140     875.68     874.60     0          0
MC-102_2         Node_102         Node_94989578    151.00     0.0230     873.41     873.26     0          0
MC-102_3         Node_102         Node_95759576    1131.90    0.0140     871.98     870.35     0          0
MC-101_3         Node_101         Node_95779575    1537.60    0.0140     873.91     871.98     0          0
MC-102SS1a       MC-102SS1b       Node_95789579    40.00      0.0230     873.26     873.30     0          0
MC-102_4         Node_102         Node_95799580    171.00     0.0230     873.30     873.05     0          0
MC-102_5         Node_102         Node_95809575    345.00     0.0140     873.05     872.57     0          0
MC-104sec1       Node_104         Node_95829583    600.00     0.0140     868.30     868.30     0          0
MC-104sec2       Node_104         Node_95839500    5.00       0.0140     869.70     869.70     0          0
MC-104           Node_104         Node_95849586    179.00     0.0140     866.30     864.30     0          0
MC-104_2         Node_104         Node_95939502    111.20     0.0130     852.30     852.30     0          0
MC-104_3         Node_104         Node_95869587    465.40     0.0140     862.82     861.80     0          0
MC-104_4         Node_104         Node_95879588    277.00     0.0140     861.30     860.80     0          0
MC-104_5         Node_104         Node_95889589    412.00     0.0140     860.80     860.20     0          0
MC-104BrmC       MC-104BrmT       Node_95899590    120.00     0.0230     860.30     859.98     0          0
MC-104_6         Node_104         Node_95909591    658.00     0.0140     859.98     858.80     0          0
MC-104_7         Node_104         Node_95919592    97.00      0.0130     858.80     858.60     0          0
MC-104DivC       Node_104         Node_95859501    1540.00    0.0130     854.03     850.30     0          0
MC-104_8         Node_104         Node_95929585    1547.50    0.0140     857.14     854.03     0          0
990.1            Node_105         Node_95949595    15.00      0.0140     852.80     852.80     0          0
MC-105_P1A       MC-105_P1B       MC-105_P1C       353.00     0.0230     850.30     850.30     0          0
MC-105P1EO       Node_105         Node_95019594    15.00      0.0140     855.30     855.30     0          0
MC-105P3C2       Node_105         Node_95999597    148.00     0.0230     848.80     848.80     0          0
MC-105P3C1       Node_105         Node_95989597    269.00     0.0230     848.80     848.80     0          0
MC-105P3C3       Node_105         Node_95979502    205.00     0.0130     848.80     848.80     0          0
MC-105_2         Node_105         Node_95959502    24.00      0.0140     857.30     857.30     0          0
MC-106SS1C       MC-106SS1T       Node_96019602    320.00     0.0130     855.30     854.80     0          0
MC-106SS2C       MC-106SS2T       Node_96029603    355.00     0.0130     854.30     853.94     0          0
MC-106SS3C       MC-106SS3T       Node_96039502    205.00     0.0130     853.43     853.30     0          0
MC-110_2         Node_110         Node_96049605    1066.50    0.0140     871.30     870.10     0          0
MC-110_3         Node_110         Node_96059606    2499.50    0.0140     870.10     867.70     0          0
MC-110_4         Node_110         Node_96069521    321.00     0.0140     867.70     867.30     0          0
MC-115_2         Node_115         Node_96079608    170.00     0.0240     869.30     868.26     0          0
MC-115_3         Node_115         Node_96089609    255.00     0.0140     868.26     866.70     0          0
MC-115_4         Node_115         Node_96099522    550.00     0.0230     866.70     866.30     0          0
MC-119_2         Node_119         Node_96109503    70.00      0.0140     852.16     850.60     0          0

[ORIFICES]
;;Name           From             To               Type       Offset     Qcoeff     Gated    CloseTime
;;-------------- ---------------- ---------------- ---------- ---------- ---------- -------- ----------
MC-47weir        HW_MC-47weir     Node_39104012    SIDE       0          0.650      NO       0
MC-104_To        Node_104         Node_95009584    SIDE       0          0.650      NO       0
MC-105P3D2       Node_105         Node_95959597    SIDE       0          0.650      NO       0
MC-101out        MC-101weir       Node_94979573    SIDE       0          0.650      NO       0
MC-104_W1        MC-104_W2        Node_95819582    SIDE       0          0.650      NO       0
MC-105           Node_105         Node_95019596    SIDE       0          0.650      NO       0
MC-105P31        Node_105         Node_95959598    SIDE       0          0.650      NO       0
MC-105P3D3       Node_105         Node_95959599    SIDE       0          0.650      NO       0
MC-106_CB1       Node_106         Node_96009601    SIDE       860.00     0.650      NO       0

[WEIRS]
;;Name           From             To               Type       CrestHt    Qcoeff     Gated    EndCon   EndCoeff   Surcharge
;;-------------- ---------------- ---------------- ---------- ---------- ---------- -------- -------- ---------- ----------
MC-19weir        HW_MC-19weir     Node_38863885    TRANSVERSE 937.60     1.840      NO       0        0          YES
MC-91_58C        MC-91_58T        Node_95489649    TRANSVERSE 856.50     1.840      NO       0        0          YES
MC-104_Div       Node_104         Node_95859593    V-NOTCH    855.53     1.840      NO       0        0          YES

[PUMPS]
;;Name           From             To               PumpCurve  Status   Startup    Shutoff
;;-------------- ---------------- ---------------- ---------- -------- ---------- ----------
MC-52            Node_52          Node_39123906    PC_MC-52   ON       896.49     895.49    
MC-49            HW_MC-49         Node_39134013    PC_MC-49   ON       899.21     898.21    
MC-78            Node_78          Node_39964202    PC_MC-78   ON       886.60     886.00    
MC-50            Node_50          Node_40114014    PC_MC-50   ON       897.08     895.49    
MC-67_2          Node_67          Node_40424043    PC_MC-67_2 ON       884.80     883.55    
MC-100_P1        MC-100_P2        Node_95659566    PC_MC-100_P1 ON       880.27     879.27    

[CURVES]
;;Name           Type       X-Value    Y-Value
;;-------------- ---------- ---------- ----------
;; Synthesized generic pump curves — replace with actual pump data
PC_MC-52         Pump1      0          5
PC_MC-52                    10         10
PC_MC-49         Pump1      0          5
PC_MC-49                    10         10
PC_MC-78         Pump1      0          5
PC_MC-78                    10         10
PC_MC-50         Pump1      0          5
PC_MC-50                    10         10
PC_MC-67_2       Pump1      0          5
PC_MC-67_2                  10         10
PC_MC-100_P1     Pump1      0          5
PC_MC-100_P1                10         10

[XSECTIONS]
;;Link           Shape        Geom1      Geom2      Geom3      Geom4      Barrels
;;-------------- ------------ ---------- ---------- ---------- ---------- ----------
MC-1CPkwyC       CIRCULAR     4.00       0          0          0          1
MC-3Hwy12C       CIRCULAR     2.25       0          0          0          1
MC-4             TRAPEZOIDAL  1.00       10.00      2          2          1
MC-5_Sh_C1       CIRCULAR     4.00       0          0          0          1
MC-7_RR_C        CIRCULAR     3.00       0          0          0          1
MC-6_StRdC       CIRCULAR     1.00       0          0          0          1
MC-2CPkwyC       CIRCULAR     2.50       0          0          0          1
MC-18nat         TRAPEZOIDAL  1.00       10.00      2          2          1
MC-20_SRdT       TRAPEZOIDAL  1.00       10.00      2          2          1
MC-23_SRdC       CIRCULAR     2.00       0          0          0          1
MC-21nat         TRAPEZOIDAL  1.00       10.00      2          2          1
MC-8_McG_C       CIRCULAR     3.50       0          0          0          1
MC-10PDBrO       TRAPEZOIDAL  1.00       10.00      2          2          1
MC-17_MRdB       TRAPEZOIDAL  10.09      10.00      2          2          1
MC-9_Out_C       CIRCULAR     4.00       0          0          0          1
MC-11            CIRCULAR     2.00       0          0          0          1
MC-12nat         TRAPEZOIDAL  1.00       10.00      2          2          1
MC-15MBdT        TRAPEZOIDAL  1.00       10.00      2          2          1
MC-13BermT       TRAPEZOIDAL  1.00       10.00      2          2          1
MC14_494OC       TRAPEZOIDAL  1.00       10.00      2          2          1
MC-24_SDrC       CIRCULAR     1.00       0          0          0          1
MC-25CRdT        TRAPEZOIDAL  1.00       10.00      2          2          1
MC-28_RRBr       TRAPEZOIDAL  8.10       10.00      2          2          1
MC-31_CCrB       RECT_CLOSED  8.50       10.00      0          0          1
MC-32_RRBr       TRAPEZOIDAL  6.75       10.00      2          2          1
MC-37_73Br       TRAPEZOIDAL  22.20      10.00      2          2          1
MC-41MBdBr       HORSESHOE    2.40       20.00      0          0          1
MC-43_169L       RECT_CLOSED  10.00      10.00      0          0          1
MC-44_PD_C       CIRCULAR     1.00       0          0          0          1
MC-45_WLnC       CIRCULAR     1.25       0          0          0          1
MC-46            TRAPEZOIDAL  1.00       10.00      2          2          1
MC-48            TRAPEZOIDAL  1.00       10.00      2          2          1
MC-22nat         TRAPEZOIDAL  1.00       10.00      2          2          1
MC-30_CRdC       CIRCULAR     1.00       0          0          0          1
MC-33nat         TRAPEZOIDAL  1.00       10.00      2          2          1
MC-34            CIRCULAR     12.00      0          0          0          1
MC-26MDrT        TRAPEZOIDAL  1.00       10.00      2          2          1
MC-27            TRAPEZOIDAL  1.00       10.00      2          2          1
MC-35_MBdC       CIRCULAR     4.00       0          0          0          1
MC-36_MBdC       CIRCULAR     1.25       0          0          0          1
MC-40            CIRCULAR     2.25       0          0          0          1
MC-42ORdC1       CIRCULAR     2.00       0          0          0          1
MC-38_CRdC       CIRCULAR     1.50       0          0          0          1
MC-39            CIRCULAR     0.50       0          0          0          1
MC-51CAveC       CIRCULAR     4.00       0          0          0          1
MC-53_34Br       TRAPEZOIDAL  1.00       10.00      2          2          1
MC-56_36Lt       TRAPEZOIDAL  6.70       10.00      2          2          1
MC-56_37Lt       TRAPEZOIDAL  9.10       10.00      2          2          1
MC-61xsec1       TRAPEZOIDAL  1.00       10.00      2          2          1
MC-65xsec5       TRAPEZOIDAL  1.00       10.00      2          2          1
MC-68LABrL       TRAPEZOIDAL  12.67      10.00      2          2          1
MC-65MRdBL       TRAPEZOIDAL  10.94      10.00      2          2          1
MC-69EBdBr       HORSESHOE    5.85       19.00      0          0          1
MC-77_100B       TRAPEZOIDAL  9.60       10.00      2          2          1
MC-59_VAvC       CIRCULAR     3.00       0          0          0          1
MC-58CStBr       TRAPEZOIDAL  12.20      10.00      2          2          1
MC-66            TRAPEZOIDAL  1.00       10.00      2          2          1
MC-57_7Br        TRAPEZOIDAL  14.40      10.00      2          2          1
MC-55            HORSESHOE    2.61       0          0          0          1
MC-63KCiFM       CIRCULAR     0.67       0          0          0          1
MC-64PRdC1       CIRCULAR     4.00       0          0          0          1
MC-71            TRAPEZOIDAL  1.00       10.00      2          2          1
MC-79            CIRCULAR     5.50       0          0          0          1
MC-80            HORSESHOE    2.61       0          0          0          1
MC-47            CIRCULAR     4.00       0          0          0          1
MC-47_2          TRAPEZOIDAL  1.00       10.00      2          2          1
MC-49_2          TRAPEZOIDAL  1.00       10.00      2          2          1
MC-49_3          CIRCULAR     3.00       0          0          0          1
MC-50_2          CIRCULAR     0.50       0          0          0          1
MC-16MRdT        TRAPEZOIDAL  1.00       10.00      2          2          1
MC-51MBdC        CIRCULAR     4.00       0          0          0          1
MC-50MBdC        CIRCULAR     1.00       0          0          0          1
MC-61LStBr       TRAPEZOIDAL  6.27       10.00      2          2          1
MC-65xsec3       TRAPEZOIDAL  1.00       10.00      2          2          1
MC-71_OutC       CIRCULAR     1.25       0          0          0          1
MC-73            TRAPEZOIDAL  1.00       10.00      2          2          1
MC-74            CIRCULAR     4.50       0          0          0          1
MC-75BAvBr       TRAPEZOIDAL  7.53       10.00      2          2          1
MC-76xsec1       TRAPEZOIDAL  1.00       10.00      2          2          1
MC-67            CIRCULAR     3.50       0          0          0          1
MC-71MLnC1       CIRCULAR     1.00       0          0          0          1
MC-71MLnC2       CIRCULAR     3.00       0          0          0          1
MC-76xsec2       TRAPEZOIDAL  1.00       10.00      2          2          1
MC-76xsec3       TRAPEZOIDAL  1.00       10.00      2          2          1
MC-76xsec4       TRAPEZOIDAL  1.00       10.00      2          2          1
MC-76_44Br       TRAPEZOIDAL  7.54       10.00      2          2          1
MC-77xsec1       TRAPEZOIDAL  1.00       10.00      2          2          1
MC-66_2          HORSESHOE    3.75       0          0          0          1
MC-66LStC1       HORSESHOE    2.61       0          0          0          1
MC-67_3          CIRCULAR     3.00       0          0          0          1
MC-67_4          CIRCULAR     3.50       0          0          0          1
MC-63            TRAPEZOIDAL  1.00       10.00      2          2          1
MC-64PRdC2       CIRCULAR     4.00       0          0          0          1
MC-65xsec4       TRAPEZOIDAL  1.00       10.00      2          2          1
MC-65xsec1       TRAPEZOIDAL  1.00       10.00      2          2          1
MC-65xsec2       TRAPEZOIDAL  1.00       10.00      2          2          1
MC-62sec14       TRAPEZOIDAL  1.00       10.00      2          2          1
MC-62xsec1       TRAPEZOIDAL  1.00       10.00      2          2          1
MC-62xsec2       TRAPEZOIDAL  1.00       10.00      2          2          1
MC-62xsec3       TRAPEZOIDAL  1.00       10.00      2          2          1
MC-62xsec4       TRAPEZOIDAL  1.00       10.00      2          2          1
MC-62xsec5       TRAPEZOIDAL  1.00       10.00      2          2          1
MC-62xsec6       TRAPEZOIDAL  1.00       10.00      2          2          1
MC-62xsec7       TRAPEZOIDAL  1.00       10.00      2          2          1
MC-62xsec8       TRAPEZOIDAL  1.00       10.00      2          2          1
MC-62xsec9       TRAPEZOIDAL  1.00       10.00      2          2          1
MC-62sec10       TRAPEZOIDAL  1.00       10.00      2          2          1
MC-62_RRBr       TRAPEZOIDAL  10.10      10.00      2          2          1
MC-62sec11       TRAPEZOIDAL  1.00       10.00      2          2          1
MC-62sec12       TRAPEZOIDAL  1.00       10.00      2          2          1
MC-62sec13       TRAPEZOIDAL  1.00       10.00      2          2          1
MC-62_BTBr       TRAPEZOIDAL  7.80       10.00      2          2          1
MC-61xsec2       TRAPEZOIDAL  1.00       10.00      2          2          1
MC-61xsec3       TRAPEZOIDAL  1.00       10.00      2          2          1
MC-60BRdBr       TRAPEZOIDAL  8.54       10.00      2          2          1
MC-58            CIRCULAR     2.50       0          0          0          1
MC-58xsec1       TRAPEZOIDAL  1.00       10.00      2          2          1
MC-57            CIRCULAR     4.50       0          0          0          1
MC-57xsec3       TRAPEZOIDAL  1.00       10.00      2          2          1
MC-57xsec4       TRAPEZOIDAL  1.00       10.00      2          2          1
MC-57xsec1       TRAPEZOIDAL  1.00       10.00      2          2          1
MC-57xsec2       TRAPEZOIDAL  1.00       10.00      2          2          1
MC-56xsec7       TRAPEZOIDAL  1.00       10.00      2          2          1
MC-56xsec8       TRAPEZOIDAL  1.00       10.00      2          2          1
MC-56xsec9       TRAPEZOIDAL  1.00       10.00      2          2          1
MC-56sec10       TRAPEZOIDAL  1.00       10.00      2          2          1
MC-56sec11       TRAPEZOIDAL  1.00       10.00      2          2          1
MC-56sec12       TRAPEZOIDAL  1.00       10.00      2          2          1
MC-54            TRAPEZOIDAL  15.30      10.00      2          2          1
MC-56xsec1       TRAPEZOIDAL  1.00       10.00      2          2          1
MC-56xsec2       TRAPEZOIDAL  1.00       10.00      2          2          1
MC-56xsec3       TRAPEZOIDAL  1.00       10.00      2          2          1
MC-56xsec4       TRAPEZOIDAL  1.00       10.00      2          2          1
MC-56xsec5       TRAPEZOIDAL  1.00       10.00      2          2          1
MC-56xsec6       TRAPEZOIDAL  1.00       10.00      2          2          1
MC-41            TRAPEZOIDAL  1.00       10.00      2          2          1
MC-41xsec1       TRAPEZOIDAL  1.00       10.00      2          2          1
MC-41xsec2       TRAPEZOIDAL  1.00       10.00      2          2          1
MC-41xsec3       TRAPEZOIDAL  1.00       10.00      2          2          1
MC-41xsec4       TRAPEZOIDAL  1.00       10.00      2          2          1
MC-41xsec5       TRAPEZOIDAL  1.00       10.00      2          2          1
MC-41xsec6       TRAPEZOIDAL  1.00       10.00      2          2          1
MC-41xsec7       TRAPEZOIDAL  1.00       10.00      2          2          1
MC-37xsec4       TRAPEZOIDAL  1.00       10.00      2          2          1
MC-37xsec5       TRAPEZOIDAL  1.00       10.00      2          2          1
MC-37xsec1       TRAPEZOIDAL  1.00       10.00      2          2          1
MC-37xsec2       TRAPEZOIDAL  1.00       10.00      2          2          1
MC-37xsec3       TRAPEZOIDAL  1.00       10.00      2          2          1
MC-32xsec1       TRAPEZOIDAL  1.00       10.00      2          2          1
MC-32xsec2       TRAPEZOIDAL  1.00       10.00      2          2          1
MC-32xsec3       TRAPEZOIDAL  1.00       10.00      2          2          1
MC-32xsec4       TRAPEZOIDAL  1.00       10.00      2          2          1
MC-32xsec5       TRAPEZOIDAL  1.00       10.00      2          2          1
MC-29_AMiB       TRAPEZOIDAL  13.50      10.00      2          2          1
MC-31xsec1       TRAPEZOIDAL  1.00       10.00      2          2          1
MC-31xsec2       TRAPEZOIDAL  1.00       10.00      2          2          1
MC-31xsec3       TRAPEZOIDAL  1.00       10.00      2          2          1
MC-31_PDBr       TRAPEZOIDAL  5.50       10.00      2          2          1
MC-28xsec9       TRAPEZOIDAL  1.00       10.00      2          2          1
MC-28sec10       TRAPEZOIDAL  1.00       10.00      2          2          1
MC-28sec11       TRAPEZOIDAL  1.00       10.00      2          2          1
MC-28sec12       TRAPEZOIDAL  1.00       10.00      2          2          1
MC-28_PDBr       TRAPEZOIDAL  9.60       10.00      2          2          1
MC-28xsec5       TRAPEZOIDAL  1.00       10.00      2          2          1
MC-28xsec6       TRAPEZOIDAL  1.00       10.00      2          2          1
MC-28xsec7       TRAPEZOIDAL  1.00       10.00      2          2          1
MC-28xsec8       TRAPEZOIDAL  1.00       10.00      2          2          1
MC-28sec13       TRAPEZOIDAL  1.00       10.00      2          2          1
MC-28sec14       TRAPEZOIDAL  1.00       10.00      2          2          1
MC-28xsec1       TRAPEZOIDAL  1.00       10.00      2          2          1
MC-28xsec2       TRAPEZOIDAL  1.00       10.00      2          2          1
MC-28xsec3       TRAPEZOIDAL  1.00       10.00      2          2          1
MC-28xsec4       TRAPEZOIDAL  1.00       10.00      2          2          1
MC-28_BStB       TRAPEZOIDAL  8.18       10.00      2          2          1
MC-17xsec1       TRAPEZOIDAL  1.00       10.00      2          2          1
MC-17xsec2       TRAPEZOIDAL  1.00       10.00      2          2          1
MC-17xsec3       TRAPEZOIDAL  1.00       10.00      2          2          1
MC-17xsec4       TRAPEZOIDAL  1.00       10.00      2          2          1
MC-17xsec5       TRAPEZOIDAL  1.00       10.00      2          2          1
MC17_494C1       RECT_CLOSED  10.00      10.00      0          0          1
MC-17xsec6       TRAPEZOIDAL  1.00       10.00      2          2          1
MC-17xsec7       TRAPEZOIDAL  1.00       10.00      2          2          1
MC-17xsec8       TRAPEZOIDAL  1.00       10.00      2          2          1
MC-17xsec9       TRAPEZOIDAL  1.00       10.00      2          2          1
MC-17sec10       TRAPEZOIDAL  1.00       10.00      2          2          1
MC-17sec11       TRAPEZOIDAL  1.00       10.00      2          2          1
MC-17sec12       TRAPEZOIDAL  1.00       10.00      2          2          1
MC-77xsec2       TRAPEZOIDAL  1.00       10.00      2          2          1
MC-77xsec3       TRAPEZOIDAL  1.00       10.00      2          2          1
MC-77xsec4       TRAPEZOIDAL  1.00       10.00      2          2          1
MC-77xsec5       TRAPEZOIDAL  1.00       10.00      2          2          1
MC-77xsec6       TRAPEZOIDAL  1.00       10.00      2          2          1
MC-77xsec7       TRAPEZOIDAL  1.00       10.00      2          2          1
MC-80_2          HORSESHOE    3.00       0          0          0          1
MC-80_3          HORSESHOE    3.00       0          0          0          1
MC-78_2          CIRCULAR     1.00       0          0          0          1
MC-78_3          CIRCULAR     2.75       0          0          0          1
L443             CIRCULAR     1.00       0          0          0          1
MC-15            CIRCULAR     1.00       0          0          0          1
MC-17            CIRCULAR     1.00       0          0          0          1
MC-81_BAvB       TRAPEZOIDAL  1.00       24.00      2          2          1
MC-100PAvC       CIRCULAR     3.00       0          0          0          1
MC-101           CIRCULAR     3.00       0          0          0          1
MC-102           CIRCULAR     6.00       0          0          0          1
MC-103           HORSESHOE    3.33       0          0          0          1
MC-109nat        TRAPEZOIDAL  1.00       10.00      2          2          1
MC-121nat        TRAPEZOIDAL  1.00       10.00      2          2          1
MC-126           CIRCULAR     1.00       0          0          0          1
MC-127           CIRCULAR     3.00       0          0          0          1
MC-110           CIRCULAR     5.00       0          0          0          1
MC-122nat        TRAPEZOIDAL  1.00       10.00      2          2          1
MC-118           CIRCULAR     2.00       0          0          0          1
MC-117           CIRCULAR     2.50       0          0          0          1
MC-123           CIRCULAR     7.00       0          0          0          1
MC-120           CIRCULAR     4.50       0          0          0          1
MC-119           CIRCULAR     2.75       0          0          0          1
MC-108CPkC       RECT_CLOSED  14.00      10.00      0          0          1
MC-107           CIRCULAR     6.00       0          0          0          1
MC-128           CIRCULAR     4.50       0          0          0          1
MC-124           CIRCULAR     4.00       0          0          0          1
MC-125OutC       RECT_CLOSED  7.00       12.00      0          0          1
MC-115           CIRCULAR     3.50       0          0          0          1
MC-116           CIRCULAR     3.00       0          0          0          1
MC-112           CIRCULAR     7.50       0          0          0          1
MC-114           CIRCULAR     6.00       0          0          0          1
MC-82xsec1       TRAPEZOIDAL  1.00       10.00      2          2          1
MC-87_54Br       TRAPEZOIDAL  6.20       10.00      2          2          1
MC-88_56Br       TRAPEZOIDAL  6.20       10.00      2          2          1
MC-92_FAvC       HORSESHOE    10.00      0          0          0          1
MC-94xsec1       TRAPEZOIDAL  1.00       10.00      2          2          1
MC-94_UAvB       HORSESHOE    3.00       24.00      0          0          1
MC-96xsec3       TRAPEZOIDAL  1.00       10.00      2          2          1
MC-99xsec4       TRAPEZOIDAL  1.00       10.00      2          2          1
MC-99_HAvB       TRAPEZOIDAL  9.48       10.00      2          2          1
MC-132sec6       TRAPEZOIDAL  1.00       10.00      2          2          1
MC-133LAvB       HORSESHOE    6.00       19.00      0          0          1
MC136sec11       TRAPEZOIDAL  1.00       10.00      2          2          1
MC-137I35B       TRAPEZOIDAL  1.00       10.00      2          2          1
MC-141MPkB       TRAPEZOIDAL  6.40       10.00      2          2          1
MC-141sec3       TRAPEZOIDAL  1.00       10.00      2          2          1
MC-169sec5       TRAPEZOIDAL  1.00       10.00      2          2          1
MC-173sec2       TRAPEZOIDAL  1.00       10.00      2          2          1
MC-174sec2       TRAPEZOIDAL  1.00       10.00      2          2          1
MC-175NAvB       TRAPEZOIDAL  6.90       10.00      2          2          1
MC-178Ft2B       TRAPEZOIDAL  9.10       10.00      2          2          1
MC-182_FtB       TRAPEZOIDAL  6.30       10.00      2          2          1
MC-184Ft3B       TRAPEZOIDAL  3.40       10.00      2          2          1
MC-89            CIRCULAR     4.00       0          0          0          1
MC-90nat         TRAPEZOIDAL  1.00       10.00      2          2          1
MC-129_P1        CIRCULAR     6.00       0          0          0          1
MC-131HAvC       CIRCULAR     4.00       0          0          0          1
MC-95            CIRCULAR     7.50       0          0          0          1
MC-97            CIRCULAR     4.50       0          0          0          1
MC-134           CIRCULAR     2.25       0          0          0          1
MC-139           CIRCULAR     2.50       0          0          0          1
MC-140           CIRCULAR     4.50       0          0          0          1
MC-147           CIRCULAR     5.00       0          0          0          1
MC-179sec1       TRAPEZOIDAL  1.00       10.00      2          2          1
MC-183           CIRCULAR     4.50       0          0          0          1
MC-176           CIRCULAR     5.00       0          0          0          1
MC-111           CIRCULAR     5.50       0          0          0          1
MC-83nat         TRAPEZOIDAL  1.00       10.00      2          2          1
MC-84            CIRCULAR     2.25       0          0          0          1
MC-85            CIRCULAR     4.00       0          0          0          1
MC-86xsec4       TRAPEZOIDAL  1.00       10.00      2          2          1
MC-100PAC2       CIRCULAR     2.50       0          0          0          1
MC-100           CIRCULAR     1.00       0          0          0          1
MC-100NAvC       CIRCULAR     1.75       0          0          0          1
MC-100_2         CIRCULAR     1.75       0          0          0          1
MC-81xsec1       TRAPEZOIDAL  1.00       10.00      2          2          1
MC-81xsec2       TRAPEZOIDAL  1.00       10.00      2          2          1
MC-81xsec3       TRAPEZOIDAL  1.00       10.00      2          2          1
MC-81_50Br       HORSESHOE    1.40       21.00      0          0          1
MC-101_2         CIRCULAR     2.00       0          0          0          1
MC-102_2         HORSESHOE    1.50       0          0          0          1
MC-102_3         CIRCULAR     6.50       0          0          0          1
MC-101_3         CIRCULAR     6.50       0          0          0          1
MC-102SS1a       HORSESHOE    1.50       0          0          0          1
MC-102_4         HORSESHOE    2.40       0          0          0          1
MC-102_5         CIRCULAR     3.00       0          0          0          1
MC-104sec1       TRAPEZOIDAL  1.00       10.00      2          2          1
MC-104sec2       TRAPEZOIDAL  1.00       10.00      2          2          1
MC-104           CIRCULAR     2.00       0          0          0          1
MC-104_2         HORSESHOE    2.61       0          0          0          1
MC-104_3         CIRCULAR     3.00       0          0          0          1
MC-104_4         HORSESHOE    2.61       0          0          0          1
MC-104_5         TRAPEZOIDAL  1.00       10.00      2          2          1
MC-104BrmC       HORSESHOE    2.75       0          0          0          1
MC-104_6         TRAPEZOIDAL  1.00       10.00      2          2          1
MC-104_7         CIRCULAR     3.50       0          0          0          1
MC-104DivC       CIRCULAR     1.50       0          0          0          1
MC-104_8         CIRCULAR     3.50       0          0          0          1
990.1            TRAPEZOIDAL  1.00       10.00      2          2          1
MC-105_P1A       HORSESHOE    2.00       0          0          0          1
MC-105P1EO       TRAPEZOIDAL  1.00       10.00      2          2          1
MC-105P3C2       HORSESHOE    2.00       0          0          0          1
MC-105P3C1       HORSESHOE    2.00       0          0          0          1
MC-105P3C3       HORSESHOE    3.00       0          0          0          1
MC-105_2         TRAPEZOIDAL  1.00       10.00      2          2          1
MC-106SS1C       CIRCULAR     3.00       0          0          0          1
MC-106SS2C       CIRCULAR     3.00       0          0          0          1
MC-106SS3C       CIRCULAR     4.00       0          0          0          1
MC-110_2         CIRCULAR     6.50       0          0          0          1
MC-110_3         CIRCULAR     8.50       0          0          0          1
MC-110_4         CIRCULAR     8.50       0          0          0          1
MC-115_2         CIRCULAR     3.00       0          0          0          1
MC-115_3         CIRCULAR     3.00       0          0          0          1
MC-115_4         CIRCULAR     3.50       0          0          0          1
MC-119_2         CIRCULAR     3.00       0          0          0          2
MC-47weir        RECT_CLOSED  2.00       2.00       0          0
MC-104_To        RECT_CLOSED  0.50       0.50       0          0
MC-105P3D2       RECT_CLOSED  3.20       3.20       0          0
MC-101out        RECT_CLOSED  2.22       2.22       0          0
MC-104_W1        RECT_CLOSED  2.45       2.45       0          0
MC-105           RECT_CLOSED  2.70       2.70       0          0
MC-105P31        RECT_CLOSED  3.20       3.20       0          0
MC-105P3D3       RECT_CLOSED  3.20       3.20       0          0
MC-106_CB1       RECT_CLOSED  4.00       4.00       0          0
MC-19weir        RECT_OPEN    1.00       26.00      0          0
MC-91_58C        RECT_OPEN    1.00       10.00      0          0
MC-104_Div       TRIANGULAR   1.00       6.00       0          0

[LOSSES]
;;Link           Inlet      Outlet     Average    Flap Gate
;;-------------- ---------- ---------- ---------- ----------
MC-1CPkwyC       0          0          0          NO
MC-3Hwy12C       0          0          0          NO
MC-4             0          0          0          NO
MC-5_Sh_C1       0          0          0          NO
MC-7_RR_C        0          0          0          NO
MC-6_StRdC       0          0          0          NO
MC-2CPkwyC       0          0          0          NO
MC-18nat         0          0          0          NO
MC-20_SRdT       0          0          0          NO
MC-23_SRdC       0          0          0          NO
MC-21nat         0          0          0          NO
MC-8_McG_C       0          0          0          NO
MC-10PDBrO       0          0          0          NO
MC-17_MRdB       0          0          0          NO
MC-9_Out_C       0          0          0          NO
MC-11            0          0          0          NO
MC-12nat         0          0          0          NO
MC-15MBdT        0          0          0          NO
MC-13BermT       0          0          0          NO
MC14_494OC       0          0          0          NO
MC-24_SDrC       0          0          0          NO
MC-25CRdT        0          0          0          NO
MC-28_RRBr       0          0          0          NO
MC-31_CCrB       0          0          0          NO
MC-32_RRBr       0          0          0          NO
MC-37_73Br       0          0          0          NO
MC-41MBdBr       0          0          0          NO
MC-43_169L       0          0          0          NO
MC-44_PD_C       0          0          0          NO
MC-45_WLnC       0          0          0          NO
MC-46            0          0          0          NO
MC-48            0          0          0          NO
MC-22nat         0          0          0          NO
MC-30_CRdC       0          0          0          NO
MC-33nat         0          0          0          NO
MC-34            0          0          0          NO
MC-26MDrT        0          0          0          NO
MC-27            0          0          0          NO
MC-35_MBdC       0          0          0          NO
MC-36_MBdC       0          0          0          NO
MC-40            0          0          0          NO
MC-42ORdC1       0          0          0          NO
MC-38_CRdC       0          0          0          NO
MC-39            0          0          0          NO
MC-51CAveC       0          0          0          NO
MC-53_34Br       0          0          0          NO
MC-56_36Lt       0          0          0          NO
MC-56_37Lt       0          0          0          NO
MC-61xsec1       0          0          0          NO
MC-65xsec5       0          0          0          NO
MC-68LABrL       0          0          0          NO
MC-65MRdBL       0          0          0          NO
MC-69EBdBr       0          0          0          NO
MC-77_100B       0          0          0          NO
MC-59_VAvC       0          0          0          NO
MC-58CStBr       0          0          0          NO
MC-66            0          0          0          NO
MC-57_7Br        0          0          0          NO
MC-55            0          0          0          NO
MC-63KCiFM       0          0          0          NO
MC-64PRdC1       0          0          0          NO
MC-71            0          0          0          NO
MC-79            0          0          0          NO
MC-80            0          0          0          NO
MC-47            0          0          0          NO
MC-47_2          0          0          0          NO
MC-49_2          0          0          0          NO
MC-49_3          0          0          0          NO
MC-50_2          0          0          0          NO
MC-16MRdT        0          0          0          NO
MC-51MBdC        0          0          0          NO
MC-50MBdC        0          0          0          NO
MC-61LStBr       0          0          0          NO
MC-65xsec3       0          0          0          NO
MC-71_OutC       0          0          0          NO
MC-73            0          0          0          NO
MC-74            0          0          0          NO
MC-75BAvBr       0          0          0          NO
MC-76xsec1       0          0          0          NO
MC-67            0          0          0          NO
MC-71MLnC1       0          0          0          NO
MC-71MLnC2       0          0          0          NO
MC-76xsec2       0          0          0          NO
MC-76xsec3       0          0          0          NO
MC-76xsec4       0          0          0          NO
MC-76_44Br       0          0          0          NO
MC-77xsec1       0          0          0          NO
MC-66_2          0          0          0          NO
MC-66LStC1       0          0          0          NO
MC-67_3          0          0          0          NO
MC-67_4          0          0          0          NO
MC-63            0          0          0          NO
MC-64PRdC2       0          0          0          NO
MC-65xsec4       0          0          0          NO
MC-65xsec1       0          0          0          NO
MC-65xsec2       0          0          0          NO
MC-62sec14       0          0          0          NO
MC-62xsec1       0          0          0          NO
MC-62xsec2       0          0          0          NO
MC-62xsec3       0          0          0          NO
MC-62xsec4       0          0          0          NO
MC-62xsec5       0          0          0          NO
MC-62xsec6       0          0          0          NO
MC-62xsec7       0          0          0          NO
MC-62xsec8       0          0          0          NO
MC-62xsec9       0          0          0          NO
MC-62sec10       0          0          0          NO
MC-62_RRBr       0          0          0          NO
MC-62sec11       0          0          0          NO
MC-62sec12       0          0          0          NO
MC-62sec13       0          0          0          NO
MC-62_BTBr       0          0          0          NO
MC-61xsec2       0          0          0          NO
MC-61xsec3       0          0          0          NO
MC-60BRdBr       0          0          0          NO
MC-58            0          0          0          NO
MC-58xsec1       0          0          0          NO
MC-57            0          0          0          NO
MC-57xsec3       0          0          0          NO
MC-57xsec4       0          0          0          NO
MC-57xsec1       0          0          0          NO
MC-57xsec2       0          0          0          NO
MC-56xsec7       0          0          0          NO
MC-56xsec8       0          0          0          NO
MC-56xsec9       0          0          0          NO
MC-56sec10       0          0          0          NO
MC-56sec11       0          0          0          NO
MC-56sec12       0          0          0          NO
MC-54            0          0          0          NO
MC-56xsec1       0          0          0          NO
MC-56xsec2       0          0          0          NO
MC-56xsec3       0          0          0          NO
MC-56xsec4       0          0          0          NO
MC-56xsec5       0          0          0          NO
MC-56xsec6       0          0          0          NO
MC-41            0          0          0          NO
MC-41xsec1       0          0          0          NO
MC-41xsec2       0          0          0          NO
MC-41xsec3       0          0          0          NO
MC-41xsec4       0          0          0          NO
MC-41xsec5       0          0          0          NO
MC-41xsec6       0          0          0          NO
MC-41xsec7       0          0          0          NO
MC-37xsec4       0          0          0          NO
MC-37xsec5       0          0          0          NO
MC-37xsec1       0          0          0          NO
MC-37xsec2       0          0          0          NO
MC-37xsec3       0          0          0          NO
MC-32xsec1       0          0          0          NO
MC-32xsec2       0          0          0          NO
MC-32xsec3       0          0          0          NO
MC-32xsec4       0          0          0          NO
MC-32xsec5       0          0          0          NO
MC-29_AMiB       0          0          0          NO
MC-31xsec1       0          0          0          NO
MC-31xsec2       0          0          0          NO
MC-31xsec3       0          0          0          NO
MC-31_PDBr       0          0          0          NO
MC-28xsec9       0          0          0          NO
MC-28sec10       0          0          0          NO
MC-28sec11       0          0          0          NO
MC-28sec12       0          0          0          NO
MC-28_PDBr       0          0          0          NO
MC-28xsec5       0          0          0          NO
MC-28xsec6       0          0          0          NO
MC-28xsec7       0          0          0          NO
MC-28xsec8       0          0          0          NO
MC-28sec13       0          0          0          NO
MC-28sec14       0          0          0          NO
MC-28xsec1       0          0          0          NO
MC-28xsec2       0          0          0          NO
MC-28xsec3       0          0          0          NO
MC-28xsec4       0          0          0          NO
MC-28_BStB       0          0          0          NO
MC-17xsec1       0          0          0          NO
MC-17xsec2       0          0          0          NO
MC-17xsec3       0          0          0          NO
MC-17xsec4       0          0          0          NO
MC-17xsec5       0          0          0          NO
MC17_494C1       0          0          0          NO
MC-17xsec6       0          0          0          NO
MC-17xsec7       0          0          0          NO
MC-17xsec8       0          0          0          NO
MC-17xsec9       0          0          0          NO
MC-17sec10       0          0          0          NO
MC-17sec11       0          0          0          NO
MC-17sec12       0          0          0          NO
MC-77xsec2       0          0          0          NO
MC-77xsec3       0          0          0          NO
MC-77xsec4       0          0          0          NO
MC-77xsec5       0          0          0          NO
MC-77xsec6       0          0          0          NO
MC-77xsec7       0          0          0          NO
MC-80_2          0          0          0          NO
MC-80_3          0          0          0          NO
MC-78_2          0          0          0          NO
MC-78_3          0          0          0          NO
L443             0          0          0          NO
MC-15            0          0          0          NO
MC-17            0          0          0          NO
MC-81_BAvB       0          0          0          NO
MC-100PAvC       0          0          0          NO
MC-101           0          0          0          NO
MC-102           0          0          0          NO
MC-103           0          0          0          NO
MC-109nat        0          0          0          NO
MC-121nat        0          0          0          NO
MC-126           0          0          0          NO
MC-127           0          0          0          NO
MC-110           0          0          0          NO
MC-122nat        0          0          0          NO
MC-118           0          0          0          NO
MC-117           0          0          0          NO
MC-123           0          0          0          NO
MC-120           0          0          0          NO
MC-119           0          0          0          NO
MC-108CPkC       0          0          0          NO
MC-107           0          0          0          NO
MC-128           0          0          0          NO
MC-124           0          0          0          NO
MC-125OutC       0          0          0          NO
MC-115           0          0          0          NO
MC-116           0          0          0          NO
MC-112           0          0          0          NO
MC-114           0          0          0          NO
MC-82xsec1       0          0          0          NO
MC-87_54Br       0          0          0          NO
MC-88_56Br       0          0          0          NO
MC-92_FAvC       0          0          0          NO
MC-94xsec1       0          0          0          NO
MC-94_UAvB       0          0          0          NO
MC-96xsec3       0          0          0          NO
MC-99xsec4       0          0          0          NO
MC-99_HAvB       0          0          0          NO
MC-132sec6       0          0          0          NO
MC-133LAvB       0          0          0          NO
MC136sec11       0          0          0          NO
MC-137I35B       0          0          0          NO
MC-141MPkB       0          0          0          NO
MC-141sec3       0          0          0          NO
MC-169sec5       0          0          0          NO
MC-173sec2       0          0          0          NO
MC-174sec2       0          0          0          NO
MC-175NAvB       0          0          0          NO
MC-178Ft2B       0          0          0          NO
MC-182_FtB       0          0          0          NO
MC-184Ft3B       0          0          0          NO
MC-89            0          0          0          NO
MC-90nat         0          0          0          NO
MC-129_P1        0          0          0          NO
MC-131HAvC       0          0          0          NO
MC-95            0          0          0          NO
MC-97            0          0          0          NO
MC-134           0          0          0          NO
MC-139           0          0          0          NO
MC-140           0          0          0          NO
MC-147           0          0          0          NO
MC-179sec1       0          0          0          NO
MC-183           0          0          0          NO
MC-176           0          0          0          NO
MC-111           0          0          0          NO
MC-83nat         0          0          0          NO
MC-84            0          0          0          NO
MC-85            0          0          0          NO
MC-86xsec4       0          0          0          NO
MC-100PAC2       0          0          0          NO
MC-100           0          0          0          NO
MC-100NAvC       0          0          0          NO
MC-100_2         0          0          0          NO
MC-81xsec1       0          0          0          NO
MC-81xsec2       0          0          0          NO
MC-81xsec3       0          0          0          NO
MC-81_50Br       0          0          0          NO
MC-101_2         0          0          0          NO
MC-102_2         0          0          0          NO
MC-102_3         0          0          0          NO
MC-101_3         0          0          0          NO
MC-102SS1a       0          0          0          NO
MC-102_4         0          0          0          NO
MC-102_5         0          0          0          NO
MC-104sec1       0          0          0          NO
MC-104sec2       0          0          0          NO
MC-104           0          0          0          NO
MC-104_2         0          0          0          NO
MC-104_3         0          0          0          NO
MC-104_4         0          0          0          NO
MC-104_5         0          0          0          NO
MC-104BrmC       0          0          0          NO
MC-104_6         0          0          0          NO
MC-104_7         0          0          0          NO
MC-104DivC       0          0          0          NO
MC-104_8         0          0          0          NO
990.1            0          0          0          NO
MC-105_P1A       0          0          0          NO
MC-105P1EO       0          0          0          NO
MC-105P3C2       0          0          0          NO
MC-105P3C1       0          0          0          NO
MC-105P3C3       0          0          0          NO
MC-105_2         0          0          0          NO
MC-106SS1C       0          0          0          NO
MC-106SS2C       0          0          0          NO
MC-106SS3C       0          0          0          NO
MC-110_2         0          0          0          NO
MC-110_3         0          0          0          NO
MC-110_4         0          0          0          NO
MC-115_2         0          0          0          NO
MC-115_3         0          0          0          NO
MC-115_4         0          0          0          NO
MC-119_2         0          0          0          NO

[INFLOWS]
;;Node           Constituent  Time Series      Type     Mfactor  Sfactor  Baseline Pattern
;;-------------- ------------ ---------------- -------- -------- -------- -------- --------
;; SYNTHETIC TEST INFLOWS — the source .xp carried no constant inflows
;; and RUNF hydrology is not converted; 1.00 CFS is applied at each
;; headwater node so the network runs wet for QA. Replace with real
;; hydrology or inflow hydrographs before using results.
MC-1CPkwyT       FLOW         ""               FLOW     1.0      1.0      1.00
MC-3Hwy12T       FLOW         ""               FLOW     1.0      1.0      1.00
HW_MC-4          FLOW         ""               FLOW     1.0      1.0      1.00
MC-5_Sh_C2       FLOW         ""               FLOW     1.0      1.0      1.00
MC-7_RR_T        FLOW         ""               FLOW     1.0      1.0      1.00
MC-6_StRdT       FLOW         ""               FLOW     1.0      1.0      1.00
MC-2CPkwyT       FLOW         ""               FLOW     1.0      1.0      1.00
HW_MC-18nat      FLOW         ""               FLOW     1.0      1.0      1.00
HW_MC-19weir     FLOW         ""               FLOW     1.0      1.0      1.00
MC-20_SRdC       FLOW         ""               FLOW     1.0      1.0      1.00
MC-23_SRdT       FLOW         ""               FLOW     1.0      1.0      1.00
HW_MC-21nat      FLOW         ""               FLOW     1.0      1.0      1.00
MC-8_McG_T       FLOW         ""               FLOW     1.0      1.0      1.00
MC-10PDBrT       FLOW         ""               FLOW     1.0      1.0      1.00
MC-17_MRdT       FLOW         ""               FLOW     1.0      1.0      1.00
MC-9_Out_T       FLOW         ""               FLOW     1.0      1.0      1.00
HW_MC-11         FLOW         ""               FLOW     1.0      1.0      1.00
HW_MC-12nat      FLOW         ""               FLOW     1.0      1.0      1.00
MC-15MBdC1       FLOW         ""               FLOW     1.0      1.0      1.00
MC-13BermC       FLOW         ""               FLOW     1.0      1.0      1.00
MC-14_494C       FLOW         ""               FLOW     1.0      1.0      1.00
MC-24_SDrT       FLOW         ""               FLOW     1.0      1.0      1.00
MC-25CRdC1       FLOW         ""               FLOW     1.0      1.0      1.00
HW_MC-28_RRBr    FLOW         ""               FLOW     1.0      1.0      1.00
MC-31_CCrT       FLOW         ""               FLOW     1.0      1.0      1.00
MC-32_RRT        FLOW         ""               FLOW     1.0      1.0      1.00
Node_73          FLOW         ""               FLOW     1.0      1.0      1.00
MC-41MBdT        FLOW         ""               FLOW     1.0      1.0      1.00
MC-43_169C       FLOW         ""               FLOW     1.0      1.0      1.00
MC-44_RCtT       FLOW         ""               FLOW     1.0      1.0      1.00
MC-45_WLnT       FLOW         ""               FLOW     1.0      1.0      1.00
HW_MC-46         FLOW         ""               FLOW     1.0      1.0      1.00
HW_MC-47weir     FLOW         ""               FLOW     1.0      1.0      1.00
HW_MC-48         FLOW         ""               FLOW     1.0      1.0      1.00
Node_52          FLOW         ""               FLOW     1.0      1.0      1.00
HW_MC-49         FLOW         ""               FLOW     1.0      1.0      1.00
HW_MC-22nat      FLOW         ""               FLOW     1.0      1.0      1.00
MC-30_CRdT       FLOW         ""               FLOW     1.0      1.0      1.00
HW_MC-33nat      FLOW         ""               FLOW     1.0      1.0      1.00
HW_MC-34         FLOW         ""               FLOW     1.0      1.0      1.00
HW_MC-26MDrT     FLOW         ""               FLOW     1.0      1.0      1.00
HW_MC-27         FLOW         ""               FLOW     1.0      1.0      1.00
MC-35_MBdT       FLOW         ""               FLOW     1.0      1.0      1.00
MC-36_MBdT       FLOW         ""               FLOW     1.0      1.0      1.00
HW_MC-40         FLOW         ""               FLOW     1.0      1.0      1.00
MC-42ORdC2       FLOW         ""               FLOW     1.0      1.0      1.00
MC-38_CRdT       FLOW         ""               FLOW     1.0      1.0      1.00
HW_MC-39         FLOW         ""               FLOW     1.0      1.0      1.00
Node_51          FLOW         ""               FLOW     1.0      1.0      1.00
MC-53_34T        FLOW         ""               FLOW     1.0      1.0      1.00
MC-56_36Br       FLOW         ""               FLOW     1.0      1.0      1.00
MC-56_37Br       FLOW         ""               FLOW     1.0      1.0      1.00
Node_61          FLOW         ""               FLOW     1.0      1.0      1.00
Node_65          FLOW         ""               FLOW     1.0      1.0      1.00
MC-68LABrC       FLOW         ""               FLOW     1.0      1.0      1.00
MC-65MRdBC       FLOW         ""               FLOW     1.0      1.0      1.00
MC-69EBdT        FLOW         ""               FLOW     1.0      1.0      1.00
MC-77_100T       FLOW         ""               FLOW     1.0      1.0      1.00
MC-59_VAvT       FLOW         ""               FLOW     1.0      1.0      1.00
MC-58CStT        FLOW         ""               FLOW     1.0      1.0      1.00
Node_66          FLOW         ""               FLOW     1.0      1.0      1.00
MC-57_7T         FLOW         ""               FLOW     1.0      1.0      1.00
Node_55          FLOW         ""               FLOW     1.0      1.0      1.00
Node_63          FLOW         ""               FLOW     1.0      1.0      1.00
Node_64          FLOW         ""               FLOW     1.0      1.0      1.00
Node_71          FLOW         ""               FLOW     1.0      1.0      1.00
Node_79          FLOW         ""               FLOW     1.0      1.0      1.00
Node_78          FLOW         ""               FLOW     1.0      1.0      1.00
Node_80          FLOW         ""               FLOW     1.0      1.0      1.00
Node_50          FLOW         ""               FLOW     1.0      1.0      1.00
HW_MC-47         FLOW         ""               FLOW     1.0      1.0      1.00
HW_MC-47_2       FLOW         ""               FLOW     1.0      1.0      1.00
HW_MC-49_2       FLOW         ""               FLOW     1.0      1.0      1.00
HW_MC-49_3       FLOW         ""               FLOW     1.0      1.0      1.00
MC-16MRd.1       FLOW         ""               FLOW     1.0      1.0      1.00
MC-61LStT        FLOW         ""               FLOW     1.0      1.0      1.00
MC-71_OutT       FLOW         ""               FLOW     1.0      1.0      1.00
Node_74          FLOW         ""               FLOW     1.0      1.0      1.00
MC-75BAvT        FLOW         ""               FLOW     1.0      1.0      1.00
Node_76          FLOW         ""               FLOW     1.0      1.0      1.00
Node_67          FLOW         ""               FLOW     1.0      1.0      1.00
MC-76_44T        FLOW         ""               FLOW     1.0      1.0      1.00
Node_77          FLOW         ""               FLOW     1.0      1.0      1.00
MC-66LStC2       FLOW         ""               FLOW     1.0      1.0      1.00
Node_62          FLOW         ""               FLOW     1.0      1.0      1.00
MC-62_RR_T       FLOW         ""               FLOW     1.0      1.0      1.00
MC-62_BTT        FLOW         ""               FLOW     1.0      1.0      1.00
MC-60BRdT        FLOW         ""               FLOW     1.0      1.0      1.00
Node_169         FLOW         ""               FLOW     1.0      1.0      1.00
Node_58          FLOW         ""               FLOW     1.0      1.0      1.00
Node_57          FLOW         ""               FLOW     1.0      1.0      1.00
Node_56          FLOW         ""               FLOW     1.0      1.0      1.00
Node_54          FLOW         ""               FLOW     1.0      1.0      1.00
HW_MC-41         FLOW         ""               FLOW     1.0      1.0      1.00
HW_MC-41xsec1    FLOW         ""               FLOW     1.0      1.0      1.00
HW_MC-41xsec2    FLOW         ""               FLOW     1.0      1.0      1.00
HW_MC-41xsec3    FLOW         ""               FLOW     1.0      1.0      1.00
HW_MC-41xsec4    FLOW         ""               FLOW     1.0      1.0      1.00
HW_MC-41xsec5    FLOW         ""               FLOW     1.0      1.0      1.00
HW_MC-41xsec6    FLOW         ""               FLOW     1.0      1.0      1.00
HW_MC-41xsec7    FLOW         ""               FLOW     1.0      1.0      1.00
HW_MC-37xsec4    FLOW         ""               FLOW     1.0      1.0      1.00
HW_MC-37xsec5    FLOW         ""               FLOW     1.0      1.0      1.00
HW_MC-37xsec1    FLOW         ""               FLOW     1.0      1.0      1.00
HW_MC-37xsec2    FLOW         ""               FLOW     1.0      1.0      1.00
HW_MC-37xsec3    FLOW         ""               FLOW     1.0      1.0      1.00
HW_MC-32xsec1    FLOW         ""               FLOW     1.0      1.0      1.00
HW_MC-32xsec2    FLOW         ""               FLOW     1.0      1.0      1.00
HW_MC-32xsec3    FLOW         ""               FLOW     1.0      1.0      1.00
HW_MC-32xsec4    FLOW         ""               FLOW     1.0      1.0      1.00
HW_MC-32xsec5    FLOW         ""               FLOW     1.0      1.0      1.00
MC-29_AMiT       FLOW         ""               FLOW     1.0      1.0      1.00
HW_MC-31xsec1    FLOW         ""               FLOW     1.0      1.0      1.00
HW_MC-31xsec2    FLOW         ""               FLOW     1.0      1.0      1.00
HW_MC-31xsec3    FLOW         ""               FLOW     1.0      1.0      1.00
MC-31_PDT        FLOW         ""               FLOW     1.0      1.0      1.00
HW_MC-28xsec9    FLOW         ""               FLOW     1.0      1.0      1.00
HW_MC-28sec10    FLOW         ""               FLOW     1.0      1.0      1.00
HW_MC-28sec11    FLOW         ""               FLOW     1.0      1.0      1.00
HW_MC-28sec12    FLOW         ""               FLOW     1.0      1.0      1.00
MC-28_PDT        FLOW         ""               FLOW     1.0      1.0      1.00
HW_MC-28xsec5    FLOW         ""               FLOW     1.0      1.0      1.00
HW_MC-28xsec6    FLOW         ""               FLOW     1.0      1.0      1.00
HW_MC-28xsec7    FLOW         ""               FLOW     1.0      1.0      1.00
HW_MC-28xsec8    FLOW         ""               FLOW     1.0      1.0      1.00
HW_MC-28sec13    FLOW         ""               FLOW     1.0      1.0      1.00
HW_MC-28sec14    FLOW         ""               FLOW     1.0      1.0      1.00
HW_MC-28xsec1    FLOW         ""               FLOW     1.0      1.0      1.00
HW_MC-28xsec2    FLOW         ""               FLOW     1.0      1.0      1.00
HW_MC-28xsec3    FLOW         ""               FLOW     1.0      1.0      1.00
HW_MC-28xsec4    FLOW         ""               FLOW     1.0      1.0      1.00
MC-28_BStT       FLOW         ""               FLOW     1.0      1.0      1.00
HW_MC-17xsec1    FLOW         ""               FLOW     1.0      1.0      1.00
HW_MC-17xsec2    FLOW         ""               FLOW     1.0      1.0      1.00
HW_MC-17xsec3    FLOW         ""               FLOW     1.0      1.0      1.00
HW_MC-17xsec4    FLOW         ""               FLOW     1.0      1.0      1.00
HW_MC-17xsec5    FLOW         ""               FLOW     1.0      1.0      1.00
MC17_494C2       FLOW         ""               FLOW     1.0      1.0      1.00
HW_MC-17xsec6    FLOW         ""               FLOW     1.0      1.0      1.00
HW_MC-17xsec7    FLOW         ""               FLOW     1.0      1.0      1.00
HW_MC-17xsec8    FLOW         ""               FLOW     1.0      1.0      1.00
HW_MC-17xsec9    FLOW         ""               FLOW     1.0      1.0      1.00
HW_MC-17sec10    FLOW         ""               FLOW     1.0      1.0      1.00
HW_MC-17sec11    FLOW         ""               FLOW     1.0      1.0      1.00
HW_MC-17sec12    FLOW         ""               FLOW     1.0      1.0      1.00
Node_81          FLOW         ""               FLOW     1.0      1.0      1.00
Node_75          FLOW         ""               FLOW     1.0      1.0      1.00
Node_443         FLOW         ""               FLOW     1.0      1.0      1.00
HW_MC-15         FLOW         ""               FLOW     1.0      1.0      1.00
HW_MC-17         FLOW         ""               FLOW     1.0      1.0      1.00
MC-81_BAvT       FLOW         ""               FLOW     1.0      1.0      1.00
Node_100         FLOW         ""               FLOW     1.0      1.0      1.00
Node_101         FLOW         ""               FLOW     1.0      1.0      1.00
Node_102         FLOW         ""               FLOW     1.0      1.0      1.00
Node_103         FLOW         ""               FLOW     1.0      1.0      1.00
Node_104         FLOW         ""               FLOW     1.0      1.0      1.00
Node_105         FLOW         ""               FLOW     1.0      1.0      1.00
Node_109         FLOW         ""               FLOW     1.0      1.0      1.00
Node_121         FLOW         ""               FLOW     1.0      1.0      1.00
Node_126         FLOW         ""               FLOW     1.0      1.0      1.00
Node_127         FLOW         ""               FLOW     1.0      1.0      1.00
Node_110         FLOW         ""               FLOW     1.0      1.0      1.00
Node_122         FLOW         ""               FLOW     1.0      1.0      1.00
Node_118         FLOW         ""               FLOW     1.0      1.0      1.00
Node_117         FLOW         ""               FLOW     1.0      1.0      1.00
Node_123         FLOW         ""               FLOW     1.0      1.0      1.00
Node_120         FLOW         ""               FLOW     1.0      1.0      1.00
Node_119         FLOW         ""               FLOW     1.0      1.0      1.00
MC-108CPkT       FLOW         ""               FLOW     1.0      1.0      1.00
Node_107         FLOW         ""               FLOW     1.0      1.0      1.00
Node_128         FLOW         ""               FLOW     1.0      1.0      1.00
Node_124         FLOW         ""               FLOW     1.0      1.0      1.00
Node_125         FLOW         ""               FLOW     1.0      1.0      1.00
Node_115         FLOW         ""               FLOW     1.0      1.0      1.00
Node_116         FLOW         ""               FLOW     1.0      1.0      1.00
Node_112         FLOW         ""               FLOW     1.0      1.0      1.00
Node_114         FLOW         ""               FLOW     1.0      1.0      1.00
Node_82          FLOW         ""               FLOW     1.0      1.0      1.00
MC-87_54T        FLOW         ""               FLOW     1.0      1.0      1.00
MC-88_56T        FLOW         ""               FLOW     1.0      1.0      1.00
MC-92_FAvT       FLOW         ""               FLOW     1.0      1.0      1.00
Node_94          FLOW         ""               FLOW     1.0      1.0      1.00
MC-94_UAvT       FLOW         ""               FLOW     1.0      1.0      1.00
Node_96          FLOW         ""               FLOW     1.0      1.0      1.00
Node_99          FLOW         ""               FLOW     1.0      1.0      1.00
MC-99_HAvT       FLOW         ""               FLOW     1.0      1.0      1.00
Node_132         FLOW         ""               FLOW     1.0      1.0      1.00
MC-133LAvT       FLOW         ""               FLOW     1.0      1.0      1.00
Node_136         FLOW         ""               FLOW     1.0      1.0      1.00
Node_137         FLOW         ""               FLOW     1.0      1.0      1.00
MC-141MPkT       FLOW         ""               FLOW     1.0      1.0      1.00
Node_141         FLOW         ""               FLOW     1.0      1.0      1.00
Node_173         FLOW         ""               FLOW     1.0      1.0      1.00
Node_174         FLOW         ""               FLOW     1.0      1.0      1.00
MC-175NAvT       FLOW         ""               FLOW     1.0      1.0      1.00
MC-178Ft2T       FLOW         ""               FLOW     1.0      1.0      1.00
MC-182_FtT       FLOW         ""               FLOW     1.0      1.0      1.00
MC-184Ft3T       FLOW         ""               FLOW     1.0      1.0      1.00
Node_89          FLOW         ""               FLOW     1.0      1.0      1.00
Node_90          FLOW         ""               FLOW     1.0      1.0      1.00
MC-91_58T        FLOW         ""               FLOW     1.0      1.0      1.00
MC-129_P2        FLOW         ""               FLOW     1.0      1.0      1.00
MC-131HAvT       FLOW         ""               FLOW     1.0      1.0      1.00
Node_95          FLOW         ""               FLOW     1.0      1.0      1.00
Node_97          FLOW         ""               FLOW     1.0      1.0      1.00
Node_134         FLOW         ""               FLOW     1.0      1.0      1.00
Node_139         FLOW         ""               FLOW     1.0      1.0      1.00
Node_140         FLOW         ""               FLOW     1.0      1.0      1.00
Node_147         FLOW         ""               FLOW     1.0      1.0      1.00
Node_179         FLOW         ""               FLOW     1.0      1.0      1.00
Node_183         FLOW         ""               FLOW     1.0      1.0      1.00
Node_176         FLOW         ""               FLOW     1.0      1.0      1.00
Node_83          FLOW         ""               FLOW     1.0      1.0      1.00
Node_84          FLOW         ""               FLOW     1.0      1.0      1.00
Node_85          FLOW         ""               FLOW     1.0      1.0      1.00
Node_86          FLOW         ""               FLOW     1.0      1.0      1.00
MC-100_P2        FLOW         ""               FLOW     1.0      1.0      1.00
MC-81_50T        FLOW         ""               FLOW     1.0      1.0      1.00
MC-101weir       FLOW         ""               FLOW     1.0      1.0      1.00
MC-102SS1b       FLOW         ""               FLOW     1.0      1.0      1.00
MC-104_W2        FLOW         ""               FLOW     1.0      1.0      1.00
MC-104BrmT       FLOW         ""               FLOW     1.0      1.0      1.00
MC-105_P1B       FLOW         ""               FLOW     1.0      1.0      1.00
Node_106         FLOW         ""               FLOW     1.0      1.0      1.00
MC-106SS1T       FLOW         ""               FLOW     1.0      1.0      1.00
MC-106SS2T       FLOW         ""               FLOW     1.0      1.0      1.00
MC-106SS3T       FLOW         ""               FLOW     1.0      1.0      1.00

[COORDINATES]
;;Node           X-Coord            Y-Coord
;;-------------- ------------------ ------------------
MC-1             -4980195.25        463461.66         
MC-3             -4979607.10        462289.43         
MC-4             -4979065.55        462582.61         
MC-5             -4978558.93        462815.29         
MC-7             -4977947.50        462652.24         
MC-8             -4977429.24        462838.58         
MC-6             -4977935.85        463030.75         
MC-2             -4979576.85        463478.64         
MC-18            -4978716.16        463432.55         
MC-20            -4978052.32        464061.45         
MC-19            -4977831.04        463502.43         
MC-23            -4977510.76        464554.18         
MC-25            -4976748.82        464972.33         
MC-21            -4978925.79        464527.30         
MC-10            -4976896.66        462735.85         
MC-16            -4976400.77        463613.27         
MC-17            -4976030.88        464472.62         
MC-28            -4976415.53        465707.66         
MC-9             -4975244.72        462437.39         
MC-11            -4975067.51        463370.70         
MC-12            -4974882.02        463844.68         
MC-15            -4975686.51        463815.66         
MC-13            -4974966.95        464253.01         
MC-14            -4975433.32        464105.82         
MC-24            -4976579.46        464541.06         
MC-31            -4976895.13        466182.46         
MC-32            -4976837.03        466497.85         
MC-37            -4976644.32        466660.38         
MC-41            -4976756.87        468054.57         
MC-43            -4976251.67        468260.37         
MC-53            -4976488.90        468887.84         
MC-44            -4978352.01        467274.05         
MC-45            -4978602.46        467766.87         
MC-46            -4978214.67        468502.06         
MC-47            -4977805.78        468556.31         
MC-48            -4977226.93        468639.00         
MC-52            -4976922.02        468721.08         
MC-49            -4977212.87        469641.20         
MC-22            -4978028.85        464761.47         
MC-30            -4977374.45        466037.96         
MC-33            -4977681.45        466538.86         
MC-34            -4977366.37        466713.03         
MC-26            -4975905.86        465127.17         
MC-27            -4976013.60        465668.17         
MC-35            -4976178.75        466393.43         
MC-36            -4976332.25        466829.70         
MC-40            -4976542.31        467443.71         
MC-42            -4976094.61        467791.37         
MC-38            -4977810.71        467750.71         
MC-39            -4977164.39        468001.16         
MC-51            -4976511.30        469243.15         
MC-54            -4976027.54        468886.36         
MC-56            -4975559.96        469154.93         
MC-60            -4975056.80        469288.90         
MC-65            -4974770.10        470247.73         
MC-68            -4974975.07        470861.75         
MC-69            -4974776.48        471324.84         
MC-77            -4973285.35        472264.72         
MC-81            -4973139.81        472679.03         
MC-59            -4974825.58        468769.21         
MC-58            -4975221.00        468589.33         
MC-66            -4975989.57        470693.53         
MC-57            -4975489.63        469921.02         
MC-55            -4976000.21        469427.23         
MC-63            -4973434.37        469817.73         
MC-64            -4974212.62        469819.74         
MC-71            -4973360.61        470679.19         
MC-79            -4972293.21        472386.62         
MC-78            -4971120.19        472090.27         
MC-80            -4973426.10        473305.76         
MC-50            -4977090.24        469264.81         
MC-47_2          -4977554.39        469239.95         
MC-49_2          -4976849.87        469637.79         
MC-50_2          -4976963.76        469202.65         
MC-51_2          -4976806.03        468974.97         
MC-50_3          -4976800.53        469202.01         
MC-61            -4974892.10        469606.39         
MC-62            -4974893.38        469638.77         
MC-75            -4974038.47        471298.61         
MC-72            -4973418.91        471125.21         
MC-73            -4972927.01        471560.78         
MC-74            -4973298.75        471898.72         
MC-67            -4975371.46        470715.92         
MC-71_2          -4973734.32        470685.89         
MC-76            -4974030.96        472018.88         
MC-76_2          -4974019.69        472187.85         
MC-76_3          -4973877.01        472274.21         
MC-76_4          -4973723.05        472304.25         
MC-76_5          -4973602.90        472292.99         
MC-77_2          -4973471.60        472289.23         
MC-65_2          -4974792.63        470485.06         
MC-66_2          -4975703.99        470550.34         
MC-67_2          -4975355.01        470545.32         
MC-67_3          -4975194.33        470545.32         
MC-67_4          -4975119.01        470729.67         
MC-64_2          -4974456.21        470254.08         
MC-65_3          -4974766.27        470341.95         
MC-65_4          -4974773.80        470146.12         
MC-65_5          -4974768.78        470177.51         
MC-65_6          -4974783.53        470109.09         
MC-62_2          -4974899.16        469722.45         
MC-62_3          -4974897.27        469777.06         
MC-62_4          -4974870.46        469819.11         
MC-62_5          -4974830.29        469849.87         
MC-62_6          -4974784.47        469873.72         
MC-62_7          -4974745.56        469922.68         
MC-62_8          -4974741.79        469970.38         
MC-62_9          -4974775.68        469990.15         
MC-62_10         -4974827.78        469981.05         
MC-62_11         -4974854.14        470020.91         
MC-62_12         -4974845.98        470047.58         
MC-62_13         -4974835.94        470067.35         
MC-62_14         -4974821.50        470083.67         
MC-62_15         -4974809.89        470090.89         
MC-62_16         -4974799.53        470100.93         
MC-61_2          -4974915.33        469579.05         
MC-61_3          -4974904.06        469592.41         
MC-61_4          -4974924.10        469563.78         
MC-58_2          -4975291.21        469244.87         
MC-58_3          -4975160.20        469265.54         
MC-57_2          -4975308.96        469238.45         
MC-57_3          -4975417.76        469208.19         
MC-57_4          -4975336.13        469230.92         
MC-57_5          -4975361.44        469219.56         
MC-57_6          -4975388.31        469213.36         
MC-56_2          -4975618.77        469118.54         
MC-56_3          -4975594.20        469138.17         
MC-56_4          -4975449.24        469194.00         
MC-56_5          -4975521.88        469167.58         
MC-56_6          -4975485.29        469181.06         
MC-56_7          -4975651.77        469096.34         
MC-56_8          -4975701.86        469094.24         
MC-56_9          -4975821.01        469028.98         
MC-56_10         -4975806.04        469046.34         
MC-56_11         -4975791.07        469061.91         
MC-56_12         -4975766.53        469081.67         
MC-56_13         -4975744.97        469092.45         
MC-56_14         -4975723.42        469094.84         
MC-41_2          -4976750.25        466957.35         
MC-41_3          -4976814.91        467103.44         
MC-41_4          -4976823.30        467244.75         
MC-41_5          -4976807.73        467414.79         
MC-41_6          -4976630.50        466866.34         
MC-41_7          -4976776.59        467516.57         
MC-41_8          -4976773.00        467606.38         
MC-37_2          -4976630.50        466772.33         
MC-37_3          -4976635.29        466704.71         
MC-37_4          -4976753.84        466570.57         
MC-37_5          -4976702.35        466577.75         
MC-37_6          -4976660.44        466619.66         
MC-32_2          -4976824.49        466376.58         
MC-32_3          -4976795.75        466553.80         
MC-32_4          -4976830.48        466419.69         
MC-32_5          -4976835.27        466458.01         
MC-32_6          -4976820.90        466532.25         
MC-29            -4976734.08        465706.59         
MC-31_2          -4976863.71        465993.39         
MC-31_3          -4976875.09        466015.54         
MC-31_4          -4976891.55        466043.68         
MC-31_5          -4976895.14        466083.20         
MC-28_2          -4976027.87        464798.31         
MC-28_3          -4976204.50        465258.14         
MC-28_4          -4976242.82        465320.41         
MC-28_5          -4976306.89        465352.74         
MC-28_6          -4976360.77        465435.36         
MC-28_7          -4976082.36        465005.02         
MC-28_8          -4976092.54        465049.93         
MC-28_9          -4976129.66        465121.63         
MC-28_10         -4976157.20        465198.26         
MC-28_11         -4976399.09        465517.99         
MC-28_12         -4976415.26        465611.39         
MC-28_13         -4976050.93        464828.25         
MC-28_14         -4976053.92        464858.78         
MC-28_15         -4976059.87        464892.31         
MC-28_16         -4976067.06        464928.83         
MC-28_17         -4976070.38        464965.36         
MC-17_2          -4976085.65        464039.11         
MC-17_3          -4976068.89        464124.13         
MC-17_4          -4976060.51        464172.03         
MC-17_5          -4976048.53        464222.32         
MC-17_6          -4976042.54        464294.17         
MC-17_7          -4976096.37        463975.65         
MC-17_8          -4976037.97        464403.14         
MC-17_9          -4976024.58        464573.18         
MC-17_10         -4976029.37        464514.51         
MC-17_11         -4976013.80        464740.83         
MC-17_12         -4976042.76        464351.65         
MC-17_13         -4976016.20        464621.08         
MC-17_14         -4976007.82        464672.57         
MC-77_3          -4973432.31        472285.00         
MC-77_4          -4973360.04        472283.28         
MC-77_5          -4973157.83        472380.86         
MC-77_6          -4973235.74        472267.94         
MC-77_7          -4973180.12        472282.05         
MC-77_8          -4973159.47        472326.29         
MC-81_2          -4973009.03        472754.22         
MC-80_2          -4973271.19        472996.97         
MC-80_3          -4973203.34        472846.53         
MC-78_2          -4971112.57        472390.35         
MC-78_3          -4971528.78        472383.82         
MC-81_3          -4973370.21        472673.20         
MC-85            -4974037.98        471036.52         
MC-16_2          -4976650.11        463609.29         
MC-9_2           -4974310.17        462884.99         
MC-15_2          -4974428.01        464299.08         
MC-17_15         -4975514.76        464822.81         
MC-100           -4978512.51        470404.55         
MC-101           -4978054.12        472048.17         
MC-102           -4977565.71        472541.26         
MC-103           -4976835.25        473612.12         
MC-104           -4977536.89        473780.69         
MC-105           -4977020.10        474428.67         
MC-109           -4977506.76        475015.86         
MC-121           -4976860.93        476198.82         
MC-126           -4975297.45        475738.79         
MC-127           -4974609.42        476203.29         
MC-130           -4973286.64        476174.67         
MC-131           -4972778.77        476885.38         
MC-110           -4975986.97        472039.59         
MC-114           -4976144.87        473352.63         
MC-122           -4976576.65        476221.10         
MC-118           -4976613.64        475342.41         
MC-117           -4976336.97        475135.49         
MC-123           -4975705.46        476607.65         
MC-120           -4977019.37        476780.55         
MC-119           -4978195.49        476490.60         
MC-108           -4978475.68        474725.38         
MC-107           -4978183.71        473576.26         
MC-128           -4973545.31        477150.35         
MC-124           -4973801.86        474328.53         
MC-125           -4974502.02        475049.84         
MC-115           -4975450.29        473600.30         
MC-116           -4975294.14        475050.36         
MC-112           -4974706.35        472691.71         
MC-82            -4972142.52        473448.45         
MC-86            -4972113.02        473876.46         
MC-88            -4971544.14        474172.81         
MC-92            -4971461.59        473756.39         
MC-93            -4971417.15        474841.24         
MC-93_2          -4971687.69        475119.54         
MC-94            -4971690.87        475384.82         
MC-96            -4971763.79        475707.31         
MC-98            -4971915.51        476244.86         
MC-99            -4972199.67        476454.49         
MC-132           -4972118.15        476879.63         
MC-133           -4971936.96        477400.29         
MC-136           -4972065.06        477941.11         
MC-137           -4972083.27        478638.64         
MC-141           -4972376.63        479012.06         
MC-141_2         -4972387.26        479086.23         
MC-173           -4973021.87        481941.13         
MC-174           -4973023.42        482197.27         
MC-175           -4973024.51        482306.13         
MC-178           -4973021.58        482435.22         
MC-180           -4972986.31        482938.72         
MC-184           -4972664.04        483945.88         
MC-89            -4970914.80        473058.92         
MC-90            -4970227.68        474098.37         
MC-91            -4970755.39        474070.50         
MC-129           -4972884.38        474857.72         
MC-83            -4973071.20        474167.88         
MC-95            -4970956.47        475595.40         
MC-97            -4971544.77        476455.14         
MC-134           -4971584.30        477582.51         
MC-139           -4972694.49        478606.14         
MC-140           -4972694.01        479128.57         
MC-147           -4973714.92        479363.93         
MC-179           -4972919.82        482543.51         
MC-183           -4973117.96        483974.40         
MC-176           -4973577.66        482243.43         
MC-111           -4975352.79        472601.41         
MC-84            -4972960.29        473942.41         
MC-85_2          -4972339.73        474289.76         
MC-87            -4971833.08        473995.30         
MC-100_2         -4978393.09        470563.42         
MC-100_3         -4978393.09        470693.98         
MC-100_4         -4978177.17        470693.98         
MC-100_5         -4977931.13        470824.53         
MC-100_6         -4977624.83        470914.91         
MC-81_4          -4972567.21        473173.62         
MC-81_5          -4972479.14        473215.80         
MC-81_6          -4972403.72        473264.72         
MC-101_2         -4977771.63        472063.69         
MC-101_3         -4977223.00        472063.69         
MC-102_2         -4976907.39        472544.48         
MC-102_3         -4977048.97        472804.04         
MC-101_4         -4976907.39        472137.43         
MC-102_4         -4977386.70        472541.53         
MC-102_5         -4977166.95        472541.53         
MC-102_6         -4977075.52        472543.00         
MC-104_2         -4977265.77        473612.24         
MC-104_3         -4977377.85        473612.24         
MC-104_4         -4977495.84        473632.89         
MC-104_5         -4977596.13        473780.37         
MC-104_6         -4977523.86        474426.34         
MC-104_7         -4977614.56        473859.27         
MC-104_8         -4977614.56        473966.94         
MC-104_9         -4977599.08        474038.46         
MC-104_10        -4977559.99        474081.97         
MC-104_11        -4977559.99        474158.66         
MC-104_12        -4977523.86        474213.23         
MC-104_13        -4977524.60        474271.49         
MC-104_14        -4977524.60        474497.13         
MC-105_2         -4977019.10        474537.32         
MC-105_3         -4977018.74        474630.97         
MC-105_4         -4976987.76        474481.65         
MC-105_5         -4977018.00        474689.23         
MC-105_6         -4977057.45        474677.06         
MC-105_7         -4976981.87        474680.38         
MC-106           -4978133.91        474415.60         
MC-106_2         -4978024.05        474528.64         
MC-106_3         -4977853.24        474683.65         
MC-106_4         -4977674.72        474848.06         
MC-110_2         -4975986.73        472906.91         
MC-110_3         -4975615.08        473060.29         
MC-110_4         -4975792.06        473449.64         
MC-115_2         -4975426.30        474039.57         
MC-115_3         -4975420.40        474340.43         
MC-115_4         -4975349.61        474582.30         
MC-119_2         -4977756.51        476381.58         
MC-89_2          -4970916.32        473496.84         
MC-89_3          -4970919.27        473803.60         
MC-84_2          -4972745.09        473942.23         
MC-84_3          -4972568.11        473921.59         
MC-84_4          -4972399.98        473841.95         
MC-85_3          -4972297.56        474140.71         
MC-85_4          -4972199.41        474007.12         
MC-82_2          -4972232.24        473294.68         
MC-82_3          -4972179.61        473370.47         
MC-82_4          -4972143.63        473551.62         
MC-82_5          -4972331.19        473294.68         
MC-125_2         -4974722.71        475057.80         
MC-125Out        -4975105.86        475440.95         
MC-124_2         -4974246.93        475053.59         
MC-86_2          -4972143.06        473611.61         
MC-125eof        -4974645.52        475209.35         
MC-126_2         -4975136.53        475733.09         
MC-126_3         -4975031.78        475746.18         
MC-126_4         -4974833.20        475748.37         
MC-126_5         -4974656.44        475745.09         
MC-126_6         -4974292.00        475742.91         
MC-126_7         -4973867.56        475742.91         
MC-130_2         -4972946.66        476751.10         
MC-86_3          -4972143.87        473692.16         
MC-86_4          -4972142.23        473773.99         
MC-86_5          -4971976.93        473894.28         
MC-86_6          -4971938.46        473908.20         
MC-87_2          -4971886.91        473931.93         
MC-87_3          -4971708.51        473975.30         
MC-87_4          -4971678.23        474003.94         
MC-87_5          -4971668.41        474053.04         
MC-88_2          -4971616.86        474053.86         
MC-88_3          -4971440.91        474228.17         
MC-88_4          -4971341.90        474215.07         
MC-88_5          -4971256.79        474188.07         
MC-92_2          -4971180.68        474153.70         
MC-92_3          -4971146.31        474338.64         
MC-92_4          -4970984.28        474125.87         
MC-92_5          -4970894.26        474189.70         
MC-92_6          -4970935.18        474302.64         
MC-92_7          -4971229.78        473870.55         
MC-92_8          -4971229.78        474029.31         
MC-93_3          -4971147.95        474469.58         
MC-93_4          -4971154.50        474638.15         
MC-93_5          -4971247.79        474687.25         
MC-93_6          -4971396.72        474715.08         
MC-93_7          -4971345.51        474935.55         
MC-93_8          -4971481.83        475004.77         
MC-93_9          -4971604.58        474918.03         
MC-93_10         -4971689.69        474996.59         
MC-94_2          -4971689.69        475278.09         
MC-94_3          -4971689.69        475514.59         
MC-94_4          -4971689.69        475469.58         
MC-96_2          -4971686.42        475606.66         
MC-96_3          -4971688.05        475570.65         
MC-96_4          -4971839.44        475755.18         
MC-96_5          -4971854.17        475814.10         
MC-96_6          -4971882.82        475868.93         
MC-96_7          -4971926.19        475918.03         
MC-98_2          -4971926.19        475982.68         
MC-98_3          -4971926.19        476003.35         
MC-97_2          -4971923.73        476073.52         
MC-98_4          -4971923.73        476151.47         
MC-98_5          -4971912.28        476198.93         
MC-98_6          -4971957.90        476268.23         
MC-98_7          -4971994.93        476259.48         
MC-98_8          -4972011.70        476259.48         
MC-98_9          -4972037.07        476259.69         
MC-98_10         -4972057.12        476260.10         
MC-98_11         -4972092.31        476269.71         
MC-98_12         -4972147.14        476302.86         
MC-99_2          -4972177.83        476396.56         
MC-99_3          -4972171.69        476496.80         
MC-99_4          -4972183.96        476590.91         
MC-99_5          -4972168.42        476724.71         
MC-98_13         -4972161.87        476359.32         
MC-99_6          -4972172.10        476540.17         
MC-99_7          -4972183.96        476652.29         
MC-131_2         -4972677.83        476887.56         
MC-131_3         -4972555.08        476889.20         
MC-132_2         -4972168.42        476791.81         
MC-132_3         -4972168.42        476827.00         
MC-132_4         -4972090.08        476971.03         
MC-132_5         -4971949.10        476988.22         
MC-132_6         -4971931.10        477070.05         
MC-132_7         -4972089.26        476908.02         
MC-132_8         -4971971.92        477166.46         
MC-133_2         -4971971.92        477214.74         
MC-133_3         -4971938.37        477297.99         
MC-133_4         -4971957.19        477547.26         
MC-136_2         -4971956.92        477609.18         
MC-136_3         -4971956.92        477661.46         
MC-136_4         -4971919.55        477735.75         
MC-136_5         -4971922.28        477807.22         
MC-136_6         -4971953.37        477844.04         
MC-136_7         -4972001.93        477846.22         
MC-136_8         -4972049.12        477876.23         
MC-133_5         -4971935.37        477505.80         
MC-135           -4971608.08        478000.29         
MC-137_2         -4972065.87        477912.28         
MC-136FN10       -4971999.31        478064.49         
MC-136FN11       -4971960.03        478064.49         
MC-136_9         -4971921.84        478094.50         
MC-136FN12       -4971921.29        478139.23         
MC-136FN13       -4971921.29        478185.06         
MC-136FN14       -4971826.36        478236.66         
MC-136FN15       -4971837.55        478329.09         
MC-136FN16       -4971876.18        478329.63         
MC-136FN17       -4971920.47        478332.36         
MC-136FN18       -4971950.90        478364.44         
MC-137_3         -4971969.27        478398.89         
MC-137_4         -4972048.03        478538.00         
MC-137_5         -4972065.73        478596.68         
MC-138           -4972107.29        478717.66         
MC-141_3         -4972351.40        478988.92         
MC-141_4         -4972292.96        478947.97         
MC-138_2         -4972151.28        478829.58         
MC-138_3         -4972182.34        478905.92         
MC-138_4         -4972152.58        478880.04         
MC-148           -4972283.12        479463.18         
MC-149           -4972294.82        479796.69         
MC-151           -4972440.13        480286.80         
MC-154           -4972653.07        480578.96         
MC-153           -4972861.63        480822.21         
MC-169           -4972875.04        481035.63         
MC-142           -4970238.52        478305.11         
MC-144           -4970731.51        479248.54         
MC-145           -4971709.33        479155.11         
MC-143           -4971407.49        478784.86         
MC-158           -4969698.40        479632.54         
MC-160           -4970119.04        480419.60         
MC-161           -4970511.86        480429.61         
MC-162           -4971309.19        480347.45         
MC-167           -4971825.10        481265.76         
MC-155           -4967846.38        478577.29         
MC-155_2         -4968334.78        478847.41         
MC-155_3         -4969075.53        478835.64         
MC-156           -4969081.58        479015.27         
MC-156_2         -4969266.39        479011.39         
MC-157           -4968787.01        480251.99         
MC-157_2         -4968624.59        480290.40         
MC-157_3         -4968529.93        480326.92         
MC-159           -4970210.71        481291.36         
MC-166           -4972035.15        480674.59         
MC-163           -4970971.01        481318.16         
MC-164           -4971993.11        481986.94         
MC-165           -4972381.48        482018.86         
MC-170           -4974050.15        480728.61         
MC-172           -4973067.58        481793.68         
MC-168           -4972754.31        481097.18         
MC-146           -4971729.51        479583.56         
MC-157_4         -4968696.63        480254.77         
MC-156_3         -4969414.01        479236.81         
MC-155_4         -4968755.57        478571.89         
MC-155_5         -4969075.12        478571.68         
MC-155_6         -4968337.13        478505.88         
MC-162_2         -4971503.49        480759.95         
MC-163_2         -4971485.63        481251.89         
MC-166_2         -4971907.33        480948.94         
MC-155_7         -4968144.31        478610.41         
MC-159_2         -4970110.95        480954.89         
MC-159_3         -4970095.12        480700.07         
MC-159_4         -4970110.59        481157.60         
MC-160_2         -4970217.88        480399.88         
MC-160_3         -4970350.84        480356.05         
MC-171           -4973876.62        481933.21         
MC-143_2         -4970981.83        478959.34         
MC-145_2         -4972181.88        479278.56         
MC-144_2         -4971372.43        479334.04         
MC-170_2         -4973825.70        481178.59         
MC-170_3         -4973611.44        481511.78         
MC-158_2         -4969901.47        479945.23         
MC-141_5         -4972397.26        479160.33         
MC-148_2         -4972398.23        479222.13         
MC-148_3         -4972392.50        479303.30         
MC-148_4         -4972361.85        479370.26         
MC-148_5         -4972250.51        479509.02         
MC-148_6         -4972248.90        479566.31         
MC-149_2         -4972249.70        479634.08         
MC-149_3         -4972248.90        479685.71         
MC-149_4         -4972350.55        479815.60         
MC-149_5         -4972406.22        479913.22         
MC-149_6         -4972408.70        479985.83         
MC-151_2         -4972408.70        480077.32         
MC-150           -4972688.59        479996.97         
MC-151_3         -4972476.47        480216.24         
MC-151_4         -4972531.33        480390.03         
MC-154_2         -4972608.30        480469.09         
MC-152           -4972989.57        480210.73         
MC-154_3         -4972641.40        480656.26         
MC-154_4         -4972701.62        480739.36         
MC-168_2         -4972741.84        480887.81         
MC-168_3         -4972792.06        481375.91         
MC-168_4         -4972753.07        481157.23         
MC-154_5         -4972742.64        480823.39         
MC-168_5         -4972759.53        481255.66         
MC-168_6         -4972782.84        481371.24         
MC-168_7         -4972788.27        481372.24         
MC-168_8         -4972811.62        481380.55         
MC-169_2         -4972820.90        481380.75         
MC-169_3         -4972871.14        481412.30         
MC-169_4         -4972895.73        481420.50         
MC-169_5         -4972914.29        481485.67         
MC-169_6         -4972928.56        481521.17         
MC-169_7         -4972955.46        481563.10         
MC-169_8         -4972973.36        481592.56         
MC-169_9         -4972993.78        481630.80         
MC-169_10        -4973014.33        481665.34         
MC-177           -4973415.26        482528.86         
MC-173_2         -4973022.99        481963.02         
MC-173_3         -4973036.06        481990.36         
MC-173_4         -4973022.12        482069.77         
MC-174_2         -4973022.55        482104.05         
MC-174_3         -4973023.85        482248.98         
MC-175_2         -4973024.29        482284.13         
MC-175_3         -4973023.64        482348.57         
MC-178_2         -4973024.07        482384.25         
MC-178_3         -4973023.85        482413.44         
MC-178WOMP       -4972945.58        482525.18         
MC-179_2         -4972873.50        482686.80         
MC-180_2         -4972873.93        482764.91         
MC-180_3         -4972986.37        482864.94         
MC-180_4         -4972965.49        482993.82         
MC-182           -4972728.85        483621.35         
MC-182_2         -4972759.50        483645.46         
MC-182_3         -4972782.39        483676.93         
MC-182_4         -4972792.19        483729.25         
MC-182_5         -4972778.30        483745.60         
MC-184_2         -4972761.13        483753.76         
MC-184_3         -4972724.35        483769.29         
MC-184_4         -4972665.50        483865.74         
MC-184_5         -4972549.44        484042.29         
MC-184_6         -4972484.05        484042.70         
MC-184_7         -4972315.17        484140.78         
MC-128_2         -4973460.38        476866.30         
MC-135_2         -4971749.80        478006.37         
MC-135_3         -4971608.19        478229.16         
MC-95_2          -4971471.17        475601.82         
MC-183_2         -4972994.31        484010.88         
MC-183_3         -4972890.30        484017.97         
MC-183_4         -4972765.02        484029.79         
MC-183_5         -4972649.19        484043.97         
MC-180_5         -4972919.82        483025.60         
MC-181           -4972860.33        483059.15         
MC-181_2         -4972814.70        483060.20         
MC-181_3         -4972755.85        483071.64         
MC-181_4         -4972642.97        483140.64         
MC-181_5         -4972643.88        483434.55         
MC-181_6         -4972646.33        483506.48         
MC-182_6         -4972661.25        483551.03         
MC-182_7         -4972678.41        483579.63         
MC-182_8         -4972699.59        483609.45         
MC-158_3         -4969895.97        479419.18         
WL-1             -4970485.72        476808.90         
WL-3             -4969666.19        477262.61         
N4               -4968685.32        477282.31         
MR-1             -4971322.64        482318.74         
MR-2             -4971711.07        483534.17         
MR-3             -4975745.81        479975.58         
MC-184FN13       -4972033.84        484967.71         
MR-3_2           -4976096.65        481178.48         
N13              -4976109.92        483207.65         
MC-184_8         -4972246.29        484185.94         
MC-184_9         -4972150.99        484272.07         
MC-184_10        -4972115.25        484317.89         
MC-184FN10       -4972059.36        484402.19         
MC-184FN11       -4972033.70        484474.58         
MC-184FN12       -4972031.57        484625.47         
Miss             -4971868.77        485036.28         
MC-113           -4974912.72        473395.34         

[MAP]
DIMENSIONS -4980195.25 462289.43 -4967846.38 485036.28
Units      None

[REPORT]
SUBCATCHMENTS ALL
NODES ALL
LINKS ALL
