;; SWMM5 .inp converted from XPSWMM .xp file
;; Generated by XPSWMM Card Reader
;; Source format: XP_CARD | Original title: Owl Head WPCP, Brooklyn Highway Datum
;; NOTE: 27 link(s) dropped (missing endpoint): 02_3, 980CB, 950CB, -1, W-9C-BTM, 03_2, -6A, -6B, 02_4, 01_3, 01_4, G-1, 03C, 383.1, OF-V, W-V, 03-CT, 03-CB, 01B, 05CB, 03B, 07CB, 09CB, 05B, 383.1_2, 30", 8"

[TITLE]
;;Project Title/Notes
Owl Head WPCP, Brooklyn Highway Datum

[OPTIONS]
FLOW_UNITS           CFS
INFILTRATION         HORTON
FLOW_ROUTING         DYNWAVE
LINK_OFFSETS         DEPTH
MIN_SLOPE            0.0
ALLOW_PONDING        NO
SKIP_STEADY_STATE    NO
ROUTING_STEP         00:00:07
VARIABLE_STEP        0.75
INERTIAL_DAMPING     PARTIAL
NORMAL_FLOW_LIMITED  BOTH
MAX_TRIALS           50
HEAD_TOLERANCE       0.0033
START_DATE           01/01/2001
START_TIME           00:00:00
REPORT_START_DATE    01/01/2001
REPORT_START_TIME    00:00:00
END_DATE             01/02/2001
END_TIME             00:00:00
SWEEP_START          01/01
SWEEP_END            12/31
DRY_DAYS             0
REPORT_STEP          00:15:00
WET_STEP             00:05:00
DRY_STEP             01:00:00

[JUNCTIONS]
;;Name           Elev       MaxDepth   InitDepth  SurDepth   Aponded
;;-------------- ---------- ---------- ---------- ---------- ----------
S-04             13.00      0          0          0          0
S-05             10.05      0          0          0          0
S-06             7.50       0          0          0          0
S-07             10.05      0          0          0          0
S-09             11.00      0          0          0          0
S-R3             12.50      0          0          0          0
S-12             10.00      0          0          0          0
S-R4             11.00      0          0          0          0
S-R5             10.00      0          0          0          0
JC               10.00      0          0          0          0
R-6D             10.00      0          0          0          0
N-05             17.50      0          0          0          0
N-04             18.00      0          0          0          0
R7Z              13.00      0          0          0          0
WW-OH            10.00      0          0          0          0
DISCH            10.00      0          0          0          0
S-R1             17.00      0          0          0          0
TG-1             17.00      0          0          0          0
R-2              11.00      0          0          0          0
TG-2             11.00      0          0          0          0
CS-2             11.00      0          0          0          0
R-3              12.50      0          0          0          0
TG-3             12.50      0          0          0          0
CS-3             12.50      0          0          0          0
R-4              11.00      0          0          0          0
TG-4             11.00      0          0          0          0
CS-4             11.00      0          0          0          0
R-5              8.70       0          0          0          0
TG-5             8.70       0          0          0          0
CS-5             8.70       0          0          0          0
R-6C             14.00      0          0          0          0
R-6              10.00      0          0          0          0
TG-6C            14.00      0          0          0          0
R-9C-Ta          45.00      0          0          0          0
9C-04            41.00      0          0          0          0
9C-05            40.00      0          0          0          0
9C-06            38.00      0          0          0          0
9C-07            36.00      0          0          0          0
9C-08            34.00      0          0          0          0
9C-09            32.00      0          0          0          0
9C-10            30.00      0          0          0          0
9C-11            28.00      0          0          0          0
9C-12            26.00      0          0          0          0
9C-13            24.00      0          0          0          0
9C-14            22.00      0          0          0          0
9C-15            20.00      0          0          0          0
9C-16            18.00      0          0          0          0
CS-7A            13.20      0          0          0          0
R-7A             13.20      0          0          0          0
R-7              13.30      0          0          0          0
TG-7             13.30      0          0          0          0
CS-7C            13.40      0          0          0          0
R-7C             13.40      0          0          0          0
CS-7B            13.00      0          0          0          0
R-7B             13.40      0          0          0          0
R-9a             25.00      0          0          0          0
VFM              25.00      0          0          0          0
TG-9AT           20.00      0          0          0          0
TG-9ATa          20.00      0          0          0          0
R-9AB            20.00      0          0          0          0
TG-9AB           20.00      0          0          0          0
TG-9A            20.00      0          0          0          0
VDS              35.00      0          0          0          0
CS-9B            30.00      0          0          0          0
R-9B             30.00      0          0          0          0
R-9Ba            25.00      0          0          0          0
9B-02            25.00      0          0          0          0
9B-04            25.00      0          0          0          0
CS-09A-T         25.00      0          0          0          0
9CB-05           29.00      0          0          0          0
9CB-07           25.00      0          0          0          0
9CB-09           25.00      0          0          0          0
CS-09A-B         25.00      0          0          0          0
CS-09C-T         50.00      0          0          0          0
R-9C-T           50.00      0          0          0          0
CS-09C-B         50.00      0          0          0          0
R-9C-B           45.00      0          0          0          0
CS-8B            45.00      0          0          0          0
9CB-01           45.00      0          0          0          0
9CB-03           35.00      0          0          0          0
9CT-01           45.00      0          0          0          0
9CT-03           35.00      0          0          0          0
N-01             19.00      0          0          0          0
N-02             21.80      0          0          0          0
N-03             18.00      0          0          0          0
R6CZ             14.00      0          0          0          0
CS-6A            14.00      0          0          0          0
R-6A             14.00      0          0          0          0
CS-6B            14.00      0          0          0          0
R-6B             14.00      0          0          0          0
N-05Z            12.00      0          0          0          0
N-06             13.50      0          0          0          0
S-17             8.70       0          0          0          0
S-19             15.00      0          0          0          0
R5Z              10.00      0          0          0          0
R4Z              11.00      0          0          0          0
S-11             9.00       0          0          0          0
R3Z              12.50      0          0          0          0
R2Z              11.00      0          0          0          0
S-03             9.00       0          0          0          0
R-1              17.00      0          0          0          0
9A-01            24.50      0          0          0          0
9A-02            24.00      0          0          0          0
9A-03            23.50      0          0          0          0
CS-01A           22.50      0          0          0          0
CS-01B           22.00      0          0          0          0
CS-01C           21.50      0          0          0          0
CS-01D           21.00      0          0          0          0
9C-01            44.00      0          0          0          0
9C-02            43.00      0          0          0          0
9C-03            42.00      0          0          0          0
CS-6C            16.00      0          0          0          0
CS-V             9.00       0          0          0          0
R-V              22.00      0          0          0          0
TG-V             22.00      0          0          0          0
RW-V             22.00      0          0          0          0
R-9C-Ba          45.00      0          0          0          0
9CB-02           40.00      0          0          0          0
9CT-02           40.00      0          0          0          0
9CT-04           30.00      0          0          0          0
9CB-04           30.00      0          0          0          0
9B-01            25.00      0          0          0          0
9CB-06           27.00      0          0          0          0
9B-03            25.00      0          0          0          0
9CB-08           25.00      0          0          0          0
9CB-10           25.00      0          0          0          0
9B-05            25.00      0          0          0          0
R-9D-T           50.00      0          0          0          0
R-9C-D           50.00      0          0          0          0
CS-01            23.00      0          0          0          0
VDSa             7.88       0          0          0          0
557              7.88       0          0          0          0
V-FM             20.00      0          0          0          0
CS-01E           20.50      0          0          0          0
CS-01F           20.00      0          0          0          0
CS-01G           19.50      0          0          0          0
CS-01H           19.00      0          0          0          0
CS-01I           18.50      0          0          0          0
CS-01J           18.00      0          0          0          0
CS-01K           17.50      0          0          0          0
SE-133           8.50       0          0          0          0
SE-133_2         26.00      0          0          0          0
SE-133_3         9.76       0          0          0          0
SE-133_4         12.16      0          0          0          0
1233             6.16       0          0          0          0
Node_50          -1.32      0          0          0          0
Node_1022918     -9.08      0          0          0          0
Node_51          -4.75      0          0          0          0
Node_1021920     -10.31     0          0          0          0
Node_1019922     -11.69     0          0          0          0
Node_1018923     -12.23     0          0          0          0
Node_1009952     -8.90      0          0          0          0
Node_80          27.10      0          0          0          0
Node_1053998     20.00      0          0          0          0
Node_800         10.88      0          0          0          0
Node_10011000    5.88       0          0          0          0
Node_900         8.25       0          0          0          0
Node_10021043    6.67       0          0          0          0
Node_902         5.08       0          0          0          0
Node_10031046    3.50       0          0          0          0
Node_10041044    18.18      0          0          0          0
Node_10051045    15.01      0          0          0          0
Node_701         -8.89      0          0          0          0
Node_10061007    -9.29      0          0          0          0
Node_702         -9.29      0          0          0          0
Node_10071008    -9.69      0          0          0          0
Node_680         7.00       0          0          0          0
Node_10101011    4.00       0          0          0          0
Node_1011951     -5.70      0          0          0          0
Node_10121013    1.75       0          0          0          0
Node_1013952     -8.90      0          0          0          0
Node_601         -12.92     0          0          0          0
Node_10141015    -13.21     0          0          0          0
Node_501         -12.75     0          0          0          0
Node_10161017    -13.20     0          0          0          0
Node_901         1.78       0          0          0          0
Node_10251026    1.29       0          0          0          0
Node_10261027    0.97       0          0          0          0
Node_903         0.97       0          0          0          0
Node_10271055    0.67       0          0          0          0
Node_180         0.67       0          0          0          0
Node_10551028    0.18       0          0          0          0
Node_10281029    -0.32      0          0          0          0
Node_10291030    -0.84      0          0          0          0
Node_10301031    -1.19      0          0          0          0
Node_10311059    -1.69      0          0          0          0
Node_10321033    4.11       0          0          0          0
Node_10331034    3.59       0          0          0          0
Node_1035951     -5.70      0          0          0          0
Node_10361037    -7.50      0          0          0          0
Node_90          -7.50      0          0          0          0
Node_10391040    -8.04      0          0          0          0
Node_10381041    -7.55      0          0          0          0
Node_1042955     5.16       0          0          0          0
Node_10431003    5.08       0          0          0          0
Node_10441005    16.60      0          0          0          0
Node_10591060    -2.19      0          0          0          0
Node_10601061    -2.79      0          0          0          0
Node_10611062    -3.20      0          0          0          0
Node_10621063    -3.40      0          0          0          0
Node_10631064    -3.85      0          0          0          0
Node_10641065    -4.38      0          0          0          0
Node_10651024    -4.80      0          0          0          0
Node_133         -3.63      0          0          0          0
Node_10661067    -4.04      0          0          0          0
Node_10671068    -4.68      0          0          0          0
Node_10681069    -5.28      0          0          0          0
Node_1069932     -5.85      0          0          0          0
Node_60          -2.84      0          0          0          0
Node_12331066    -3.63      0          0          0          0
Node_1236        3.04       0          0          0          0
Node_10561233    -2.84      0          0          0          0

[OUTFALLS]
;;Name           Elev       Type       Stage      Gated
;;-------------- ---------- ---------- ---------- -----
RW-OH            10.00      FREE                  NO
RW-1             7.00       FREE                  NO
RW-2             11.00      FREE                  NO
RW-3             12.50      FREE                  NO
RW-4             11.00      FREE                  NO
RW-5             8.70       FREE                  NO
RW-6C            14.00      FREE                  NO
RW-7             13.30      FREE                  NO
RW-9A            20.00      FREE                  NO

[STORAGE]
;;Name           Elev       MaxDepth   InitDepth  Shape      Curve/Params
;;-------------- ---------- ---------- ---------- ---------- ----------
RVZ              22.00      10.00      0          FUNCTIONAL 1000.00 0          0
WW-V             7.88       10.00      0          FUNCTIONAL 2100.00 0          0

[CONDUITS]
;;Name           From             To               Length     Roughness  InOffset   OutOffset  InitFlow   MaxFlow
;;-------------- ---------------- ---------------- ---------- ---------- ---------- ---------- ---------- ----------
02               S-04             S-05             600.00     0.0140     0          0          0          0
03               S-05             S-06             583.51     0.0140     0          0          0          0
04               S-06             S-07             591.40     0.0140     0          0          0          0
00               S-07             S-09             646.46     0.0140     0          0          0          0
01               S-09             S-R3             421.99     0.0231     0          0          0          0
300              S-R3             S-11             430.01     0.0140     0          0          0          0
02_2             S-12             S-R4             639.44     0.0140     0          0          0          0
00_2             S-R4             S-R5             846.75     0.0140     0          0          0          0
600              R-6D             N-05Z            419.37     0.0140     0          0          0          0
05               N-05             R-6D             653.08     0.0379     0          0          0          0
04_2             N-04             N-05             876.33     0.0140     0          0          0          0
700              R7Z              N-01             754.38     0.0140     0          0          0          0
NLET             JC               WW-OH            300.00     0.0235     0          0          0          0
UTFALL           DISCH            RW-OH            300.00     0.0140     0          0          0          0
100              S-R1             S-03             643.78     0.0140     0          0          0          0
90               TG-1             RW-1             300.00     0.0140     0          0          0          0
50               Node_50          Node_1022918     300.00     0.0127     0          0          0          0
90_2             TG-2             RW-2             300.00     0.0140     0.21       0          0          0
80               CS-2             R-2              300.00     0.0140     2.80       0          0          0
51               Node_51          Node_1021920     300.00     0.0148     0          0          0          0
90_3             TG-3             RW-3             300.00     0.0140     0          0          0          0
80_2             CS-3             R-3              300.00     0.0140     0          0          0          0
51_2             Node_51          Node_1019922     300.00     0.0184     0          0          0          0
90_4             TG-4             RW-4             300.00     0.0140     0          0          0          0
80_3             CS-4             R-4              300.00     0.0140     0          0          0          0
51_3             Node_51          Node_1018923     300.00     0.0075     0          0          0          0
90_5             TG-5             RW-5             300.00     0.0140     0          0          0          0
80_4             CS-5             R-5              300.00     0.0140     0.70       0          0          0
50C              Node_50          Node_1009952     300.00     0.0088     0          0          0          0
90C              TG-6C            RW-6C            300.00     0.0140     0          0          0          0
900C             R-9C-Ta          9C-01            880.00     0.0140     5.16       4.59       0          0
04C              9C-04            9C-05            790.00     0.0140     3.19       2.71       0          0
05C              9C-05            9C-06            790.00     0.0140     2.71       2.22       0          0
06C              9C-06            9C-07            530.00     0.0140     2.22       1.90       0          0
07C              9C-07            9C-08            920.00     0.0140     1.90       1.34       0          0
08C              9C-08            9C-09            440.00     0.0140     1.34       1.07       0          0
09C              9C-09            9C-10            790.00     0.0140     1.07       0.58       0          0
10C              9C-10            9C-11            790.00     0.0140     0.58       0.10       0          0
11C              9C-11            9C-12            645.00     0.0140     0.10       0          0          0
12C              9C-12            9C-13            645.00     0.0140     0          0          0          0
13C              9C-13            9C-14            785.00     0.0140     0          0          0          0
14C              9C-14            9C-15            800.00     0.0140     0          0          0          0
15C              9C-15            9C-16            790.00     0.0140     0          0          0          0
916C             9C-16            CS-6C            750.00     0.0140     0          0          0          0
80A              CS-7A            R-7A             300.00     0.0150     0          0          0          0
50A              R-7A             R-7              300.00     0.0091     0          0          0          0
80C              CS-7C            R-7C             300.00     0.0150     3.75       0.75       0          0
50C_2            R-7C             R-7B             300.00     0.0055     0.75       0          0          0
80B              CS-7B            R-7B             300.00     0.0150     0          0          0          0
90A              TG-7             RW-7             300.00     0.0150     0          0          0          0
900A             R-9a             9A-01            880.00     0.0140     2.32       1.78       0          0
01_2             VFM              R-9a             70.00      0.0140     2.38       2.32       0          0
91AT             TG-9AT           TG-9ATa          995.00     0.0140     5.39       3.97       0          0
91AB             R-9AB            TG-9AB           995.00     0.0150     0          0          0          0
92AT             TG-9ATa          TG-9A            350.00     0.0140     3.97       0          0          0
92AB             TG-9AB           TG-9A            1000.00    0.0088     0          0          0          0
90A_2            TG-9A            RW-9A            1000.00    0.0091     0          0          0          0
377.1            VDS              VFM              2300.00    0.0140     3.78       2.38       0          0
80B_2            CS-9B            R-9B             500.00     0.0140     16.05      13.55      0          0
50B              R-9B             R-9Ba            500.00     0.0140     13.55      13.42      0          0
900B             R-9Ba            9B-01            784.00     0.0140     13.42      12.28      0          0
902B             9B-02            9B-03            816.00     0.0150     11.14      9.46       0          0
904B             9B-04            9B-05            645.00     0.0150     7.78       7.06       0          0
80A-T            CS-09A-T         R-9a             810.00     0.0150     6.33       3.20       0          0
904CB            9CB-05           9CB-06           674.00     0.0150     1.92       0.56       0          0
906CB            9CB-07           9CB-08           757.50     0.0140     0          0          0          0
19209            9CB-09           9CB-10           820.00     0.0140     0          0          0          0
80A-B            CS-09A-B         R-9AB            810.00     0.0150     0          0          0          0
80CT             Node_80          Node_1053998     500.00     0.0140     27.10      20.00      0          0
50CT             R-9C-T           R-9C-Ta          500.00     0.0140     20.00      5.16       0          0
800B             Node_800         Node_10011000    1000.00    0.0140     10.88      5.88       0          0
900CB            Node_900         Node_10021043    810.00     0.0140     8.25       6.67       0          0
902-CB           Node_902         Node_10031046    810.00     0.0140     5.08       3.50       0          0
900CT            Node_900         Node_10041044    810.00     0.0140     19.77      18.18      0          0
902CT            Node_902         Node_10051045    810.00     0.0150     16.60      15.01      0          0
701              Node_701         Node_10061007    777.55     0.0140     0          0          0          0
702              Node_702         Node_10071008    790.05     0.0140     0          0          0          0
680A             Node_680         Node_10101011    300.00     0.0140     7.00       4.00       0          0
50A_2            Node_50          Node_1011951     300.00     0.0088     4.00       0          0          0
680B             Node_680         Node_10121013    300.00     0.0140     4.75       1.75       0          0
50B_2            Node_50          Node_1013952     300.00     0.0150     1.75       0          0          0
601              Node_601         Node_10141015    561.28     0.0140     0          0          0          0
500              S-R5             S-17             700.28     0.0140     0          0          0          0
501              Node_501         Node_10161017    654.67     0.0140     0          0          0          0
901A             Node_901         Node_10251026    790.00     0.0140     1.78       1.29       0          0
902A             Node_902         Node_10261027    510.00     0.0140     1.29       0.97       0          0
903A             Node_903         Node_10271055    480.00     0.0140     0.97       0.67       0          0
180A             Node_180         Node_10551028    765.00     0.0140     0.67       0.18       0          0
180B             Node_180         Node_10281029    780.00     0.0140     0.18       0          0          0
180C             Node_180         Node_10291030    800.00     0.0140     0          0          0          0
180D             Node_180         Node_10301031    520.00     0.0140     0          0          0          0
180E             Node_180         Node_10311059    770.00     0.0140     0          0          0          0
901C             Node_901         Node_10321033    785.00     0.0140     4.59       4.11       0          0
902C             Node_902         Node_10331034    900.00     0.0140     4.11       3.59       0          0
80C_2            Node_80          Node_1035951     660.00     0.0150     0          0          0          0
V-80             Node_80          Node_10361037    200.00     0.0140     0          0          0          0
V-90             Node_90          Node_10391040    400.00     0.0140     0          0          0          0
V-51             Node_51          Node_10381041    60.00      0.0120     0          0          0          0
51CB             Node_51          Node_1042955     640.00     0.0150     5.52       5.16       0          0
901CB            Node_901         Node_10431003    810.00     0.0140     6.67       5.08       0          0
901CT            Node_901         Node_10441005    810.00     0.0140     18.18      16.60      0          0
981CT            CS-09C-T         R-9D-T           500.00     0.0140     31.10      27.10      0          0
980CD            CS-09C-B         R-9C-D           500.00     0.0140     14.27      10.27      0          0
180F             Node_180         Node_10591060    770.00     0.0140     0          0          0          0
180G             Node_180         Node_10601061    920.00     0.0140     0          0          0          0
180H             Node_180         Node_10611062    620.00     0.0140     0          0          0          0
180I             Node_180         Node_10621063    390.00     0.0140     0          0          0          0
180J             Node_180         Node_10631064    690.00     0.0140     0          0          0          0
180K             Node_180         Node_10641065    660.00     0.0140     0          0          0          0
180L             Node_180         Node_10651024    830.00     0.0140     0          0          0          0
SE-133           Node_133         Node_10661067    885.00     0.0140     0          0          0          0
SE-133_2         Node_133         Node_10671068    1422.00    0.0140     0          0          0          0
SE-133_3         Node_133         Node_10681069    1351.00    0.0140     0          0          0          0
E-133            Node_133         Node_1069932     1346.00    0.0140     0          0          0          0
60"              Node_60          Node_12331066    17400.00   0.0120     0          0          0          0
1236             Node_1236        Node_10561233    800.00     0.0140     3.04       0          0          0

[ORIFICES]
;;Name           From             To               Type       Offset     Qcoeff     Gated    CloseTime
;;-------------- ---------------- ---------------- ---------- ---------- ---------- -------- ----------
335.1            R-7B             R-7              SIDE       1.00       0.650      NO       0
338.1            R-7              R7Z              SIDE       0          0.650      NO       0
G-R6             R-6              R-6D             SIDE       0          0.650      NO       0
443.1            R-6C             R6CZ             SIDE       0          0.650      NO       0
SG-5             R-5              R5Z              SIDE       0          0.650      NO       0
SG-4             R-4              R4Z              SIDE       0          0.650      NO       0
SG-3             R-3              R3Z              SIDE       0          0.650      NO       0
SG-2             R-2              R2Z              SIDE       0          0.650      NO       0

[WEIRS]
;;Name           From             To               Type       CrestHt    Qcoeff     Gated    EndCon   EndCoeff   Surcharge
;;-------------- ---------------- ---------------- ---------- ---------- ---------- -------- -------- ---------- ----------
-2               R-2              TG-2             TRANSVERSE 3.00       1.840      NO       0        0          YES
-3               R-3              TG-3             TRANSVERSE -2.40      1.840      NO       0        0          YES
-4               R-4              TG-4             TRANSVERSE -3.00      1.840      NO       0        0          YES
-5               R-5              TG-5             TRANSVERSE -1.10      1.840      NO       0        0          YES
-9A-BTM          VFM              R-9AB            V-NOTCH    5.33       1.840      NO       0        0          YES
-9A-TOP          R-9a             TG-9AT           V-NOTCH    7.60       1.840      NO       0        0          YES
-9B              R-9B             9CB-05           V-NOTCH    16.35      1.840      NO       0        0          YES
427.1            R-9C-T           9CT-01           V-NOTCH    23.00      1.840      NO       0        0          YES
-6C              R-6C             TG-6C            TRANSVERSE -2.00      1.840      NO       0        0          YES
-7A              R-7A             TG-7             TRANSVERSE -3.50      1.840      NO       0        0          YES
-7C              R-7C             TG-7             TRANSVERSE 2.50       1.840      NO       0        0          YES
-7B              R-7B             TG-7             TRANSVERSE 1.00       1.840      NO       0        0          YES

[PUMPS]
;;Name           From             To               PumpCurve  Status   Startup    Shutoff
;;-------------- ---------------- ---------------- ---------- -------- ---------- ----------
232.1            WW-OH            DISCH            PC_232_1   ON       1.00       0         

[CURVES]
;;Name           Type       X-Value    Y-Value
;;-------------- ---------- ---------- ----------
;; Synthesized generic pump curves — replace with actual pump data
PC_232_1         Pump1      0          5
PC_232_1                    10         10

[XSECTIONS]
;;Link           Shape        Geom1      Geom2      Geom3      Geom4      Barrels
;;-------------- ------------ ---------- ---------- ---------- ---------- ----------
02               RECT_CLOSED  7.39       8.00       0          0          1
03               RECT_CLOSED  7.39       8.00       0          0          1
04               RECT_CLOSED  7.39       8.00       0          0          1
00               RECT_CLOSED  7.39       8.00       0          0          1
01               RECT_CLOSED  7.39       8.00       0          0          1
300              RECT_CLOSED  7.53       9.00       0          0          1
02_2             RECT_CLOSED  7.53       9.00       0          0          1
00_2             RECT_CLOSED  7.53       9.00       0          0          1
600              RECT_CLOSED  7.30       12.50      0          0          1
05               CIRCULAR     6.00       0          0          0          1
04_2             CIRCULAR     6.00       0          0          0          1
700              CIRCULAR     6.00       0          0          0          1
NLET             RECT_CLOSED  8.00       14.00      0          0          1
UTFALL           RECT_CLOSED  8.00       14.00      0          0          1
100              RECT_CLOSED  7.39       8.00       0          0          1
90               RECT_CLOSED  7.33       22.00      0          0          1
50               CIRCULAR     1.33       0          0          0          1
90_2             HORSESHOE    3.76       2.51       0          0          1
80               HORSESHOE    3.76       2.51       0          0          1
51               CIRCULAR     3.00       0          0          0          1
90_3             RECT_CLOSED  7.00       12.00      0          0          1
80_2             RECT_CLOSED  7.00       12.00      0          0          1
51_2             CIRCULAR     2.00       0          0          0          1
90_4             HORSESHOE    5.03       3.35       0          0          1
80_3             HORSESHOE    5.03       3.35       0          0          1
51_3             CIRCULAR     1.33       0          0          0          1
90_5             HORSESHOE    3.00       3.00       0          0          1
80_4             HORSESHOE    3.00       3.00       0          0          1
50C              RECT_CLOSED  9.00       9.00       0          0          1
90C              RECT_CLOSED  8.00       21.50      0          0          1
900C             CIRCULAR     13.00      0          0          0          1
04C              CIRCULAR     13.50      0          0          0          1
05C              CIRCULAR     13.50      0          0          0          1
06C              CIRCULAR     13.50      0          0          0          1
07C              CIRCULAR     13.50      0          0          0          1
08C              CIRCULAR     14.00      0          0          0          1
09C              CIRCULAR     14.00      0          0          0          1
10C              CIRCULAR     14.00      0          0          0          1
11C              CIRCULAR     14.00      0          0          0          1
12C              CIRCULAR     14.00      0          0          0          1
13C              CIRCULAR     15.00      0          0          0          1
14C              CIRCULAR     15.00      0          0          0          1
15C              CIRCULAR     15.00      0          0          0          1
916C             CIRCULAR     15.00      0          0          0          1
80A              RECT_CLOSED  8.00       10.00      0          0          1
50A              RECT_CLOSED  7.00       5.00       0          0          1
80C              HORSESHOE    2.50       4.13       0          0          1
50C_2            CIRCULAR     1.17       2.00       0          0          1
80B              HORSESHOE    5.00       2.00       0          0          1
90A              RECT_CLOSED  8.00       10.00      0          0          1
900A             CIRCULAR     7.00       0          0          0          1
01_2             CIRCULAR     7.00       0          0          0          1
91AT             RECT_CLOSED  8.00       29.00      0          0          1
91AB             RECT_CLOSED  10.00      29.00      0          0          1
92AT             RECT_CLOSED  8.00       29.00      0          0          1
92AB             RECT_CLOSED  10.00      29.00      0          0          1
90A_2            RECT_CLOSED  10.00      14.50      0          0          1
377.1            CIRCULAR     7.00       0          0          0          1
80B_2            CIRCULAR     7.50       0          0          0          1
50B              CIRCULAR     7.50       0          0          0          1
900B             RECT_CLOSED  6.00       26.00      0          0          1
902B             RECT_CLOSED  6.00       27.00      0          0          1
904B             RECT_CLOSED  6.00       29.00      0          0          1
80A-T            RECT_CLOSED  8.00       29.00      0          0          1
904CB            RECT_CLOSED  7.00       28.00      0          0          1
906CB            RECT_CLOSED  7.00       28.00      0          0          1
19209            RECT_CLOSED  10.00      28.00      0          0          1
80A-B            RECT_CLOSED  10.00      29.00      0          0          1
80CT             CIRCULAR     12.00      0          0          0          1
50CT             CIRCULAR     12.00      0          0          0          1
800B             CIRCULAR     13.00      0          0          0          1
900CB            RECT_CLOSED  7.00       28.00      0          0          1
902-CB           RECT_CLOSED  7.00       28.00      0          0          1
900CT            RECT_CLOSED  6.00       13.00      0          0          1
902CT            RECT_CLOSED  6.00       13.00      0          0          1
701              CIRCULAR     6.00       0          0          0          1
702              CIRCULAR     6.00       0          0          0          1
680A             HORSESHOE    2.50       0          0          0          1
50A_2            CIRCULAR     1.17       0          0          0          1
680B             HORSESHOE    3.50       0          0          0          1
50B_2            CIRCULAR     1.33       0          0          0          1
601              RECT_CLOSED  7.30       12.50      0          0          1
500              RECT_CLOSED  7.53       9.00       0          0          1
501              RECT_CLOSED  7.53       9.00       0          0          1
901A             CIRCULAR     7.50       0          0          0          1
902A             CIRCULAR     7.50       0          0          0          1
903A             CIRCULAR     7.50       0          0          0          1
180A             CIRCULAR     10.00      0          0          0          1
180B             CIRCULAR     10.00      0          0          0          1
180C             CIRCULAR     10.00      0          0          0          1
180D             CIRCULAR     10.00      0          0          0          1
180E             CIRCULAR     10.50      0          0          0          1
901C             CIRCULAR     13.00      0          0          0          1
902C             CIRCULAR     13.00      0          0          0          1
80C_2            CIRCULAR     15.00      0          0          0          1
V-80             CIRCULAR     10.00      0          0          0          1
V-90             CIRCULAR     10.00      0          0          0          1
V-51             RECT_CLOSED  3.50       5.00       0          0          1
51CB             CIRCULAR     13.00      0          0          0          1
901CB            RECT_CLOSED  7.00       28.00      0          0          1
901CT            RECT_CLOSED  6.00       13.00      0          0          1
981CT            CIRCULAR     12.00      0          0          0          1
980CD            CIRCULAR     12.00      0          0          0          1
180F             CIRCULAR     10.50      0          0          0          1
180G             CIRCULAR     11.00      0          0          0          1
180H             CIRCULAR     11.00      0          0          0          1
180I             CIRCULAR     11.00      0          0          0          1
180J             CIRCULAR     11.00      0          0          0          1
180K             CIRCULAR     11.00      0          0          0          1
180L             CIRCULAR     11.00      0          0          0          1
SE-133           RECT_CLOSED  4.00       8.00       0          0          1
SE-133_2         RECT_CLOSED  4.00       8.00       0          0          1
SE-133_3         RECT_CLOSED  4.00       8.00       0          0          1
E-133            RECT_CLOSED  4.00       8.00       0          0          1
60"              CIRCULAR     5.00       0          0          0          1
1236             CIRCULAR     5.00       0          0          0          1
335.1            RECT_CLOSED  2.00       2.00       0          0
338.1            RECT_CLOSED  3.00       5.00       0          0
G-R6             RECT_CLOSED  3.00       3.00       0          0
443.1            RECT_CLOSED  4.00       4.00       0          0
SG-5             RECT_CLOSED  1.33       1.33       0          0
SG-4             RECT_CLOSED  1.50       1.50       0          0
SG-3             RECT_CLOSED  2.00       2.00       0          0
SG-2             RECT_CLOSED  1.33       1.33       0          0
-2               RECT_OPEN    1.00       2.50       0          0
-3               RECT_OPEN    1.00       11.00      0          0
-4               RECT_OPEN    1.00       4.50       0          0
-5               RECT_OPEN    1.00       4.00       0          0
-9A-BTM          TRIANGULAR   1.00       7.00       0          0
-9A-TOP          TRIANGULAR   1.00       29.00      0          0
-9B              TRIANGULAR   1.00       11.30      0          0
427.1            TRIANGULAR   1.00       14.50      0          0
-6C              RECT_OPEN    1.00       20.00      0          0
-7A              RECT_OPEN    1.00       10.00      0          0
-7C              RECT_OPEN    1.00       7.00       0          0
-7B              RECT_OPEN    1.00       4.67       0          0

[LOSSES]
;;Link           Inlet      Outlet     Average    Flap Gate
;;-------------- ---------- ---------- ---------- ----------
02               0          0          0          NO
03               0          0          0          NO
04               0          0          0          NO
00               0          0          0          NO
01               0          0          0          NO
300              0          0          0          NO
02_2             0          0          0          NO
00_2             0          0          0          NO
600              0          0          0          NO
05               0          0          0          NO
04_2             0          0          0          NO
700              0          0          0          NO
NLET             0          0          0          NO
UTFALL           0          0          0          NO
100              0          0          0          NO
90               0          0          0          NO
50               0          0          0          NO
90_2             0          0          0          NO
80               0          0          0          NO
51               0          0          0          NO
90_3             0          0          0          NO
80_2             0          0          0          NO
51_2             0          0          0          NO
90_4             0          0          0          NO
80_3             0          0          0          NO
51_3             0          0          0          NO
90_5             0          0          0          NO
80_4             0          0          0          NO
50C              0          0          0          NO
90C              0          0          0          NO
900C             0          0          0          NO
04C              0          0          0          NO
05C              0          0          0          NO
06C              0          0          0          NO
07C              0          0          0          NO
08C              0          0          0          NO
09C              0          0          0          NO
10C              0          0          0          NO
11C              0          0          0          NO
12C              0          0          0          NO
13C              0          0          0          NO
14C              0          0          0          NO
15C              0          0          0          NO
916C             0          0          0          NO
80A              0          0          0          NO
50A              0          0          0          NO
80C              0          0          0          NO
50C_2            0          0          0          NO
80B              0          0          0          NO
90A              0          0          0          NO
900A             0          0          0          NO
01_2             0          0          0          NO
91AT             0          0          0          NO
91AB             0          0          0          NO
92AT             0          0          0          NO
92AB             0          0          0          NO
90A_2            0          0          0          NO
377.1            0          0          0          NO
80B_2            0          0          0          NO
50B              0          0          0          NO
900B             0          0          0          NO
902B             0          0          0          NO
904B             0          0          0          NO
80A-T            0          0          0          NO
904CB            0          0          0          NO
906CB            0          0          0          NO
19209            0          0          0          NO
80A-B            0          0          0          NO
80CT             0          0          0          NO
50CT             0          0          0          NO
800B             0          0          0          NO
900CB            0          0          0          NO
902-CB           0          0          0          NO
900CT            0          0          0          NO
902CT            0          0          0          NO
701              0          0          0          NO
702              0          0          0          NO
680A             0          0          0          NO
50A_2            0          0          0          NO
680B             0          0          0          NO
50B_2            0          0          0          NO
601              0          0          0          NO
500              0          0          0          NO
501              0          0          0          NO
901A             0          0          0          NO
902A             0          0          0          NO
903A             0          0          0          NO
180A             0          0          0          NO
180B             0          0          0          NO
180C             0          0          0          NO
180D             0          0          0          NO
180E             0          0          0          NO
901C             0          0          0          NO
902C             0          0          0          NO
80C_2            0          0          0          NO
V-80             0          0          0          NO
V-90             0          0          0          NO
V-51             0          0          0          NO
51CB             0          0          0          NO
901CB            0          0          0          NO
901CT            0          0          0          NO
981CT            0          0          0          NO
980CD            0          0          0          NO
180F             0          0          0          NO
180G             0          0          0          NO
180H             0          0          0          NO
180I             0          0          0          NO
180J             0          0          0          NO
180K             0          0          0          NO
180L             0          0          0          NO
SE-133           0          0          0          NO
SE-133_2         0          0          0          NO
SE-133_3         0          0          0          NO
E-133            0          0          0          NO
60"              0          0          0          NO
1236             0          0          0          NO

[COORDINATES]
;;Node           X-Coord            Y-Coord
;;-------------- ------------------ ------------------
S-04             701.72             391.72            
S-05             671.72             396.72            
S-06             646.72             401.72            
S-07             621.72             401.72            
S-09             591.72             406.72            
S-R3             566.72             406.72            
S-12             511.72             411.72            
S-R4             486.72             416.72            
S-R5             441.72             421.72            
JC               356.72             446.72            
R-6D             261.72             496.72            
N-05             226.72             511.72            
N-04             186.72             536.72            
R7Z              66.72              601.72            
WW-OH            351.72             396.72            
DISCH            351.72             356.72            
RW-OH            351.72             301.72            
S-R1             756.72             391.72            
TG-1             796.72             356.72            
RW-1             806.72             331.72            
R-2              621.72             346.72            
TG-2             621.72             311.72            
RW-2             631.72             286.72            
CS-2             596.72             346.72            
R-3              566.72             346.72            
TG-3             566.72             316.72            
RW-3             576.72             296.72            
CS-3             541.72             346.72            
R-4              486.72             356.72            
TG-4             486.72             326.72            
RW-4             496.72             306.72            
CS-4             461.72             356.72            
R-5              441.72             356.72            
TG-5             441.72             326.72            
RW-5             451.72             306.72            
CS-5             416.72             356.72            
R-6C             211.72             631.72            
R-6              271.72             576.72            
TG-6C            211.72             581.72            
RW-6C            221.72             556.72            
R-9C-Ta          216.72             1256.72           
9C-04            216.72             1116.72           
9C-05            216.72             1081.72           
9C-06            216.72             1046.72           
9C-07            216.72             1011.72           
9C-08            216.72             976.72            
9C-09            216.72             941.72            
9C-10            216.72             906.72            
9C-11            216.72             871.72            
9C-12            216.72             836.72            
9C-13            216.72             801.72            
9C-14            216.72             766.72            
9C-15            216.72             731.72            
9C-16            216.72             696.72            
CS-7A            -63.28             641.72            
R-7A             -33.28             631.72            
R-7              31.72              611.72            
TG-7             -38.28             586.72            
CS-7C            26.72              566.72            
R-7C             -3.28              566.72            
CS-7B            -13.28             681.72            
R-7B             -3.28              601.72            
RW-7             -28.28             556.72            
R-9a             796.72             936.72            
VFM              791.72             1026.72           
TG-9AT           836.72             916.72            
TG-9ATa          866.72             906.72            
R-9AB            826.72             986.72            
TG-9AB           866.72             966.72            
TG-9A            901.72             946.72            
RW-9A            946.72             946.72            
VDS              791.72             1081.72           
CS-9B            421.72             1046.72           
R-9B             421.72             1096.72           
R-9Ba            451.72             1121.72           
9B-02            546.72             1051.72           
9B-04            636.72             1001.72           
CS-09A-T         736.72             961.72            
9CB-05           441.72             1201.72           
9CB-07           536.72             1136.72           
9CB-09           641.72             1076.72           
CS-09A-B         756.72             1026.72           
CS-09C-T         106.72             1336.72           
R-9C-T           181.72             1311.72           
CS-09C-B         106.72             1386.72           
R-9C-B           216.72             1341.72           
CS-8B            216.72             1401.72           
9CB-01           266.72             1311.72           
9CB-03           351.72             1261.72           
9CT-01           271.72             1251.72           
9CT-03           351.72             1196.72           
N-01             101.72             591.72            
N-02             136.72             581.72            
N-03             161.72             561.72            
R6CZ             246.72             621.72            
CS-6A            146.72             616.72            
R-6A             181.72             616.72            
CS-6B            236.72             541.72            
R-6B             236.72             576.72            
N-05Z            291.72             481.72            
N-06             326.72             466.72            
S-17             411.72             426.72            
S-19             386.72             436.72            
R5Z              441.72             391.72            
R4Z              486.72             386.72            
S-11             536.72             411.72            
R3Z              566.72             376.72            
R2Z              621.72             371.72            
S-03             726.72             391.72            
R-1              796.72             391.72            
9A-01            801.72             896.72            
9A-02            801.72             866.72            
9A-03            801.72             836.72            
CS-01A           801.72             776.72            
CS-01B           801.72             741.72            
CS-01C           801.72             706.72            
CS-01D           801.72             671.72            
9C-01            216.72             1221.72           
9C-02            216.72             1186.72           
9C-03            216.72             1151.72           
CS-6C            216.72             661.72            
CS-V             751.72             1451.72           
R-V              791.72             1451.72           
RVZ              791.72             1396.72           
TG-V             826.72             1451.72           
RW-V             901.72             1451.72           
WW-V             791.72             1341.72           
R-9C-Ba          216.72             1301.72           
9CB-02           311.72             1286.72           
9CT-02           311.72             1226.72           
9CT-04           396.72             1161.72           
9CB-04           396.72             1231.72           
9B-01            501.72             1081.72           
9CB-06           486.72             1166.72           
9B-03            591.72             1026.72           
9CB-08           586.72             1106.72           
9CB-10           691.72             1051.72           
9B-05            686.72             976.72            
R-9D-T           146.72             1321.72           
R-9C-D           151.72             1371.72           
CS-01            801.72             811.72            
VDSa             861.72             1341.72           
557              788.42             1288.42           
V-FM             788.42             1143.42           
CS-01E           801.72             636.72            
CS-01F           801.72             601.72            
CS-01G           801.72             566.72            
CS-01H           801.72             531.72            
CS-01I           801.72             496.72            
CS-01J           801.72             461.72            
CS-01K           801.72             426.72            
SE-133           911.53             361.53            
SE-133_2         886.53             306.53            
SE-133_3         811.53             281.53            
SE-133_4         756.53             321.53            
1233             898.42             1213.42           

[MAP]
DIMENSIONS -63.28 281.53 946.72 1451.72
Units      None

[REPORT]
SUBCATCHMENTS ALL
NODES ALL
LINKS ALL
