;; SWMM5 .inp converted from XPSWMM .xp file
;; Generated by XPSWMM Card Reader
;; Source format: XP_CARD | Original title: (none)
;; Links parsed from source: 58 | Routable in this .inp: 58

[TITLE]
;;Project Title/Notes
Converted from XPSWMM .xp file

[OPTIONS]
FLOW_UNITS           CMS
INFILTRATION         HORTON
FLOW_ROUTING         DYNWAVE
LINK_OFFSETS         DEPTH
MIN_SLOPE            0.0
ALLOW_PONDING        NO
SKIP_STEADY_STATE    NO
ROUTING_STEP         00:00:15
VARIABLE_STEP        0.75
INERTIAL_DAMPING     PARTIAL
NORMAL_FLOW_LIMITED  BOTH
MAX_TRIALS           50
START_DATE           01/01/2001
START_TIME           00:00:00
REPORT_START_DATE    01/01/2001
REPORT_START_TIME    00:00:00
END_DATE             01/02/2001
END_TIME             00:00:00
SWEEP_START          01/01
SWEEP_END            12/31
DRY_DAYS             0
REPORT_STEP          00:15:00
WET_STEP             00:05:00
DRY_STEP             01:00:00

[JUNCTIONS]
;;Name           Elev       MaxDepth   InitDepth  SurDepth   Aponded
;;-------------- ---------- ---------- ---------- ---------- ----------
1.1              18.89      0          0          0          0
1.2              18.80      0          0          0          0
2.1              18.71      0          0          0          0
3.1              18.00      0          0          0          0
4.1              15.91      0          0          0          0
4.2              15.46      0          0          0          0
4.3              14.44      0          0          0          0
5.1              14.70      0          0          0          0
6.1              13.80      0          0          0          0
6.2              13.45      0          0          0          0
7.1              17.83      0          0          0          0
7.2              15.00      0          0          0          0
7.3              15.01      0          0          0          0
8.1              13.71      0          0          0          0
9.1              15.41      0          0          0          0
9.2              15.04      0          0          0          0
10.1             16.33      0          0          0          0
11.1             15.06      0          0          0          0
11.2             14.80      0          0          0          0
12.1             17.01      0          0          0          0
13.1             16.00      0          0          0          0
13.2             15.48      0          0          0          0
14.1             14.93      0          0          0          0
15.1             14.58      0          0          0          0
15.2             14.19      0          0          0          0
16.1             13.76      0          0          0          0
16.2             13.34      0          0          0          0
17.1             17.65      0          0          0          0
17.2             16.86      0          0          0          0
17.3             15.61      0          0          0          0
17.4             14.36      0          0          0          0
18.1             13.11      0          0          0          0
19.1             13.62      0          0          0          0
20.1             12.18      0          0          0          0
21.1             19.04      0          0          0          0
21.2             18.64      0          0          0          0
22.1             16.42      0          0          0          0
22.2             13.68      0          0          0          0
22.3             10.61      0          0          0          0
23.1             16.44      0          0          0          0
23.2             15.71      0          0          0          0
23.3             14.98      0          0          0          0
24.1             14.16      0          0          0          0
24.2             13.22      0          0          0          0
24.3             12.09      0          0          0          0
24.4             11.35      0          0          0          0
25.1             10.31      0          0          0          0
25.2             9.30       0          0          0          0
25.3             8.43       0          0          0          0
26.1             8.23       0          0          0          0
26.2             8.06       0          0          0          0
1A.1             10.63      0          0          0          0
1B.1             9.34       0          0          0          0
1B.2             8.57       0          0          0          0
1C.1             8.09       0          0          0          0
1C.2(M)          7.62       0          0          0          0
1C.3             7.24       0          0          0          0
1C.4             6.34       0          0          0          0

[OUTFALLS]
;;Name           Elev       Type       Stage      Gated
;;-------------- ---------- ---------- ---------- -----
OUT.1            5.60       FREE                  NO

[CONDUITS]
;;Name           From             To               Length     Roughness  InOffset   OutOffset  InitFlow   MaxFlow
;;-------------- ---------------- ---------------- ---------- ---------- ---------- ---------- ---------- ----------
201              1.1              1.2              20.10      0.0130     17.61      17.41      0          0
202              1.2              2.1              22.90      0.0130     17.39      17.16      0          0
203              2.1              3.1              51.00      0.0130     17.03      16.61      0          0
204              3.1              4.1              47.90      0.0130     14.76      14.42      0          0
205              4.1              4.2              5.00       0.0130     13.40      13.37      0          0
206              4.2              4.3              54.90      0.0130     13.22      12.90      0          0
207              4.3              6.1              37.00      0.0130     12.48      12.26      0          0
208              5.1              6.1              15.50      0.0130     12.67      12.36      0          0
209              6.1              6.2              37.80      0.0130     12.24      12.02      0          0
210              6.2              8.1              37.70      0.0130     12.00      11.77      0          0
211              7.1              7.2              52.70      0.0130     15.70      14.38      0          0
212              7.2              7.3              15.90      0.0130     14.13      13.73      0          0
213              7.3              8.1              36.50      0.0130     13.24      12.33      0          0
214              8.1              18.1             54.70      0.0130     11.00      10.73      0          0
215              9.1              9.2              24.80      0.0130     13.93      13.73      0          0
216              9.2              11.1             25.90      0.0130     13.71      13.51      0          0
217              10.1             11.1             30.90      0.0130     14.16      13.52      0          0
218              11.1             11.2             35.30      0.0130     13.46      13.11      0          0
219              11.2             15.1             34.60      0.0130     13.09      12.74      0          0
220              12.1             13.1             23.10      0.0130     15.18      14.72      0          0
221              13.1             13.2             24.90      0.0130     14.45      14.15      0          0
222              13.2             14.1             26.10      0.0130     13.91      13.60      0          0
223              14.1             15.1             34.60      0.0130     13.12      12.78      0          0
224              15.1             15.2             55.40      0.0130     12.53      12.20      0          0
225              15.2             16.1             61.80      0.0130     12.18      11.81      0          0
226              16.1             16.2             61.80      0.0130     11.71      11.40      0          0
227              16.2             18.1             49.30      0.0130     11.38      11.13      0          0
228              17.1             17.2             28.90      0.0130     15.79      15.33      0          0
229              17.2             17.3             34.90      0.0130     14.64      14.08      0          0
230              17.3             17.4             34.90      0.0130     13.39      12.83      0          0
231              17.4             18.1             37.80      0.0130     12.19      11.58      0          0
232              18.1             20.1             55.40      0.0130     10.31      10.11      0          0
233              19.1             20.1             39.20      0.0130     11.35      10.37      0          0
234              20.1             1A.1             93.90      0.0130     8.78       8.47       0          0
235              21.1             21.2             28.90      0.0130     17.96      17.38      0          0
236              21.2             22.1             26.90      0.0130     16.49      15.14      0          0
237              22.1             22.2             28.90      0.0130     13.79      12.35      0          0
238              22.2             22.3             30.90      0.0130     10.82      9.28       0          0
239              22.3             1B.1             24.30      0.0130     8.85       7.63       0          0
240              23.1             23.2             28.90      0.0130     14.95      14.43      0          0
241              23.2             23.3             28.90      0.0130     14.22      13.70      0          0
242              23.3             24.1             32.20      0.0130     13.46      12.88      0          0
243              24.1             24.2             36.90      0.0130     12.44      11.89      0          0
244              24.2             24.3             36.90      0.0130     11.51      10.96      0          0
245              24.3             24.4             36.90      0.0130     10.57      10.02      0          0
246              24.4             25.1             37.10      0.0130     9.54       8.98       0          0
247              25.1             25.2             37.40      0.0130     8.24       7.87       0          0
248              25.2             25.3             39.80      0.0130     7.41       7.01       0          0
249              25.3             26.1             42.20      0.0130     7.01       6.59       0          0
250              26.1             26.2             30.10      0.0130     6.59       6.32       0          0
251              26.2             1C.1             31.00      0.0130     6.32       6.04       0          0
252              1A.1             1B.1             66.40      0.0130     7.46       7.26       0          0
253              1B.1             1B.2             87.40      0.0130     6.55       6.29       0          0
254              1B.2             1C.1             40.70      0.0130     5.93       5.81       0          0
255              1C.1             1C.2(M)          46.50      0.0130     5.35       5.23       0          0
256              1C.2(M)          1C.3             47.90      0.0130     4.96       4.83       0          0
312              1C.3             1C.4             95.90      0.0130     4.27       4.02       0          0
314              1C.4             OUT.1            96.00      0.0130     3.46       3.21       0          0

[XSECTIONS]
;;Link           Shape        Geom1      Geom2      Geom3      Geom4      Barrels
;;-------------- ------------ ---------- ---------- ---------- ---------- ----------
201              CIRCULAR     0.25       0          0          0          1
202              CIRCULAR     0.25       0          0          0          1
203              CIRCULAR     0.35       0          0          0          1
204              CIRCULAR     0.45       0          0          0          1
205              CIRCULAR     0.50       0          0          0          1
206              CIRCULAR     0.50       0          0          0          1
207              CIRCULAR     0.50       0          0          0          1
208              CIRCULAR     0.25       0          0          0          1
209              CIRCULAR     0.50       0          0          0          1
210              CIRCULAR     0.50       0          0          0          1
211              CIRCULAR     0.25       0          0          0          1
212              CIRCULAR     0.25       0          0          0          1
213              CIRCULAR     0.25       0          0          0          1
214              CIRCULAR     0.60       0          0          0          1
215              CIRCULAR     0.25       0          0          0          1
216              CIRCULAR     0.25       0          0          0          1
217              CIRCULAR     0.25       0          0          0          1
218              CIRCULAR     0.30       0          0          0          1
219              CIRCULAR     0.30       0          0          0          1
220              CIRCULAR     0.25       0          0          0          1
221              CIRCULAR     0.30       0          0          0          1
222              CIRCULAR     0.30       0          0          0          1
223              CIRCULAR     0.35       0          0          0          1
224              CIRCULAR     0.50       0          0          0          1
225              CIRCULAR     0.50       0          0          0          1
226              CIRCULAR     0.60       0          0          0          1
227              CIRCULAR     0.60       0          0          0          1
228              CIRCULAR     0.30       0          0          0          1
229              CIRCULAR     0.30       0          0          0          1
230              CIRCULAR     0.30       0          0          0          1
231              CIRCULAR     0.30       0          0          0          1
232              CIRCULAR     0.80       0          0          0          1
233              CIRCULAR     0.30       0          0          0          1
234              CIRCULAR     0.90       0          0          0          1
235              CIRCULAR     0.25       0          0          0          1
236              CIRCULAR     0.25       0          0          0          1
237              CIRCULAR     0.30       0          0          0          1
238              CIRCULAR     0.30       0          0          0          1
239              CIRCULAR     0.35       0          0          0          1
240              CIRCULAR     0.25       0          0          0          1
241              CIRCULAR     0.25       0          0          0          1
242              CIRCULAR     0.25       0          0          0          1
243              CIRCULAR     0.30       0          0          0          1
244              CIRCULAR     0.30       0          0          0          1
245              CIRCULAR     0.30       0          0          0          1
246              CIRCULAR     0.30       0          0          0          1
247              CIRCULAR     0.40       0          0          0          1
248              CIRCULAR     0.40       0          0          0          1
249              CIRCULAR     0.40       0          0          0          1
250              CIRCULAR     0.45       0          0          0          1
251              CIRCULAR     0.45       0          0          0          1
252              CIRCULAR     1.00       0          0          0          1
253              CIRCULAR     1.00       0          0          0          1
254              CIRCULAR     1.00       0          0          0          1
255              CIRCULAR     1.10       0          0          0          1
256              CIRCULAR     1.10       0          0          0          1
312              CIRCULAR     1.10       0          0          0          1
314              CIRCULAR     1.10       0          0          0          1

[LOSSES]
;;Link           Inlet      Outlet     Average    Flap Gate
;;-------------- ---------- ---------- ---------- ----------
201              0          0          0          NO
202              0          0          0          NO
203              0          0          0          NO
204              0          0          0          NO
205              0          0          0          NO
206              0          0          0          NO
207              0          0          0          NO
208              0          0          0          NO
209              0          0          0          NO
210              0          0          0          NO
211              0          0          0          NO
212              0          0          0          NO
213              0          0          0          NO
214              0          0          0          NO
215              0          0          0          NO
216              0          0          0          NO
217              0          0          0          NO
218              0          0          0          NO
219              0          0          0          NO
220              0          0          0          NO
221              0          0          0          NO
222              0          0          0          NO
223              0          0          0          NO
224              0          0          0          NO
225              0          0          0          NO
226              0          0          0          NO
227              0          0          0          NO
228              0          0          0          NO
229              0          0          0          NO
230              0          0          0          NO
231              0          0          0          NO
232              0          0          0          NO
233              0          0          0          NO
234              0          0          0          NO
235              0          0          0          NO
236              0          0          0          NO
237              0          0          0          NO
238              0          0          0          NO
239              0          0          0          NO
240              0          0          0          NO
241              0          0          0          NO
242              0          0          0          NO
243              0          0          0          NO
244              0          0          0          NO
245              0          0          0          NO
246              0          0          0          NO
247              0          0          0          NO
248              0          0          0          NO
249              0          0          0          NO
250              0          0          0          NO
251              0          0          0          NO
252              0          0          0          NO
253              0          0          0          NO
254              0          0          0          NO
255              0          0          0          NO
256              0          0          0          NO
312              0          0          0          NO
314              0          0          0          NO

[INFLOWS]
;;Node           Constituent  Time Series      Type     Mfactor  Sfactor  Baseline Pattern
;;-------------- ------------ ---------------- -------- -------- -------- -------- --------
;; SYNTHETIC TEST INFLOWS — the source .xp carried no constant inflows
;; and RUNF hydrology is not converted; 0.03 CMS is applied at each
;; headwater node so the network runs wet for QA. Replace with real
;; hydrology or inflow hydrographs before using results.
1.1              FLOW         ""               FLOW     1.0      1.0      0.03
5.1              FLOW         ""               FLOW     1.0      1.0      0.03
7.1              FLOW         ""               FLOW     1.0      1.0      0.03
9.1              FLOW         ""               FLOW     1.0      1.0      0.03
10.1             FLOW         ""               FLOW     1.0      1.0      0.03
12.1             FLOW         ""               FLOW     1.0      1.0      0.03
17.1             FLOW         ""               FLOW     1.0      1.0      0.03
19.1             FLOW         ""               FLOW     1.0      1.0      0.03
21.1             FLOW         ""               FLOW     1.0      1.0      0.03
23.1             FLOW         ""               FLOW     1.0      1.0      0.03

[COORDINATES]
;;Node           X-Coord            Y-Coord
;;-------------- ------------------ ------------------
1.1              495.85             3.25              
1.2              495.93             3.23              
2.1              496.02             3.22              
3.1              496.22             3.18              
4.1              496.18             2.99              
4.2              496.22             2.98              
4.3              496.35             3.10              
5.1              496.44             3.27              
6.1              496.49             3.22              
6.2              496.60             3.32              
7.1              496.86             3.80              
7.2              496.84             3.65              
7.3              496.80             3.54              
8.1              496.70             3.42              
9.1              496.13             2.15              
9.2              496.15             2.25              
10.1             496.28             2.32              
11.1             496.17             2.35              
11.2             496.20             2.49              
12.1             495.84             2.70              
13.1             495.93             2.68              
13.2             496.03             2.66              
14.1             496.13             2.65              
15.1             496.25             2.63              
15.2             496.38             2.81              
16.1             496.56             2.99              
16.2             496.71             3.12              
17.1             497.06             3.79              
17.2             497.05             3.69              
17.3             497.02             3.54              
17.4             496.96             3.40              
18.1             496.86             3.28              
19.1             496.93             3.03              
20.1             497.03             3.12              
21.1             497.23             2.16              
21.2             497.28             2.27              
22.1             497.33             2.37              
22.2             497.38             2.47              
22.3             497.44             2.58              
23.1             497.12             3.64              
23.2             497.23             3.56              
23.3             497.32             3.49              
24.1             497.41             3.42              
24.2             497.53             3.33              
24.3             497.65             3.24              
24.4             497.76             3.16              
25.1             497.88             3.08              
25.2             497.88             2.92              
25.3             497.88             2.77              
26.1             497.89             2.60              
26.2             497.89             2.47              
1A.1             497.28             2.85              
1B.1             497.49             2.65              
1B.2             497.77             2.39              
1C.1             497.87             2.33              
1C.2(M)          498.05             2.22              
1C.3             498.23             2.17              
1C.4             498.65             2.17              
OUT.1            499.05             2.17              

[MAP]
DIMENSIONS 495.84 2.15 499.05 3.80
Units      None

[REPORT]
SUBCATCHMENTS ALL
NODES ALL
LINKS ALL
