;; SWMM5 .inp converted from XPSWMM .xp file
;; Generated by XPSWMM Card Reader
;; Source format: XP_CARD | Original title: (none)
;; Links parsed from source: 35 | Routable in this .inp: 35

[TITLE]
;;Project Title/Notes
Converted from XPSWMM .xp file

[OPTIONS]
FLOW_UNITS           CMS
INFILTRATION         HORTON
FLOW_ROUTING         DYNWAVE
LINK_OFFSETS         DEPTH
MIN_SLOPE            0.0
ALLOW_PONDING        NO
SKIP_STEADY_STATE    NO
ROUTING_STEP         00:00:02
VARIABLE_STEP        0.75
INERTIAL_DAMPING     PARTIAL
NORMAL_FLOW_LIMITED  BOTH
MAX_TRIALS           500
START_DATE           01/01/2001
START_TIME           00:00:00
REPORT_START_DATE    01/01/2001
REPORT_START_TIME    00:00:00
END_DATE             01/02/2001
END_TIME             00:00:00
SWEEP_START          01/01
SWEEP_END            12/31
DRY_DAYS             0
REPORT_STEP          00:15:00
WET_STEP             00:05:00
DRY_STEP             01:00:00

[JUNCTIONS]
;;Name           Elev       MaxDepth   InitDepth  SurDepth   Aponded
;;-------------- ---------- ---------- ---------- ---------- ----------
C1_u/s           49.00      0          0          0          0
C1_d/s           48.91      0          0          0          0
C3_u/s           42.50      0          0          0          0
C3_d/s           42.50      0          0          0          0
100              55.00      0          0          0          0
99               52.01      0          0          0          0
97               43.50      0          0          0          0
96               42.20      0          0          0          0
95               39.00      0          0          0          0
MH-25            45.36      0          0          0          0
MH-26            43.46      0          0          0          0
MH-18            45.45      0          0          0          0
MH-08            42.18      0          0          0          0
MH-17            45.12      0          0          0          0
MH-24            43.09      0          0          0          0
MH-10            44.68      0          0          0          0
MH-22            47.27      0          0          0          0
MH-20            48.62      0          0          0          0
MH-11            46.83      0          0          0          0
MH-09            43.41      0          0          0          0
MH-06            48.06      0          0          0          0
MH-14            48.26      0          0          0          0
MH-02            42.30      0          0          0          0
MH-03            43.11      0          0          0          0
MH-07            42.14      0          0          0          0
MH-23            42.64      0          0          0          0
MH-16            43.94      0          0          0          0
MH-19            45.96      0          0          0          0
MH-01            42.08      0          0          0          0
MH-04            43.80      0          0          0          0
MH-05            48.85      0          0          0          0
MH-15            54.16      0          0          0          0
MH-12            46.85      0          0          0          0
MH-13            48.24      0          0          0          0
MH-21            46.09      0          0          0          0

[OUTFALLS]
;;Name           Elev       Type       Stage      Gated
;;-------------- ---------- ---------- ---------- -----
94               39.00      FREE                  NO

[CONDUITS]
;;Name           From             To               Length     Roughness  InOffset   OutOffset  InitFlow   MaxFlow
;;-------------- ---------------- ---------------- ---------- ---------- ---------- ---------- ---------- ----------
201              C1_u/s           C1_d/s           10.00      0.0150     44.60      43.50      0          0
203              C3_u/s           C3_d/s           10.00      0.0150     37.75      37.50      0          0
205              100              99               133.99     0.0140     47.51      45.11      0          0
206              99               C1_u/s           134.17     0.0140     45.11      44.47      0          0
207              97               96               171.38     0.0140     40.28      39.01      0          0
208              96               C3_u/s           183.10     0.0140     39.01      37.72      0          0
204              C3_d/s           95               139.96     0.0140     37.47      36.33      0          0
209              95               94               47.42      0.0140     36.33      36.72      0          0
202              C1_d/s           MH-13            40.12      0.0130     46.00      45.00      0          0
219              MH-25            MH-24            81.31      0.0130     40.42      40.30      0          0
220              MH-26            MH-25            94.04      0.0130     40.61      40.42      0          0
221              MH-18            MH-17            43.75      0.0130     42.50      42.00      0          0
222              MH-08            97               43.12      0.0130     40.04      40.00      0          0
223              MH-17            MH-16            82.38      0.0130     42.00      40.10      0          0
224              MH-24            MH-23            105.55     0.0130     40.30      40.14      0          0
225              MH-10            MH-09            83.29      0.0130     41.50      40.09      0          0
226              MH-22            MH-21            67.57      0.0130     44.00      43.50      0          0
227              MH-20            MH-19            103.51     0.0130     45.00      42.80      0          0
228              MH-11            MH-10            113.39     0.0140     43.50      41.50      0          0
229              MH-09            MH-08            34.10      0.0130     40.09      40.04      0          0
230              MH-06            MH-02            151.98     0.0130     44.00      39.66      0          0
231              MH-14            MH-12            115.85     0.0130     45.00      44.00      0          0
232              MH-02            MH-01            94.31      0.0130     39.66      39.52      0          0
233              MH-03            MH-02            111.32     0.0130     40.00      39.66      0          0
234              MH-07            C3_u/s           41.88      0.0130     39.50      39.00      0          0
235              MH-23            MH-16            35.54      0.0130     40.14      40.10      0          0
236              MH-16            MH-08            65.79      0.0130     40.10      40.04      0          0
237              MH-19            MH-18            39.87      0.0130     42.80      42.50      0          0
238              MH-01            96               20.68      0.0130     39.52      39.50      0          0
239              MH-04            MH-03            149.39     0.0130     40.50      40.00      0          0
240              MH-05            MH-03            154.93     0.0130     45.00      40.00      0          0
241              MH-15            MH-14            135.76     0.0130     51.00      45.00      0          0
242              MH-12            MH-11            55.38      0.0130     44.00      43.50      0          0
243              MH-13            MH-12            48.52      0.0130     45.00      44.00      0          0
244              MH-21            MH-18            36.13      0.0130     43.50      42.50      0          0

[XSECTIONS]
;;Link           Shape        Geom1      Geom2      Geom3      Geom4      Barrels
;;-------------- ------------ ---------- ---------- ---------- ---------- ----------
201              RECT_CLOSED  1.80       1.80       0          0          3
203              RECT_CLOSED  1.20       2.40       0          0          5
205              TRAPEZOIDAL  1.00       10.00      2          2          1
206              TRAPEZOIDAL  1.00       10.00      2          2          1
207              TRAPEZOIDAL  1.00       10.00      2          2          1
208              TRAPEZOIDAL  1.00       10.00      2          2          1
204              TRAPEZOIDAL  1.00       10.00      2          2          1
209              TRAPEZOIDAL  1.00       10.00      2          2          1
202              CIRCULAR     1.80       0          0          0          3
219              CIRCULAR     1.00       0          0          0          1
220              CIRCULAR     0.75       0          0          0          1
221              CIRCULAR     1.25       0          0          0          1
222              CIRCULAR     2.00       0          0          0          3
223              CIRCULAR     1.50       0          0          0          1
224              CIRCULAR     1.25       0          0          0          1
225              CIRCULAR     1.80       0          0          0          3
226              CIRCULAR     1.00       0          0          0          1
227              CIRCULAR     0.75       0          0          0          1
228              CIRCULAR     1.80       0          0          0          3
229              CIRCULAR     1.80       0          0          0          3
230              CIRCULAR     1.00       0          0          0          1
231              CIRCULAR     1.00       0          0          0          1
232              CIRCULAR     1.25       0          0          0          1
233              CIRCULAR     1.00       0          0          0          1
234              CIRCULAR     1.00       0          0          0          1
235              CIRCULAR     1.50       0          0          0          1
236              CIRCULAR     1.75       0          0          0          1
237              CIRCULAR     1.00       0          0          0          1
238              CIRCULAR     1.50       0          0          0          1
239              CIRCULAR     0.75       0          0          0          1
240              CIRCULAR     0.75       0          0          0          1
241              CIRCULAR     0.75       0          0          0          1
242              CIRCULAR     1.80       0          0          0          3
243              CIRCULAR     1.80       0          0          0          3
244              CIRCULAR     1.25       0          0          0          2

[LOSSES]
;;Link           Inlet      Outlet     Average    Flap Gate
;;-------------- ---------- ---------- ---------- ----------
201              0          0          0          NO
203              0          0          0          NO
205              0          0          0          NO
206              0          0          0          NO
207              0          0          0          NO
208              0          0          0          NO
204              0          0          0          NO
209              0          0          0          NO
202              0          0          0          NO
219              0          0          0          NO
220              0          0          0          NO
221              0          0          0          NO
222              0          0          0          NO
223              0          0          0          NO
224              0          0          0          NO
225              0          0          0          NO
226              0          0          0          NO
227              0          0          0          NO
228              0          0          0          NO
229              0          0          0          NO
230              0          0          0          NO
231              0          0          0          NO
232              0          0          0          NO
233              0          0          0          NO
234              0          0          0          NO
235              0          0          0          NO
236              0          0          0          NO
237              0          0          0          NO
238              0          0          0          NO
239              0          0          0          NO
240              0          0          0          NO
241              0          0          0          NO
242              0          0          0          NO
243              0          0          0          NO
244              0          0          0          NO

[INFLOWS]
;;Node           Constituent  Time Series      Type     Mfactor  Sfactor  Baseline Pattern
;;-------------- ------------ ---------------- -------- -------- -------- -------- --------
;; SYNTHETIC TEST INFLOWS — the source .xp carried no constant inflows
;; and RUNF hydrology is not converted; 0.03 CMS is applied at each
;; headwater node so the network runs wet for QA. Replace with real
;; hydrology or inflow hydrographs before using results.
100              FLOW         ""               FLOW     1.0      1.0      0.03
MH-26            FLOW         ""               FLOW     1.0      1.0      0.03
MH-22            FLOW         ""               FLOW     1.0      1.0      0.03
MH-20            FLOW         ""               FLOW     1.0      1.0      0.03
MH-06            FLOW         ""               FLOW     1.0      1.0      0.03
MH-07            FLOW         ""               FLOW     1.0      1.0      0.03
MH-04            FLOW         ""               FLOW     1.0      1.0      0.03
MH-05            FLOW         ""               FLOW     1.0      1.0      0.03
MH-15            FLOW         ""               FLOW     1.0      1.0      0.03

[COORDINATES]
;;Node           X-Coord            Y-Coord
;;-------------- ------------------ ------------------
C1_u/s           -6177204.99        293101.47         
C1_d/s           -6177223.11        293146.01         
C3_u/s           -6177689.43        293282.37         
C3_d/s           -6177709.35        293287.38         
100              -6177216.96        292877.14         
99               -6177248.80        292997.83         
97               -6177473.28        293273.54         
96               -6177524.94        293256.55         
95               -6177825.01        293308.65         
94               -6177916.42        293288.07         
MH-25            -6177573.78        293469.01         
MH-26            -6177553.50        293561.16         
MH-18            -6177368.66        293425.82         
MH-08            -6177491.70        293312.19         
MH-17            -6177411.45        293436.12         
MH-24            -6177589.85        293398.25         
MH-10            -6177379.82        293280.02         
MH-22            -6177307.52        293509.32         
MH-20            -6177230.68        293387.82         
MH-11            -6177270.37        293250.39         
MH-09            -6177460.35        293301.28         
MH-06            -6177399.34        293105.22         
MH-14            -6177308.05        293083.25         
MH-02            -6177546.24        293144.17         
MH-03            -6177575.23        293036.68         
MH-07            -6177682.43        293241.08         
MH-23            -6177492.70        293377.03         
MH-16            -6177458.20        293368.30         
MH-19            -6177330.61        293414.82         
MH-01            -6177524.29        293235.88         
MH-04            -6177721.90        293064.54         
MH-05            -6177423.69        293004.45         
MH-15            -6177340.95        292951.54         
MH-12            -6177283.82        293196.75         
MH-13            -6177236.10        293182.58         
MH-21            -6177348.46        293455.77         

[MAP]
DIMENSIONS -6177916.42 292877.14 -6177204.99 293561.16
Units      None

[REPORT]
SUBCATCHMENTS ALL
NODES ALL
LINKS ALL
