;; SWMM5 .inp converted from XPSWMM .xp file
;; Generated by XPSWMM Card Reader
;; Source format: XP_CARD | Original title: Meadowland Mills Hydrologic Analyses
;; NOTE: 28 link(s) dropped (missing endpoint): SPLH07, PLH08, SPLH12, SPLM14, SPLM16, 1056.1, SPLM17, SPLH13, LH14, 27, 1275, 1543.1, 1547.1, SEL013, SEL014, SEL008, SEL010, SEL011, SEL012, SEL009, SEL007, SEL015, SEL016, SEL004B, SEL004A, SEL004, SEL005, SEL006

[TITLE]
;;Project Title/Notes
Meadowland Mills Hydrologic Analyses

[OPTIONS]
FLOW_UNITS           CFS
INFILTRATION         HORTON
FLOW_ROUTING         DYNWAVE
LINK_OFFSETS         DEPTH
MIN_SLOPE            0.0
ALLOW_PONDING        NO
SKIP_STEADY_STATE    NO
ROUTING_STEP         00:00:05
VARIABLE_STEP        0.75
INERTIAL_DAMPING     PARTIAL
NORMAL_FLOW_LIMITED  BOTH
MAX_TRIALS           50
HEAD_TOLERANCE       0.0033
START_DATE           01/01/2001
START_TIME           00:00:00
REPORT_START_DATE    01/01/2001
REPORT_START_TIME    00:00:00
END_DATE             01/02/2001
END_TIME             00:00:00
SWEEP_START          01/01
SWEEP_END            12/31
DRY_DAYS             0
REPORT_STEP          00:15:00
WET_STEP             00:05:00
DRY_STEP             01:00:00

[JUNCTIONS]
;;Name           Elev       MaxDepth   InitDepth  SurDepth   Aponded
;;-------------- ---------- ---------- ---------- ---------- ----------
CB               303.80     0          0          0          0
CB_2             303.30     0          0          0          0
MH               303.80     0          0          0          0
MH_2             303.80     0          0          0          0
MH_3             303.80     0          0          0          0
CB_3             302.95     0          0          0          0
CB_5             302.95     0          0          0          0
CB_6             302.79     0          0          0          0
CB_7             302.79     0          0          0          0
CB_8             302.95     0          0          0          0
CB_9             303.80     0          0          0          0
CB_10            303.40     0          0          0          0
CB_11            303.80     0          0          0          0
CB_12            303.40     0          0          0          0
CB_13            308.30     0          0          0          0
MH_4             304.30     0          0          0          0
MH_5             314.70     0          0          0          0
MH_6             315.50     0          0          0          0
MH_7             317.25     0          0          0          0
MH_8             308.50     0          0          0          0
CBH16            316.81     0          0          0          0
CBH14            315.18     0          0          0          0
SEN110           307.74     0          0          0          0
SEN177           309.26     0          0          0          0
SEN176           311.00     0          0          0          0
SEN102           312.68     0          0          0          0
SEN103           312.63     0          0          0          0
SEN108           318.52     0          0          0          0
SEN109           318.41     0          0          0          0
SEN175           318.37     0          0          0          0
SEN106           317.14     0          0          0          0
SEN100           316.19     0          0          0          0
SEN173           318.80     0          0          0          0
SEN174           311.70     0          0          0          0
SEN105           317.94     0          0          0          0
SEN104           317.07     0          0          0          0
SEN172           312.09     0          0          0          0
SEN101           312.07     0          0          0          0
SEN171           311.36     0          0          0          0
SEN170           311.28     0          0          0          0
SEN169           311.50     0          0          0          0
SEN168A          311.51     0          0          0          0
SEN167           313.38     0          0          0          0
SEN168           314.24     0          0          0          0
CB_14            302.95     0          0          0          0
CB_15            317.80     0          0          0          0
CB_16            317.80     0          0          0          0
MH_9             309.10     0          0          0          0
MH_10            306.10     0          0          0          0
CB_17            303.80     0          0          0          0
CB_18            303.65     0          0          0          0
CB_19            302.79     0          0          0          0
MH_11            305.50     0          0          0          0
CB_20            305.00     0          0          0          0
F05              306.00     0          0          0          0
F04              306.00     0          0          0          0
F03              306.00     0          0          0          0
F02              306.00     0          0          0          0
F01              307.00     0          0          0          0
MH_12            316.70     0          0          0          0
MH_15            312.00     0          0          0          0
MH_16            313.00     0          0          0          0
CB_21            303.75     0          0          0          0
CB_22            303.65     0          0          0          0
CB_23            304.15     0          0          0          0
CB_24            311.70     0          0          0          0
CB_25            311.80     0          0          0          0
CB_26            305.80     0          0          0          0
MH_17            304.55     0          0          0          0
MH_18            305.35     0          0          0          0
MH_19            305.50     0          0          0          0
WEIR             310.00     0          0          0          0
1354             309.00     0          0          0          0
1360             312.00     0          0          0          0
MH_20            304.75     0          0          0          0
MH04             314.00     0          0          0          0
CB_27            319.80     0          0          0          0
SEN156           308.01     0          0          0          0
SEN157           308.01     0          0          0          0
SEN158           309.40     0          0          0          0
SEN159           309.36     0          0          0          0
SEN160           310.48     0          0          0          0
SEN161           312.11     0          0          0          0
SEN162           313.24     0          0          0          0
SEN013           310.95     0          0          0          0
SEN014           311.25     0          0          0          0
SEN008           311.24     0          0          0          0
SEN010           310.32     0          0          0          0
SEN011           310.04     0          0          0          0
SEN012           310.92     0          0          0          0
SEN009           310.34     0          0          0          0
SEN007           310.25     0          0          0          0
SEN163           317.84     0          0          0          0
SEN164           318.24     0          0          0          0
SEN015           317.14     0          0          0          0
SEN016           316.80     0          0          0          0
SEN004B          311.66     0          0          0          0
SEN004A          310.20     0          0          0          0
SEN004           309.67     0          0          0          0
SEN005           309.67     0          0          0          0
SEN006           309.26     0          0          0          0
1428             313.50     0          0          0          0
1432             309.75     0          0          0          0
1434             309.00     0          0          0          0
1436             309.00     0          0          0          0
Node_110         304.25     0          0          0          0
Node_177         302.76     0          0          0          0
Node_11841632    302.60     0          0          0          0
Node_176         303.64     0          0          0          0
Node_11871184    303.38     0          0          0          0
Node_102         303.90     0          0          0          0
Node_11891187    303.64     0          0          0          0
Node_103         306.28     0          0          0          0
Node_11911187    305.95     0          0          0          0
Node_108         315.00     0          0          0          0
Node_11931194    313.90     0          0          0          0
Node_109         313.65     0          0          0          0
Node_11941196    312.54     0          0          0          0
Node_175         306.16     0          0          0          0
Node_11961187    305.95     0          0          0          0
Node_106         315.23     0          0          0          0
Node_11991196    315.00     0          0          0          0
Node_100         312.99     0          0          0          0
Node_12011202    307.55     0          0          0          0
Node_173         307.55     0          0          0          0
Node_12021204    307.27     0          0          0          0
Node_174         307.27     0          0          0          0
Node_12041196    306.18     0          0          0          0
Node_105         312.05     0          0          0          0
Node_12071204    307.89     0          0          0          0
Node_104         311.50     0          0          0          0
Node_12091204    307.89     0          0          0          0
Node_172         307.70     0          0          0          0
Node_12111202    307.55     0          0          0          0
Node_101         309.00     0          0          0          0
Node_12131214    307.70     0          0          0          0
Node_170         307.80     0          0          0          0
Node_12161214    307.70     0          0          0          0
Node_171         307.70     0          0          0          0
Node_12141211    307.70     0          0          0          0
Node_169         308.10     0          0          0          0
Node_12191216    307.80     0          0          0          0
Node_168         308.10     0          0          0          0
Node_12211219    308.10     0          0          0          0
Node_167         309.58     0          0          0          0
Node_12231224    309.31     0          0          0          0
Node_12241221    308.10     0          0          0          0
Node_1065        299.30     0          0          0          0
Node_12641004    299.20     0          0          0          0
Node_1072        312.60     0          0          0          0
Node_12701015    312.00     0          0          0          0
Node_1073        312.30     0          0          0          0
Node_12711015    312.00     0          0          0          0
Node_1076        296.90     0          0          0          0
Node_10041538    296.85     0          0          0          0
Node_1077        296.82     0          0          0          0
Node_12751274    296.72     0          0          0          0
Node_1080        299.55     0          0          0          0
Node_12781279    299.45     0          0          0          0
Node_1081        299.45     0          0          0          0
Node_12791004    299.40     0          0          0          0
Node_1083        299.75     0          0          0          0
Node_12821264    299.60     0          0          0          0
Node_1127        301.27     0          0          0          0
Node_13261504    300.92     0          0          0          0
Node_60          293.32     0          0          0          0
Node_14101411    292.39     0          0          0          0
Node_62          292.14     0          0          0          0
Node_14111412    291.22     0          0          0          0
Node_64          291.22     0          0          0          0
Node_14121413    290.32     0          0          0          0
Node_69          290.32     0          0          0          0
Node_14131571    288.81     0          0          0          0
Node_14141456    288.60     0          0          0          0
Node_14531274    300.80     0          0          0          0
Node_114         288.10     0          0          0          0
Node_15001417    288.00     0          0          0          0
Node_1254        302.00     0          0          0          0
Node_14171453    301.75     0          0          0          0
Node_1257        288.60     0          0          0          0
Node_14561416    288.20     0          0          0          0
Node_1260        299.30     0          0          0          0
Node_14591458    299.24     0          0          0          0
Node_1261        299.24     0          0          0          0
Node_14581502    299.20     0          0          0          0
Node_1266        300.42     0          0          0          0
Node_15041291    300.15     0          0          0          0
Node_1276        301.53     0          0          0          0
Node_14741326    301.27     0          0          0          0
Node_1295        301.10     0          0          0          0
Node_14941275    300.57     0          0          0          0
Node_1301        288.10     0          0          0          0
Node_14161500    288.00     0          0          0          0
Node_303         298.70     0          0          0          0
Node_1502984     298.37     0          0          0          0
Node_1305        300.74     0          0          0          0
Node_14641504    300.67     0          0          0          0
Node_1339        296.85     0          0          0          0
Node_15381275    296.82     0          0          0          0
Node_1355        301.50     0          0          0          0
Node_15461554    300.00     0          0          0          0
Node_1359        296.00     0          0          0          0
Node_15601558    295.80     0          0          0          0
Node_1370        299.15     0          0          0          0
Node_12911502    298.70     0          0          0          0
Node_1372        288.81     0          0          0          0
Node_15711456    288.60     0          0          0          0
Node_1374        296.38     0          0          0          0
Node_10191573    296.22     0          0          0          0
Node_1376        296.22     0          0          0          0
Node_15731542    296.00     0          0          0          0
Node_1378        301.73     0          0          0          0
Node_15771459    299.30     0          0          0          0
Node_156         304.75     0          0          0          0
Node_15791580    304.65     0          0          0          0
Node_158         304.51     0          0          0          0
Node_15811582    304.45     0          0          0          0
Node_159         304.45     0          0          0          0
Node_15821583    303.50     0          0          0          0
Node_160         303.50     0          0          0          0
Node_15831584    303.05     0          0          0          0
Node_161         303.05     0          0          0          0
Node_15841585    300.85     0          0          0          0
Node_162         300.85     0          0          0          0
Node_15851594    300.65     0          0          0          0
Node_157         304.75     0          0          0          0
Node_15801581    304.51     0          0          0          0
Node_163         300.65     0          0          0          0
Node_15941595    300.45     0          0          0          0
Node_164         300.45     0          0          0          0
Node_15951291    300.25     0          0          0          0
Node_1431        308.00     0          0          0          0
Node_16281546    308.00     0          0          0          0
Node_1433        295.90     0          0          0          0
Node_15421632    295.81     0          0          0          0
Node_1435        295.81     0          0          0          0
Node_16321636    295.48     0          0          0          0
Node_1437        295.48     0          0          0          0
Node_16361634    295.43     0          0          0          0

[OUTFALLS]
;;Name           Elev       Type       Stage      Gated
;;-------------- ---------- ---------- ---------- -----
Node_11831184    304.20     FREE                  NO

[STORAGE]
;;Name           Elev       MaxDepth   InitDepth  Shape      Curve/Params
;;-------------- ---------- ---------- ---------- ---------- ----------
CB_4             302.79     10.00      0          FUNCTIONAL 12.50 0          0
MH_13            311.50     10.00      0          FUNCTIONAL 81.00 0          0
MH_14            311.50     10.00      0          FUNCTIONAL 28.00 0          0
WW/PUMP          308.50     10.00      0          FUNCTIONAL 81.00 0          0
1346             313.50     10.00      0          FUNCTIONAL 48.00 0          0
1358             310.00     10.00      0          FUNCTIONAL 215.00 0          0

[CONDUITS]
;;Name           From             To               Length     Roughness  InOffset   OutOffset  InitFlow   MaxFlow
;;-------------- ---------------- ---------------- ---------- ---------- ---------- ---------- ---------- ----------
PLH05            CB               CB               40.00      0.0130     300.38     300.14     0          0
PLH06            CB               MH               13.00      0.0130     300.14     300.12     0          0
PLM10            MH               MH               153.00     0.0130     297.21     297.06     0          0
PLB07            CB               CB               62.00      0.0130     299.45     299.33     0          0
PLL06            CB               MH               13.00      0.0130     299.33     299.30     0          0
PLH09            CB               CB               40.00      0.0130     299.80     299.70     0          0
PLH10            CB               MH               11.00      0.0130     299.70     299.66     0          0
PLB06            CB               CB               62.00      0.0130     299.45     299.33     0          0
PLL05            CB               MH               13.00      0.0130     299.33     299.30     0          0
PLB05            CB               CB               60.00      0.0130     299.45     299.33     0          0
PLL04            CB               MH               13.00      0.0130     299.33     299.30     0          0
SPLM12           MH               MH               155.00     0.0130     297.06     296.90     0          0
SEL110           Node_110         Node_11831184    16.00      0.0130     304.25     304.20     0          0
SEL177           Node_177         Node_11841632    130.00     0.0130     302.76     302.60     0          0
SEL176           Node_176         Node_11871184    144.00     0.0130     303.64     303.38     0          0
SEL102           Node_102         Node_11891187    126.00     0.0130     303.90     303.64     0          0
SEL103           Node_103         Node_11911187    64.00      0.0130     306.28     305.95     0          0
SEL108           Node_108         Node_11931194    110.00     0.0130     315.00     313.90     0          0
SEL109           Node_109         Node_11941196    126.00     0.0130     313.65     312.54     0          0
SEL175           Node_175         Node_11961187    176.00     0.0130     306.16     305.95     0          0
SEL106           Node_106         Node_11991196    46.00      0.0130     315.23     315.00     0          0
SEL100           Node_100         Node_12011202    114.00     0.0130     312.99     307.55     0          0
SEL173           Node_173         Node_12021204    84.00      0.0130     307.55     307.27     0          0
SEL174           Node_174         Node_12041196    214.00     0.0130     307.27     306.18     0          0
SEL105           Node_105         Node_12071204    10.00      0.0130     312.05     307.89     0          0
SEL104           Node_104         Node_12091204    16.00      0.0130     311.50     307.89     0          0
SEL172           Node_172         Node_12111202    72.00      0.0130     307.70     307.55     0          0
SEL101           Node_101         Node_12131214    74.00      0.0130     309.00     307.70     0          0
SEL170           Node_170         Node_12161214    42.00      0.0130     307.80     307.70     0          0
SEL171           Node_171         Node_12141211    46.00      0.0130     307.70     307.70     0          0
SEL169           Node_169         Node_12191216    90.00      0.0130     308.10     307.80     0          0
SEL168A          Node_168         Node_12211219    6.00       0.0130     308.10     308.10     0          0
SEL167           Node_167         Node_12231224    38.00      0.0130     309.58     309.31     0          0
SEL168           Node_168         Node_12241221    188.00     0.0130     309.31     308.10     0          0
1065             Node_1065        Node_12641004    16.00      0.0130     299.30     299.20     0          0
1072             Node_1072        Node_12701015    60.00      0.0130     312.60     312.00     0          0
1073             Node_1073        Node_12711015    30.00      0.0130     312.30     312.00     0          0
1076             Node_1076        Node_10041538    46.00      0.0130     296.90     296.85     0          0
1077             Node_1077        Node_12751274    100.00     0.0130     296.82     296.72     0          0
1080             Node_1080        Node_12781279    40.00      0.0130     299.55     299.45     0          0
1081             Node_1081        Node_12791004    8.00       0.0130     299.45     299.40     0          0
1083             Node_1083        Node_12821264    62.00      0.0130     299.75     299.60     0          0
1127             Node_1127        Node_13261504    87.00      0.0130     301.27     300.92     0          0
154              MH               MH               164.00     0.0130     297.37     297.21     0          0
60               Node_60          Node_14101411    92.00      0.0130     293.32     292.39     0          0
62               Node_62          Node_14111412    92.00      0.0130     292.14     291.22     0          0
64               Node_64          Node_14121413    90.00      0.0130     291.22     290.32     0          0
69               Node_69          Node_14131571    151.00     0.0130     290.32     288.81     0          0
103              Node_103         Node_14141456    24.00      0.0130     288.84     288.60     0          0
110              Node_110         Node_14531274    96.00      0.0130     301.65     300.80     0          0
1254             Node_1254        Node_14171453    25.00      0.0130     302.00     301.75     0          0
1257             Node_1257        Node_14561416    40.00      0.0130     288.60     288.20     0          0
1260             Node_1260        Node_14591458    30.00      0.0130     299.30     299.24     0          0
1261             Node_1261        Node_14581502    15.00      0.0130     299.24     299.20     0          0
1266             Node_1266        Node_15041291    68.00      0.0130     300.42     300.15     0          0
1276             Node_1276        Node_14741326    65.00      0.0130     301.53     301.27     0          0
1295             Node_1295        Node_14941275    53.00      0.0130     301.10     300.57     0          0
1301             Node_1301        Node_14161500    10.00      0.0130     288.10     288.00     0          0
303              Node_303         Node_1502984     65.00      0.0130     298.70     298.37     0          0
1305             Node_1305        Node_14641504    15.00      0.0130     300.74     300.67     0          0
1339             Node_1339        Node_15381275    34.00      0.0130     296.85     296.82     0          0
1355             Node_1355        Node_15461554    405.00     0.0130     301.50     300.00     0          0
1359             Node_1359        Node_15601558    21.00      0.0130     296.00     295.80     0          0
1370             Node_1370        Node_12911502    89.00      0.0130     299.15     298.70     0          0
1372             Node_1372        Node_15711456    21.00      0.0130     288.81     288.60     0          0
1374             Node_1374        Node_10191573    161.00     0.0130     296.38     296.22     0          0
1376             Node_1376        Node_15731542    197.00     0.0130     296.22     296.00     0          0
1378             Node_1378        Node_15771459    81.00      0.0130     301.73     299.30     0          0
SEL156           Node_156         Node_15791580    10.00      0.0130     304.75     304.65     0          0
SEL158           Node_158         Node_15811582    10.00      0.0130     304.51     304.45     0          0
SEL159           Node_159         Node_15821583    166.00     0.0130     304.45     303.50     0          0
SEL160           Node_160         Node_15831584    62.00      0.0130     303.50     303.05     0          0
SEL161           Node_161         Node_15841585    138.00     0.0130     303.05     300.85     0          0
SEL162           Node_162         Node_15851594    58.00      0.0130     300.85     300.65     0          0
SEL157           Node_157         Node_15801581    22.00      0.0130     304.75     304.51     0          0
SEL163           Node_163         Node_15941595    102.00     0.0130     300.65     300.45     0          0
SEL164           Node_164         Node_15951291    100.00     0.0130     300.45     300.25     0          0
1433             Node_1433        Node_15421632    88.00      0.0130     295.90     295.81     0          0
1435             Node_1435        Node_16321636    332.00     0.0130     295.81     295.48     0          0
1437             Node_1437        Node_16361634    50.00      0.0130     295.48     295.43     0          0

[ORIFICES]
;;Name           From             To               Type       Offset     Qcoeff     Gated    CloseTime
;;-------------- ---------------- ---------------- ---------- ---------- ---------- -------- ----------
1631.1           Node_1431        Node_16281546    SIDE       308.00     0.650      NO       0

[PUMPS]
;;Name           From             To               PumpCurve  Status   Startup    Shutoff
;;-------------- ---------------- ---------------- ---------- -------- ---------- ----------
1451.1           Node_114         Node_15001417    PC_1451_1  ON       286.50     281.50    

[CURVES]
;;Name           Type       X-Value    Y-Value
;;-------------- ---------- ---------- ----------
;; Synthesized generic pump curves — replace with actual pump data
PC_1451_1        Pump1      0          5
PC_1451_1                   10         10

[XSECTIONS]
;;Link           Shape        Geom1      Geom2      Geom3      Geom4      Barrels
;;-------------- ------------ ---------- ---------- ---------- ---------- ----------
PLH05            RECT_CLOSED  1.17       1.50       0          0          1
PLH06            RECT_CLOSED  1.17       1.50       0          0          1
PLM10            RECT_CLOSED  4.00       5.13       0          0          1
PLB07            CIRCULAR     1.50       0          0          0          1
PLL06            CIRCULAR     1.50       0          0          0          1
PLH09            CIRCULAR     1.50       0          0          0          1
PLH10            CIRCULAR     1.50       0          0          0          1
PLB06            CIRCULAR     1.50       0          0          0          1
PLL05            CIRCULAR     1.50       0          0          0          1
PLB05            CIRCULAR     1.50       2.08       0          0          1
PLL04            CIRCULAR     1.50       4.63       0          0          1
SPLM12           RECT_CLOSED  4.00       5.13       0          0          1
SEL110           CIRCULAR     1.00       0          0          0          1
SEL177           CIRCULAR     3.00       0          0          0          1
SEL176           CIRCULAR     2.50       0          0          0          1
SEL102           CIRCULAR     2.00       0          0          0          1
SEL103           CIRCULAR     1.00       0          0          0          1
SEL108           CIRCULAR     1.00       0          0          0          1
SEL109           CIRCULAR     1.25       0          0          0          1
SEL175           CIRCULAR     1.50       0          0          0          1
SEL106           CIRCULAR     1.00       0          0          0          1
SEL100           CIRCULAR     1.50       0          0          0          1
SEL173           CIRCULAR     1.50       0          0          0          1
SEL174           CIRCULAR     1.50       0          0          0          1
SEL105           CIRCULAR     1.00       0          0          0          1
SEL104           CIRCULAR     1.00       0          0          0          1
SEL172           CIRCULAR     1.50       0          0          0          1
SEL101           CIRCULAR     1.00       0          0          0          1
SEL170           CIRCULAR     1.50       0          0          0          1
SEL171           CIRCULAR     1.50       0          0          0          1
SEL169           CIRCULAR     1.00       0          0          0          1
SEL168A          CIRCULAR     1.00       0          0          0          1
SEL167           CIRCULAR     1.00       0          0          0          1
SEL168           CIRCULAR     1.00       0          0          0          1
1065             CIRCULAR     1.50       0          0          0          1
1072             CIRCULAR     1.25       0          0          0          1
1073             CIRCULAR     1.25       0          0          0          1
1076             CIRCULAR     5.00       0          0          0          1
1077             CIRCULAR     5.00       0          0          0          1
1080             CIRCULAR     1.50       0          0          0          1
1081             CIRCULAR     1.50       0          0          0          1
1083             RECT_CLOSED  1.17       1.50       0          0          1
1127             CIRCULAR     1.50       0          0          0          1
154              RECT_CLOSED  4.00       5.13       0          0          1
60               CIRCULAR     1.25       0          0          0          1
62               CIRCULAR     1.50       0          0          0          1
64               CIRCULAR     1.50       0          0          0          1
69               CIRCULAR     1.50       0          0          0          1
103              CIRCULAR     1.50       0          0          0          1
110              CIRCULAR     3.00       0          0          0          1
1254             CIRCULAR     3.00       0          0          0          1
1257             CIRCULAR     1.50       0          0          0          1
1260             CIRCULAR     1.50       1.50       0          0          1
1261             CIRCULAR     1.50       1.50       0          0          1
1266             CIRCULAR     2.00       2.08       0          0          1
1276             CIRCULAR     1.50       0          0          0          1
1295             CIRCULAR     1.25       1.50       0          0          1
1301             CIRCULAR     1.50       0          0          0          1
303              CIRCULAR     3.00       1.50       0          0          1
1305             CIRCULAR     1.25       1.50       0          0          1
1339             CIRCULAR     5.00       0          0          0          1
1355             CIRCULAR     5.00       0          0          0          1
1359             RECT_CLOSED  4.00       6.00       0          0          1
1370             CIRCULAR     3.00       2.08       0          0          1
1372             CIRCULAR     1.50       0          0          0          1
1374             CIRCULAR     5.00       0          0          0          1
1376             CIRCULAR     5.00       0          0          0          1
1378             CIRCULAR     1.50       0          0          0          1
SEL156           CIRCULAR     1.00       0          0          0          1
SEL158           CIRCULAR     1.00       0          0          0          1
SEL159           CIRCULAR     1.25       0          0          0          1
SEL160           CIRCULAR     1.25       0          0          0          1
SEL161           CIRCULAR     1.25       0          0          0          1
SEL162           CIRCULAR     1.25       0          0          0          1
SEL157           CIRCULAR     1.00       0          0          0          1
SEL163           CIRCULAR     1.25       0          0          0          1
SEL164           CIRCULAR     1.75       0          0          0          1
1433             CIRCULAR     5.00       0          0          0          1
1435             CIRCULAR     5.00       0          0          0          1
1437             CIRCULAR     5.00       0          0          0          1
1631.1           RECT_CLOSED  3.66       12.00      0          0

[LOSSES]
;;Link           Inlet      Outlet     Average    Flap Gate
;;-------------- ---------- ---------- ---------- ----------
PLH05            0          0          0          NO
PLH06            0          0          0          NO
PLM10            0          0          0          NO
PLB07            0          0          0          NO
PLL06            0          0          0          NO
PLH09            0          0          0          NO
PLH10            0          0          0          NO
PLB06            0          0          0          NO
PLL05            0          0          0          NO
PLB05            0          0          0          NO
PLL04            0          0          0          NO
SPLM12           0          0          0          NO
SEL110           0          0          0          NO
SEL177           0          0          0          NO
SEL176           0          0          0          NO
SEL102           0          0          0          NO
SEL103           0          0          0          NO
SEL108           0          0          0          NO
SEL109           0          0          0          NO
SEL175           0          0          0          NO
SEL106           0          0          0          NO
SEL100           0          0          0          NO
SEL173           0          0          0          NO
SEL174           0          0          0          NO
SEL105           0          0          0          NO
SEL104           0          0          0          NO
SEL172           0          0          0          NO
SEL101           0          0          0          NO
SEL170           0          0          0          NO
SEL171           0          0          0          NO
SEL169           0          0          0          NO
SEL168A          0          0          0          NO
SEL167           0          0          0          NO
SEL168           0          0          0          NO
1065             0          0          0          NO
1072             0          0          0          NO
1073             0          0          0          NO
1076             0          0          0          NO
1077             0          0          0          NO
1080             0          0          0          NO
1081             0          0          0          NO
1083             0          0          0          NO
1127             0          0          0          NO
154              0          0          0          NO
60               0          0          0          NO
62               0          0          0          NO
64               0          0          0          NO
69               0          0          0          NO
103              0          0          0          NO
110              0          0          0          NO
1254             0          0          0          NO
1257             0          0          0          NO
1260             0          0          0          NO
1261             0          0          0          NO
1266             0          0          0          NO
1276             0          0          0          NO
1295             0          0          0          NO
1301             0          0          0          NO
303              0          0          0          NO
1305             0          0          0          NO
1339             0          0          0          NO
1355             0          0          0          NO
1359             0          0          0          NO
1370             0          0          0          NO
1372             0          0          0          NO
1374             0          0          0          NO
1376             0          0          0          NO
1378             0          0          0          NO
SEL156           0          0          0          NO
SEL158           0          0          0          NO
SEL159           0          0          0          NO
SEL160           0          0          0          NO
SEL161           0          0          0          NO
SEL162           0          0          0          NO
SEL157           0          0          0          NO
SEL163           0          0          0          NO
SEL164           0          0          0          NO
1433             0          0          0          NO
1435             0          0          0          NO
1437             0          0          0          NO

[COORDINATES]
;;Node           X-Coord            Y-Coord
;;-------------- ------------------ ------------------
CB               -21.07             738.88            
CB_2             -48.39             723.71            
MH               -63.80             716.55            
MH_2             -53.43             660.96            
MH_3             0.05               610.93            
CB_3             -95.45             711.90            
CB_4             -134.20            707.39            
CB_5             -83.85             641.54            
CB_6             -120.42            615.32            
CB_7             -53.62             539.82            
CB_8             -22.82             583.82            
CB_9             41.03              673.01            
CB_10            15.46              635.60            
CB_11            -2.33              693.41            
CB_12            -33.26             672.93            
CB_13            155.35             592.56            
MH_4             70.94              595.17            
MH_5             209.54             569.09            
MH_6             302.59             587.94            
MH_7             223.75             510.07            
MH_8             389.07             648.84            
CBH16            225.05             450.88            
CBH14            306.90             548.37            
SEN110           518.37             96.04             
SEN177           526.01             144.39            
SEN176           451.16             143.92            
SEN102           333.69             144.28            
SEN103           414.78             182.23            
SEN108           546.60             302.81            
SEN109           503.51             303.96            
SEN175           460.85             303.48            
SEN106           462.16             361.78            
SEN100           296.01             368.93            
SEN173           364.56             342.11            
SEN174           421.77             313.83            
SEN105           411.04             260.74            
SEN104           433.50             360.02            
SEN172           350.95             286.24            
SEN101           365.20             225.73            
SEN171           328.95             248.14            
SEN170           268.07             273.18            
SEN169           197.80             295.45            
SEN168A          145.91             307.30            
SEN167           31.21              269.39            
SEN168           45.55              329.08            
CB_14            65.39              569.59            
CB_15            196.02             505.37            
CB_16            250.60             508.24            
MH_9             154.63             558.86            
MH_10            123.97             571.14            
CB_17            87.93              667.77            
CB_18            79.68              616.91            
CB_19            46.61              511.36            
MH_11            -103.15            834.01            
CB_20            -154.09            898.37            
F05              -297.28            601.89            
F04              -228.33            552.80            
F03              -155.50            516.21            
F02              -92.22             494.95            
F01              -41.52             479.18            
MH_12            -21.51             382.09            
MH_13            32.41              423.39            
MH_14            85.60              441.18            
MH_15            134.41             464.74            
MH_16            -6.09              427.16            
CB_21            -98.65             773.21            
CB_22            -142.50            769.91            
CB_23            -158.00            850.46            
CB_24            -188.15            971.02            
CB_25            -188.17            905.88            
CB_26            104.44             502.53            
WW/PUMP          56.81              429.37            
MH_17            -60.89             775.32            
MH_18            -128.83            865.48            
MH_19            99.64              583.96            
WEIR             568.39             505.06            
1346             712.45             340.80            
1354             915.45             151.52            
1358             638.83             422.11            
1360             608.49             458.15            
MH_20            6.41               466.29            
MH04             469.80             688.53            
CB_27            -209.41            815.47            
SEN156           -390.86            700.95            
SEN157           -373.17            723.21            
SEN158           -369.11            734.19            
SEN159           -375.85            745.02            
SEN160           -363.96            813.71            
SEN161           -331.34            813.74            
SEN162           -320.93            750.57            
SEN013           -350.34            734.62            
SEN014           -337.54            739.04            
SEN008           -390.36            867.55            
SEN010           -370.51            867.27            
SEN011           -339.83            866.74            
SEN012           -335.81            867.45            
SEN009           -372.51            847.95            
SEN007           -324.85            871.74            
SEN163           -293.19            750.71            
SEN164           -259.45            781.23            
SEN015           -288.95            788.39            
SEN016           -256.07            723.00            
SEN004B          -316.96            917.32            
SEN004A          -310.77            892.05            
SEN004           -298.29            874.43            
SEN005           -299.28            861.12            
SEN006           -286.87            843.01            
1428             676.64             380.59            
1432             646.23             324.23            
1434             845.55             109.66            
1436             765.58             191.94            

[MAP]
DIMENSIONS -390.86 96.04 915.45 971.02
Units      None

[REPORT]
SUBCATCHMENTS ALL
NODES ALL
LINKS ALL
