;; SWMM5 .inp converted from XPSWMM .xp file
;; Generated by XPSWMM Card Reader
;; Source format: XP_CARD | Original title: (none)
;; NOTE: 2 link(s) dropped (missing endpoint): 220, 288

[TITLE]
;;Project Title/Notes
Converted from XPSWMM .xp file

[OPTIONS]
FLOW_UNITS           CFS
INFILTRATION         HORTON
FLOW_ROUTING         DYNWAVE
LINK_OFFSETS         DEPTH
MIN_SLOPE            0.0
ALLOW_PONDING        NO
SKIP_STEADY_STATE    NO
ROUTING_STEP         00:00:05
VARIABLE_STEP        0.75
INERTIAL_DAMPING     PARTIAL
NORMAL_FLOW_LIMITED  BOTH
MAX_TRIALS           50
START_DATE           01/01/2001
START_TIME           00:00:00
REPORT_START_DATE    01/01/2001
REPORT_START_TIME    00:00:00
END_DATE             01/02/2001
END_TIME             00:00:00
SWEEP_START          01/01
SWEEP_END            12/31
DRY_DAYS             0
REPORT_STEP          00:15:00
WET_STEP             00:05:00
DRY_STEP             01:00:00

[JUNCTIONS]
;;Name           Elev       MaxDepth   InitDepth  SurDepth   Aponded
;;-------------- ---------- ---------- ---------- ---------- ----------
GidInl1          56.10      0          0          0          0
GidMan1          53.80      0          0          0          0
GidInl3          53.80      0          0          0          0
210              60.00      0          0          0          0
Basin#43         60.00      0          0          0          0
Basin44          60.00      0          0          0          0
FrMan2           60.00      0          0          0          0
FrIn3            60.00      0          0          0          0
FrIn1            60.00      0          0          0          0
FrIn2            60.00      0          0          0          0
ShadMan2         60.00      0          0          0          0
ShadMan1         60.00      0          0          0          0
ShadInl1         60.00      0          0          0          0
ShadInl2         60.00      0          0          0          0
McBerInl1        60.00      0          0          0          0
WilderInl1       60.00      0          0          0          0
McBerInl2        60.00      0          0          0          0
WilderInl2       60.00      0          0          0          0
CaracMan1        60.00      0          0          0          0
Basin45          60.00      0          0          0          0
EllInl1          60.00      0          0          0          0
EllInl2          60.00      0          0          0          0
EllInl4          60.00      0          0          0          0
EllInl3          60.00      0          0          0          0
CaracInl1        60.00      0          0          0          0
CarMan1          60.00      0          0          0          0
CarInl1          60.00      0          0          0          0
CarInl2          60.00      0          0          0          0
CarMan2          60.00      0          0          0          0
CarInl3          60.00      0          0          0          0
CarInl4          60.00      0          0          0          0
CarInl5          60.00      0          0          0          0
EllMan1          60.00      0          0          0          0
LouInl1          60.00      0          0          0          0
LouInl2          60.00      0          0          0          0
EllInl5          60.00      0          0          0          0
OsbornInl1       60.00      0          0          0          0
282              60.00      0          0          0          0
PaliInl1         60.00      0          0          0          0
Basin19          60.00      0          0          0          0
PaliInl2         60.00      0          0          0          0
PaliInl4         60.00      0          0          0          0
PaliInl3         60.00      0          0          0          0
CurtisMan1       60.00      0          0          0          0
CurtisInl1       60.00      0          0          0          0
CurtisInl2       60.00      0          0          0          0
PaliInl11        60.00      0          0          0          0
PaliInl10        60.00      0          0          0          0
PaliInl9         60.00      0          0          0          0
PaliInl8         60.00      0          0          0          0
PaliInl7         60.00      0          0          0          0
PaliInl6         60.00      0          0          0          0
PaliInl5         60.00      0          0          0          0
OsbornInl4       60.00      0          0          0          0
OsbornInl3       60.00      0          0          0          0
OsbornInl2       60.00      0          0          0          0
OsbornInl        60.00      0          0          0          0
OsbornInl0       60.00      0          0          0          0
324              60.00      0          0          0          0
325              60.00      0          0          0          0
OsbornInl5       60.00      0          0          0          0
OsbornInl6       60.00      0          0          0          0
29thInl2         60.00      0          0          0          0
29thInl3         60.00      0          0          0          0
29thMan1         60.00      0          0          0          0
29thInl4         60.00      0          0          0          0
29thInl1         60.00      0          0          0          0
30thMan1         60.00      0          0          0          0
30thInl2         60.00      0          0          0          0
30thInl3         60.00      0          0          0          0
ChelsaMan1       60.00      0          0          0          0
ChelsaMan2       60.00      0          0          0          0
ChelsaMan3       60.00      0          0          0          0
ChelsaMan4       60.00      0          0          0          0
Basin1           60.00      0          0          0          0
ChelsaInl1       60.00      0          0          0          0
ChelsaInl3       60.00      0          0          0          0
ChelsaInl4       0          0          0          0          0
ChelsaMan5       0          0          0          0          0

[OUTFALLS]
;;Name           Elev       Type       Stage      Gated
;;-------------- ---------- ---------- ---------- -----
FrMan1           60.00      FREE                  NO

[CONDUITS]
;;Name           From             To               Length     Roughness  InOffset   OutOffset  InitFlow   MaxFlow
;;-------------- ---------------- ---------------- ---------- ---------- ---------- ---------- ---------- ----------
205              GidInl1          GidMan1          50.00      0.0140     51.85      49.67      0          0
206              GidMan1          GidInl3          50.00      0.0140     49.67      49.17      0          0
208              GidInl3          210              50.00      0.0140     50.00      50.00      0          0
210              210              Basin#43         50.00      0.0140     50.00      50.00      0          0
215              Basin44          FrMan2           50.00      0.0140     50.00      50.00      0          0
216              FrMan2           FrIn3            50.00      0.0140     50.00      50.00      0          0
218              FrIn3            FrMan1           50.00      0.0140     50.00      50.00      0          0
223              FrIn1            FrIn2            50.00      0.0140     50.00      50.00      0          0
224              FrIn2            Basin44          50.00      0.0140     50.00      50.00      0          0
212              Basin#43         ShadMan2         50.00      0.0140     50.00      50.00      0          0
227              ShadMan2         ShadMan1         50.00      0.0140     50.00      50.00      0          0
231              ShadInl1         ShadInl2         50.00      0.0140     50.00      50.00      0          0
232              ShadInl2         ShadMan1         50.00      0.0140     50.00      50.00      0          0
227_2            ShadMan2         McBerInl1        50.00      0.0140     50.00      50.00      0          0
235              McBerInl1        WilderInl1       50.00      0.0140     50.00      50.00      0          0
239              McBerInl2        McBerInl1        50.00      0.0140     50.00      50.00      0          0
241              WilderInl2       WilderInl1       50.00      0.0140     50.00      50.00      0          0
237              WilderInl1       CaracMan1        50.00      0.0140     50.00      50.00      0          0
243              CaracMan1        Basin45          50.00      0.0140     50.00      50.00      0          0
247              EllInl1          EllInl2          50.00      0.0140     50.00      50.00      0          0
250              EllInl4          EllInl3          50.00      0.0140     50.00      50.00      0          0
251              EllInl3          EllInl2          50.00      0.0140     50.00      50.00      0          0
248              EllInl2          Basin45          50.00      0.0140     50.00      50.00      0          0
255              CaracInl1        Basin45          50.00      0.0140     50.00      50.00      0          0
245              Basin45          CarMan1          50.00      0.0140     50.00      50.00      0          0
257              CarMan1          CarInl1          50.00      0.0140     50.00      50.00      0          0
259              CarInl1          CarInl2          50.00      0.0140     50.00      50.00      0          0
261              CarInl2          CarMan2          50.00      0.0140     50.00      50.00      0          0
263              CarMan2          CarInl3          50.00      0.0140     50.00      50.00      0          0
265              CarInl3          CarInl4          50.00      0.0140     50.00      50.00      0          0
268              CarInl4          CarInl5          50.00      0.0140     50.00      50.00      0          0
270              CarInl5          EllMan1          50.00      0.0140     50.00      50.00      0          0
272              EllMan1          LouInl1          50.00      0.0140     50.00      50.00      0          0
274              LouInl1          LouInl2          50.00      0.0140     50.00      50.00      0          0
278              EllInl5          EllMan1          50.00      0.0140     50.00      50.00      0          0
276              LouInl2          OsbornInl1       50.00      0.0140     50.00      50.00      0          0
280              OsbornInl1       282              50.00      0.0140     50.00      50.00      0          0
282              282              PaliInl1         50.00      0.0140     50.00      50.00      0          0
284              PaliInl1         Basin19          50.00      0.0140     50.00      50.00      0          0
290              PaliInl4         PaliInl3         50.00      0.0140     50.00      50.00      0          0
291              PaliInl3         PaliInl2         50.00      0.0140     50.00      50.00      0          0
294              CurtisMan1       PaliInl2         50.00      0.0140     50.00      50.00      0          0
296              CurtisInl1       CurtisMan1       50.00      0.0140     50.00      50.00      0          0
298              CurtisInl2       CurtisInl1       50.00      0.0140     50.00      50.00      0          0
300              PaliInl11        PaliInl10        50.00      0.0140     50.00      50.00      0          0
301              PaliInl10        PaliInl9         50.00      0.0140     50.00      50.00      0          0
303              PaliInl9         PaliInl8         50.00      0.0140     50.00      50.00      0          0
305              PaliInl8         PaliInl7         50.00      0.0140     50.00      50.00      0          0
307              PaliInl7         PaliInl6         50.00      0.0140     50.00      50.00      0          0
309              PaliInl6         PaliInl5         50.00      0.0140     50.00      50.00      0          0
311              PaliInl5         CurtisInl2       50.00      0.0140     50.00      50.00      0          0
314              OsbornInl4       OsbornInl3       50.00      0.0140     50.00      50.00      0          0
315              OsbornInl3       OsbornInl2       50.00      0.0140     50.00      50.00      0          0
317              OsbornInl2       OsbornInl        50.00      0.0140     50.00      50.00      0          0
319              OsbornInl        OsbornInl0       50.00      0.0140     50.00      50.00      0          0
321              OsbornInl0       CurtisInl2       50.00      0.0140     50.00      50.00      0          0
324              324              325              50.00      0.0140     50.00      50.00      0          0
325              325              OsbornInl0       50.00      0.0140     50.00      50.00      0          0
329              OsbornInl5       OsbornInl6       50.00      0.0140     50.00      50.00      0          0
330              OsbornInl6       OsbornInl0       50.00      0.0140     50.00      50.00      0          0
333              29thInl2         29thInl3         50.00      0.0140     50.00      50.00      0          0
334              29thInl3         29thMan1         50.00      0.0140     50.00      50.00      0          0
336              29thMan1         29thInl4         50.00      0.0140     50.00      50.00      0          0
338              29thInl4         Basin19          50.00      0.0140     50.00      50.00      0          0
341              29thInl1         29thInl2         50.00      0.0140     50.00      50.00      0          0
284_2            PaliInl1         30thMan1         50.00      0.0140     50.00      50.00      0          0
343              30thMan1         30thInl2         50.00      0.0140     50.00      50.00      0          0
345              30thInl2         30thInl3         50.00      0.0140     50.00      50.00      0          0
351              ChelsaMan1       ChelsaMan2       50.00      0.0140     50.00      50.00      0          0
353              ChelsaMan2       ChelsaMan3       50.00      0.0140     50.00      50.00      0          0
357              ChelsaMan4       ChelsaMan3       50.00      0.0140     50.00      50.00      0          0
355              ChelsaMan3       Basin1           50.00      0.0140     50.00      50.00      0          0
361              ChelsaInl1       ChelsaMan1       50.00      0.0140     50.00      50.00      0          0
347              30thInl3         ChelsaMan1       50.00      0.0140     50.00      50.00      0          0
364              ChelsaInl3       ChelsaMan2       50.00      0.0140     50.00      50.00      0          0
366              ChelsaInl4       ChelsaMan5       100.00     0.0130     0          0          0          0
367              ChelsaMan5       ChelsaMan4       100.00     0.0130     0          0          0          0

[XSECTIONS]
;;Link           Shape        Geom1      Geom2      Geom3      Geom4      Barrels
;;-------------- ------------ ---------- ---------- ---------- ---------- ----------
205              CIRCULAR     2.00       0          0          0          1
206              CIRCULAR     2.00       0          0          0          1
208              CIRCULAR     2.00       0          0          0          1
210              CIRCULAR     2.00       0          0          0          1
215              CIRCULAR     2.00       0          0          0          1
216              CIRCULAR     2.00       0          0          0          1
218              CIRCULAR     2.00       0          0          0          1
223              CIRCULAR     2.00       0          0          0          1
224              CIRCULAR     2.00       0          0          0          1
212              CIRCULAR     2.00       0          0          0          1
227              CIRCULAR     2.00       0          0          0          1
231              CIRCULAR     2.00       0          0          0          1
232              CIRCULAR     2.00       0          0          0          1
227_2            CIRCULAR     2.00       0          0          0          1
235              CIRCULAR     2.00       0          0          0          1
239              CIRCULAR     2.00       0          0          0          1
241              CIRCULAR     2.00       0          0          0          1
237              CIRCULAR     2.00       0          0          0          1
243              CIRCULAR     2.00       0          0          0          1
247              CIRCULAR     2.00       0          0          0          1
250              CIRCULAR     2.00       0          0          0          1
251              CIRCULAR     2.00       0          0          0          1
248              CIRCULAR     2.00       0          0          0          1
255              CIRCULAR     2.00       0          0          0          1
245              CIRCULAR     2.00       0          0          0          1
257              CIRCULAR     2.00       0          0          0          1
259              CIRCULAR     2.00       0          0          0          1
261              CIRCULAR     2.00       0          0          0          1
263              CIRCULAR     2.00       0          0          0          1
265              CIRCULAR     2.00       0          0          0          1
268              CIRCULAR     2.00       0          0          0          1
270              CIRCULAR     2.00       0          0          0          1
272              CIRCULAR     2.00       0          0          0          1
274              CIRCULAR     2.00       0          0          0          1
278              CIRCULAR     2.00       0          0          0          1
276              CIRCULAR     2.00       0          0          0          1
280              CIRCULAR     2.00       0          0          0          1
282              CIRCULAR     2.00       0          0          0          1
284              CIRCULAR     2.00       0          0          0          1
290              CIRCULAR     2.00       0          0          0          1
291              CIRCULAR     2.00       0          0          0          1
294              CIRCULAR     2.00       0          0          0          1
296              CIRCULAR     2.00       0          0          0          1
298              CIRCULAR     2.00       0          0          0          1
300              CIRCULAR     2.00       0          0          0          1
301              CIRCULAR     2.00       0          0          0          1
303              CIRCULAR     2.00       0          0          0          1
305              CIRCULAR     2.00       0          0          0          1
307              CIRCULAR     2.00       0          0          0          1
309              CIRCULAR     2.00       0          0          0          1
311              CIRCULAR     2.00       0          0          0          1
314              CIRCULAR     2.00       0          0          0          1
315              CIRCULAR     2.00       0          0          0          1
317              CIRCULAR     2.00       0          0          0          1
319              CIRCULAR     2.00       0          0          0          1
321              CIRCULAR     2.00       0          0          0          1
324              CIRCULAR     2.00       0          0          0          1
325              CIRCULAR     2.00       0          0          0          1
329              CIRCULAR     2.00       0          0          0          1
330              CIRCULAR     2.00       0          0          0          1
333              CIRCULAR     2.00       0          0          0          1
334              CIRCULAR     2.00       0          0          0          1
336              CIRCULAR     2.00       0          0          0          1
338              CIRCULAR     2.00       0          0          0          1
341              CIRCULAR     2.00       0          0          0          1
284_2            CIRCULAR     2.00       0          0          0          1
343              CIRCULAR     2.00       0          0          0          1
345              CIRCULAR     2.00       0          0          0          1
351              CIRCULAR     2.00       0          0          0          1
353              CIRCULAR     2.00       0          0          0          1
357              CIRCULAR     2.00       0          0          0          1
355              CIRCULAR     2.00       0          0          0          1
361              CIRCULAR     2.00       0          0          0          1
347              CIRCULAR     2.00       0          0          0          1
364              CIRCULAR     2.00       0          0          0          1
366              CIRCULAR     1.00       0          0          0          1
367              CIRCULAR     1.00       0          0          0          1

[LOSSES]
;;Link           Inlet      Outlet     Average    Flap Gate
;;-------------- ---------- ---------- ---------- ----------
205              0          0          0          NO
206              0          0          0          NO
208              0          0          0          NO
210              0          0          0          NO
215              0          0          0          NO
216              0          0          0          NO
218              0          0          0          NO
223              0          0          0          NO
224              0          0          0          NO
212              0          0          0          NO
227              0          0          0          NO
231              0          0          0          NO
232              0          0          0          NO
227_2            0          0          0          NO
235              0          0          0          NO
239              0          0          0          NO
241              0          0          0          NO
237              0          0          0          NO
243              0          0          0          NO
247              0          0          0          NO
250              0          0          0          NO
251              0          0          0          NO
248              0          0          0          NO
255              0          0          0          NO
245              0          0          0          NO
257              0          0          0          NO
259              0          0          0          NO
261              0          0          0          NO
263              0          0          0          NO
265              0          0          0          NO
268              0          0          0          NO
270              0          0          0          NO
272              0          0          0          NO
274              0          0          0          NO
278              0          0          0          NO
276              0          0          0          NO
280              0          0          0          NO
282              0          0          0          NO
284              0          0          0          NO
290              0          0          0          NO
291              0          0          0          NO
294              0          0          0          NO
296              0          0          0          NO
298              0          0          0          NO
300              0          0          0          NO
301              0          0          0          NO
303              0          0          0          NO
305              0          0          0          NO
307              0          0          0          NO
309              0          0          0          NO
311              0          0          0          NO
314              0          0          0          NO
315              0          0          0          NO
317              0          0          0          NO
319              0          0          0          NO
321              0          0          0          NO
324              0          0          0          NO
325              0          0          0          NO
329              0          0          0          NO
330              0          0          0          NO
333              0          0          0          NO
334              0          0          0          NO
336              0          0          0          NO
338              0          0          0          NO
341              0          0          0          NO
284_2            0          0          0          NO
343              0          0          0          NO
345              0          0          0          NO
351              0          0          0          NO
353              0          0          0          NO
357              0          0          0          NO
355              0          0          0          NO
361              0          0          0          NO
347              0          0          0          NO
364              0          0          0          NO
366              0          0          0          NO
367              0          0          0          NO

[COORDINATES]
;;Node           X-Coord            Y-Coord
;;-------------- ------------------ ------------------
GidInl1          7.64               117.64            
GidMan1          7.64               127.64            
GidInl3          7.64               137.64            
210              7.64               147.64            
Basin#43         17.64              147.64            
Basin44          17.64              207.64            
FrMan2           27.64              207.64            
FrIn3            27.64              177.64            
FrMan1           17.64              157.64            
FrIn1            27.64              237.64            
FrIn2            27.64              217.64            
ShadMan2         37.64              147.64            
ShadMan1         37.64              157.64            
ShadInl1         37.64              187.64            
ShadInl2         37.64              177.64            
McBerInl1        57.64              147.64            
WilderInl1       67.64              147.64            
McBerInl2        57.64              177.64            
WilderInl2       67.64              177.64            
CaracMan1        87.64              147.64            
Basin45          97.64              137.64            
EllInl1          107.64             117.64            
EllInl2          107.64             137.64            
EllInl4          107.64             177.64            
EllInl3          107.64             157.64            
CaracInl1        87.64              137.64            
CarMan1          97.64              127.64            
CarInl1          87.64              127.64            
CarInl2          77.64              127.64            
CarMan2          77.64              107.64            
CarInl3          77.64              87.64             
CarInl4          77.64              67.64             
CarInl5          77.64              47.64             
EllMan1          107.64             47.64             
LouInl1          117.64             47.64             
LouInl2          137.64             47.64             
EllInl5          107.64             37.64             
OsbornInl1       157.64             47.64             
282              177.64             47.64             
PaliInl1         197.64             47.64             
Basin19          197.64             37.64             
PaliInl2         197.64             77.64             
PaliInl4         207.64             107.64            
PaliInl3         207.64             77.64             
CurtisMan1       177.64             77.64             
CurtisInl1       177.64             107.64            
CurtisInl2       177.64             137.64            
PaliInl11        197.64             197.64            
PaliInl10        197.64             187.64            
PaliInl9         197.64             177.64            
PaliInl8         197.64             167.64            
PaliInl7         197.64             157.64            
PaliInl6         197.64             147.64            
PaliInl5         197.64             137.64            
OsbornInl4       167.64             197.64            
OsbornInl3       167.64             187.64            
OsbornInl2       167.64             177.64            
OsbornInl        167.64             157.64            
OsbornInl0       167.64             137.64            
324              167.64             97.64             
325              167.64             117.64            
OsbornInl5       127.64             137.64            
OsbornInl6       147.64             137.64            
29thInl2         237.64             27.64             
29thInl3         227.64             27.64             
29thMan1         217.64             27.64             
29thInl4         207.64             27.64             
29thInl1         247.64             27.64             
30thMan1         207.64             57.64             
30thInl2         227.64             57.64             
30thInl3         247.64             57.64             
ChelsaMan1       247.64             97.64             
ChelsaMan2       267.64             97.64             
ChelsaMan3       267.64             127.64            
ChelsaMan4       267.64             157.64            
Basin1           277.64             127.64            
ChelsaInl1       247.64             117.64            
ChelsaInl3       277.64             87.64             
ChelsaInl4       247.64             177.64            
ChelsaMan5       247.64             157.64            

[MAP]
DIMENSIONS 7.64 27.64 277.64 237.64
Units      None

[REPORT]
SUBCATCHMENTS ALL
NODES ALL
LINKS ALL
