;; SWMM5 .inp converted from XPSWMM .xp file
;; Generated by XPSWMM Card Reader
;; Source format: XP_CARD | Original title: (none)
;; NOTE: 12 link(s) dropped (missing endpoint): 01, 03, 05, 09, 10, 11, 13, 15, 18, 20, 21, 25

[TITLE]
;;Project Title/Notes
Converted from XPSWMM .xp file

[OPTIONS]
FLOW_UNITS           CFS
INFILTRATION         HORTON
FLOW_ROUTING         DYNWAVE
LINK_OFFSETS         DEPTH
MIN_SLOPE            0.0
ALLOW_PONDING        NO
SKIP_STEADY_STATE    NO
ROUTING_STEP         00:00:15
VARIABLE_STEP        0.75
INERTIAL_DAMPING     PARTIAL
NORMAL_FLOW_LIMITED  BOTH
MAX_TRIALS           50
HEAD_TOLERANCE       0.0033
START_DATE           01/01/2001
START_TIME           00:00:00
REPORT_START_DATE    01/01/2001
REPORT_START_TIME    00:00:00
END_DATE             01/02/2001
END_TIME             00:00:00
SWEEP_START          01/01
SWEEP_END            12/31
DRY_DAYS             0
REPORT_STEP          00:15:00
WET_STEP             00:05:00
DRY_STEP             01:00:00

[JUNCTIONS]
;;Name           Elev       MaxDepth   InitDepth  SurDepth   Aponded
;;-------------- ---------- ---------- ---------- ---------- ----------
BA1              0          0          0          0          0
BA2a             0          0          0          0          0
ovfl1a           0          0          0          0          0
BA3              0          0          0          0          0
ovfl2            0          0          0          0          0
BA4a             0          0          0          0          0
BA2b             0          0          0          0          0
BA2c             0          0          0          0          0
BA4b             0          0          0          0          0
ovfl1b           0          0          0          0          0
r365             0          0          0          0          0
CSO              0          0          0          0          0
CSO_2            0          0          0          0          0
CSO_3            0          0          0          0          0
CSO_4            0          0          0          0          0
CSO_5            0          0          0          0          0
CSO_6            0          0          0          0          0
A3b              0          0          0          0          0
A1c              0          0          0          0          0
r36              0          0          0          0          0
rNA              0          0          0          0          0
A4               0          0          0          0          0
r24              0          0          0          0          0
r22              0          0          0          0          0
A6e              0          0          0          0          0
A7e              0          0          0          0          0
A8               50.00      0          0          0          0
d15              0          0          0          0          0
r8               0          0          0          0          0
r3               0          0          0          0          0
r3_2             0          0          0          0          0
CSO_7            0          0          0          0          0
CSO_8            0          0          0          0          0
A5               0          0          0          0          0
A2               0          0          0          0          0
A1b              0          0          0          0          0
A3a              0          0          0          0          0
A6a              0          0          0          0          0
A6b              0          0          0          0          0
A6c              0          0          0          0          0
A6d              0          0          0          0          0
A7a              0          0          0          0          0
A7b              0          0          0          0          0
A7c              0          0          0          0          0
A7d              0          0          0          0          0
CSO_9            0          0          0          0          0
PR1a             0          0          0          0          0
PR1b             0          0          0          0          0
PR1c             0          0          0          0          0
PR1d             0          0          0          0          0
PR1e             0          0          0          0          0
PR1f             0          0          0          0          0
PR2b             0          0          0          0          0
PR2c             0          0          0          0          0
PR2d             0          0          0          0          0
PR2e             0          0          0          0          0
PR2f             0          0          0          0          0
d413             0          0          0          0          0
PRI2b            0          0          0          0          0
PRI3d            0          0          0          0          0
PRI4             0          0          0          0          0
PRI2a            0          0          0          0          0
PRI3a            0          0          0          0          0
PRI3b            0          0          0          0          0
PRI3c            0          0          0          0          0
E2a              0          0          0          0          0
DIV              0          0          0          0          0
CSO_10           0          0          0          0          0
E3a              0          0          0          0          0
E4               0          0          0          0          0
E5a              0          0          0          0          0
E2b              0          0          0          0          0
E2c              0          0          0          0          0
E2d              0          0          0          0          0
E2e              0          0          0          0          0
E3b              0          0          0          0          0
E5b              0          0          0          0          0
CSO_11           0          0          0          0          0
CSO_12           0          0          0          0          0
CSO_13           0          0          0          0          0
CSO_14           0          0          0          0          0
CSO_15           0          0          0          0          0
CSO_16           0          0          0          0          0
CSO_17           0          0          0          0          0
CSO_18           0          0          0          0          0
CSO_19           0          0          0          0          0
CSO_20           0          0          0          0          0
C1               0          0          0          0          0
CSO_21           0          0          0          0          0
CSO_22           50.00      0          0          0          0
C2b              0          0          0          0          0
C3               0          0          0          0          0
C4               0          0          0          0          0
C5               0          0          0          0          0
C6               0          0          0          0          0
r134             0          0          0          0          0
d131             0          0          0          0          0
d128             0          0          0          0          0
d126             0          0          0          0          0
d122             0          0          0          0          0
C7               0          0          0          0          0
r117             0          0          0          0          0
C8               0          0          0          0          0
d115             0          0          0          0          0
C9               0          0          0          0          0
r111             0          0          0          0          0
C10b             0          0          0          0          0
DC               0          0          0          0          0
C11              0          0          0          0          0
r107             0          0          0          0          0
C12              0          0          0          0          0
C13              0          0          0          0          0
C14              50.00      0          0          0          0
r100             50.00      0          0          0          0
sc               50.00      0          0          0          0
C2a              0          0          0          0          0
C10a             0          0          0          0          0
B6               50.00      0          0          0          0
r37              0          0          0          0          0
CSO_23           0          0          0          0          0
B5               0          0          0          0          0
d39              0          0          0          0          0
CSO_24           0          0          0          0          0
B4               0          0          0          0          0
r42              0          0          0          0          0
CSO_25           0          0          0          0          0
B3               0          0          0          0          0
r47              0          0          0          0          0
cso_26           0          0          0          0          0
B2               0          0          0          0          0
B1               0          0          0          0          0
r141             0          0          0          0          0
SR               0          0          0          0          0
CSO_27           0          0          0          0          0
CR2a             0          0          0          0          0
CR2b             0          0          0          0          0
CR4b             0          0          0          0          0
D2               0          0          0          0          0
d2_2             0          0          0          0          0
D3               0          0          0          0          0
d3_2             0          0          0          0          0
D6               0          0          0          0          0
r238             0          0          0          0          0
CSO_28           0          0          0          0          0
D7               0          0          0          0          0
d7_2             0          0          0          0          0
D1c              0          0          0          0          0
D5               0          0          0          0          0
S2a              0          0          0          0          0
S3a              0          0          0          0          0
S4               0          0          0          0          0
REG              0          0          0          0          0
CSO_29           0          0          0          0          0
DIV_2            0          0          0          0          0
CSO_30           0          0          0          0          0
CSO_31           0          0          0          0          0
S2b              0          0          0          0          0
S5b              0          0          0          0          0
FR4b             0          0          0          0          0
FR4c             0          0          0          0          0
FR4e             0          0          0          0          0
FR4d             0          0          0          0          0
r1               0          0          0          0          0
CSO_32           0          0          0          0          0
Sr3              0          0          0          0          0
Sr4              0          0          0          0          0
Sr5              0          0          0          0          0
Sr6              0          0          0          0          0
Sr7              0          0          0          0          0
Sr8              0          0          0          0          0
Sr9              0          0          0          0          0
Sr10             0          0          0          0          0
Sr11             0          0          0          0          0
Sr12             0          0          0          0          0
Sr13             0          0          0          0          0
Sr14             0          0          0          0          0
Sr15             0          0          0          0          0
r360             0          0          0          0          0
Sr16             0          0          0          0          0
Sr17             0          0          0          0          0
Sr18             0          0          0          0          0
Sr19             0          0          0          0          0
Sr20             0          0          0          0          0
Sr21             0          0          0          0          0
Sr22             0          0          0          0          0
Sr23             0          0          0          0          0
Sr24             0          0          0          0          0
CSO_33           0          0          0          0          0
cso_34           0          0          0          0          0
CSO_35           0          0          0          0          0
Ci1              0          0          0          0          0
Ci2              0          0          0          0          0
Ci3              0          0          0          0          0
Ci4              0          0          0          0          0
Ci5              0          0          0          0          0
Ci6              0          0          0          0          0
Ci7              0          0          0          0          0
Ci8              0          0          0          0          0
Ci9              0          0          0          0          0
Ci10             0          0          0          0          0
Ci11             0          0          0          0          0
Ci12             0          0          0          0          0
Ci13             0          0          0          0          0
Ci14             0          0          0          0          0
CSO_36           0          0          0          0          0
CSO_37           0          0          0          0          0
CSO_38           0          0          0          0          0
E3c              0          0          0          0          0
S5a              0          0          0          0          0
GRR              0          0          0          0          0
S2c              0          0          0          0          0
S3b              0          0          0          0          0
ps               50.00      0          0          0          0
pe               30.00      0          0          0          0
r1_2             0          0          0          0          0
Sr8_2            0          0          0          0          0
r360_2           0          0          0          0          0
r134_2           0          0          0          0          0
d131_2           0          0          0          0          0
d128_2           0          0          0          0          0
d126_2           0          0          0          0          0
d122_2           0          0          0          0          0
r117_2           0          0          0          0          0
d115_2           0          0          0          0          0
r111_2           0          0          0          0          0
d3s              0          0          0          0          0
d2s              0          0          0          0          0
r107_2           0          0          0          0          0
r100_2           50.00      0          0          0          0
d39_2            0          0          0          0          0
r42_2            0          0          0          0          0
r47_2            0          0          0          0          0
r37_2            0          0          0          0          0
REG_2            0          0          0          0          0
DIV_3            0          0          0          0          0
GRR_2            0          0          0          0          0
r365_2           0          0          0          0          0
BA1_2            0          0          0          0          0
r36_2            0          0          0          0          0
rNA_2            0          0          0          0          0
r24_2            0          0          0          0          0
r22_2            0          0          0          0          0
d15_2            0          0          0          0          0
d413_2           0          0          0          0          0
r8_2             0          0          0          0          0
r3_3             0          0          0          0          0
dNA              0          0          0          0          0
r238_2           0          0          0          0          0
B1_2             0          0          0          0          0
Node_95          0          0          0          0          0
Node_1034608     0          0          0          0          0
no2              0          0          0          0          0
no3l             0          0          0          0          0

[OUTFALLS]
;;Name           Elev       Type       Stage      Gated
;;-------------- ---------- ---------- ---------- -----
FM1a             30.00      FREE                  NO

[CONDUITS]
;;Name           From             To               Length     Roughness  InOffset   OutOffset  InitFlow   MaxFlow
;;-------------- ---------------- ---------------- ---------- ---------- ---------- ---------- ---------- ----------
p                BA1              BA2a             174.00     0.0130     48.20      47.68      0          0
p_2              BA1              ovfl1a           174.00     0.0130     48.20      47.99      0          0
p_3              BA3              BA4a             978.00     0.0130     43.20      40.27      0          0
p_4              BA2a             BA2b             504.00     0.0130     47.68      46.17      0          0
p_5              BA2b             BA2c             123.00     0.0130     46.17      46.06      0          0
p_6              BA2c             BA3              943.00     0.0130     46.06      43.20      0          0
p_7              BA4a             BA4b             711.00     0.0130     40.27      38.13      0          0
1                BA4b             A1b              400.00     0.0130     38.13      33.90      0          0
p_8              ovfl1a           ovfl1b           300.00     0.0130     47.99      44.72      0          0
p_9              ovfl1b           ovfl2            1275.00    0.0130     43.20      32.87      0          0
to               r365             CSO              150.00     0.0130     42.38      38.63      0          0
to_2             r365             BA4a             89.00      0.0130     46.50      42.38      0          0
to_3             r36              CSO              75.00      0.0130     44.23      43.48      0          0
to_4             r36              A1c              140.00     0.0130     44.23      36.98      0          0
to_5             rNA              CSO              20.00      0.0130     29.50      28.30      0          0
to_6             rNA              A3b              50.00      0.0130     29.50      28.00      0          0
to_7             r24              CSO              150.00     0.0130     30.08      29.70      0          0
to_8             r24              A4               50.00      0.0130     28.75      27.10      0          0
to_9             r22              CSO              550.00     0.0130     26.93      13.18      0          0
to_10            r22              A5               50.00      0.0130     26.93      26.08      0          0
to_11            d15              A6e              50.00      0.0130     24.33      22.46      0          0
to_12            d15              CSO              70.00      0.0130     25.39      24.89      0          0
to_13            r8               CSO              260.00     0.0130     10.34      9.40       0          0
to_14            r8               A7e              50.00      0.0130     9.40       8.13       0          0
to_15            r3               r3               198.00     0.0130     10.72      9.87       0          0
to_16            r3               CSO              30.00      0.0130     9.87       9.83       0          0
to_17            r3               A8               50.00      0.0130     7.40       5.40       0          0
A5-a             A4               A5               1728.00    0.0130     26.82      24.40      0          0
p_10             A3b              A4               844.00     0.0130     28.00      26.82      0          0
p_11             A1c              A2               1742.00    0.0130     33.40      29.22      0          0
p_12             A7e              A8               1036.00    0.0130     6.54       5.40       0          0
p_13             A1b              A1c              208.00     0.0130     33.90      33.40      0          0
p_14             A2               A3a              321.00     0.0130     29.22      28.45      0          0
p_15             A3a              A3b              321.00     0.0130     28.45      28.00      0          0
p_16             A5               A6a              193.00     0.0130     24.40      24.13      0          0
p_17             A6a              A6b              20.00      0.0130     24.13      23.82      0          0
p_18             A6b              A6c              175.00     0.0130     23.82      22.84      0          0
p_19             A6c              A6d              20.00      0.0130     22.84      22.04      0          0
p_20             A6d              A6e              480.00     0.0130     22.04      21.32      0          0
p_21             A6e              A7a              613.00     0.0130     21.32      20.40      0          0
p_22             A7a              A7b              20.00      0.0130     20.40      18.94      0          0
p_23             A7b              A7c              530.00     0.0130     18.94      13.64      0          0
pipe             A7c              A7d              655.00     0.0130     13.64      10.04      0          0
p_24             A7d              A7e              20.00      0.0130     10.04      6.54       0          0
p_25             PR1a             PR1b             348.00     0.0130     42.10      39.30      0          0
p_26             PR1b             PR1c             8.00       0.0130     39.30      38.00      0          0
p_27             PR1c             PR1d             366.00     0.0130     38.00      33.80      0          0
p_28             PR1d             PR1e             363.00     0.0130     33.70      31.28      0          0
p_29             PR1e             PR1f             470.00     0.0130     31.25      28.12      0          0
p_30             PR1f             PR2b             292.00     0.0130     28.12      25.80      0          0
p_31             PR2b             PR2c             228.00     0.0130     24.00      23.30      0          0
p_32             PR2c             PR2d             526.00     0.0130     23.30      19.10      0          0
p_33             PR2d             PR2e             133.00     0.0130     19.10      12.25      0          0
p_34             PR2e             PR2f             55.00      0.0130     12.25      11.00      0          0
p_35             PR2f             CSO              470.00     0.0130     11.00      10.00      0          0
p_36             PRI3d            PRI4             370.00     0.0130     15.24      14.13      0          0
p_37             PRI4             r8               1262.00    0.0130     14.13      10.34      0          0
to_18            d413             PR1a             120.00     0.0130     44.26      42.10      0          0
p_38             d413             PRI2a            250.00     0.0130     43.75      43.00      0          0
p_39             PRI2a            PRI2b            25.00      0.0130     43.00      42.77      0          0
p_40             PRI2b            PRI3a            650.00     0.0130     42.77      30.42      0          0
p_41             PRI3a            PRI3b            725.00     0.0130     30.42      23.90      0          0
p_42             PRI3b            PRI3c            224.00     0.0130     23.90      19.87      0          0
p_43             PRI3c            PRI3d            351.00     0.0130     19.87      15.24      0          0
to_19            DIV              E2a              647.00     0.0130     23.28      22.50      0          0
to_20            DIV              CSO              24.00      0.0130     23.28      23.08      0          0
p_44             E4               E5a              520.00     0.0130     12.48      11.96      0          0
p_45             E2a              E2b              692.00     0.0130     21.50      21.35      0          0
p_46             E2b              E2c              1904.00    0.0130     21.15      20.24      0          0
p_47             E2c              E2d              75.00      0.0130     20.24      16.85      0          0
p_48             E2d              E2e              790.00     0.0130     16.85      16.45      0          0
p_49             E2e              E3a              408.00     0.0130     16.45      16.25      0          0
p_50             E3a              E3b              453.00     0.0130     15.78      14.23      0          0
p_51             E3b              E3c              470.00     0.0130     14.23      12.78      0          0
p_52             E5a              E5b              496.00     0.0130     11.96      11.52      0          0
p_53             E5b              r3               209.00     0.0130     11.52      10.72      0          0
p_54             r141             C1               2308.00    0.0130     13.17      11.32      0          0
p_55             C2b              C3               223.00     0.0130     10.84      10.71      0          0
p_56             C3               C4               195.00     0.0130     10.71      10.61      0          0
p_57             C4               C5               255.00     0.0130     10.61      10.46      0          0
p_58             C5               C6               278.00     0.0130     10.46      10.31      0          0
to_21            r134             C2b              20.00      0.0130     14.85      13.87      0          0
to_22            d131             C3               50.00      0.0130     15.98      14.96      0          0
to_23            d128             C4               20.00      0.0130     16.65      14.86      0          0
to_24            d126             C5               3.33       0.0130     15.16      14.71      0          0
to_25            d122             C6               35.00      0.0130     15.52      14.57      0          0
to_26            r134             CSO              270.00     0.0130     14.73      12.20      0          0
to_27            d131             CSO              210.00     0.0130     16.98      14.90      0          0
to_28            d128             CSO              185.00     0.0130     17.65      14.40      0          0
to_29            d126             CSO              160.00     0.0130     16.16      13.11      0          0
to_30            d122             CSO              185.00     0.0130     16.52      12.70      0          0
p_59             C6               C7               1274.00    0.0130     10.31      9.59       0          0
to_31            r117             C7               23.00      0.0130     13.10      12.70      0          0
to_32            r117             CSO              260.00     0.0130     14.02      12.70      0          0
p_60             C7               C8               968.00     0.0130     9.59       9.01       0          0
to_33            d115             C8               20.00      0.0130     15.13      12.84      0          0
to_34            d115             CSO              90.00      0.0130     16.18      14.02      0          0
to_35            r111             C9               35.00      0.0130     14.70      12.74      0          0
p_61             C8               C9               268.00     0.0130     9.01       8.85       0          0
to_36            r111             CSO              220.00     0.0130     15.08      13.90      0          0
p_62             C10b             C11              340.00     0.0130     7.96       7.74       0          0
siphon           DC               C10b             400.00     0.0130     11.54      9.98       0          0
to_37            r107             C11              20.00      0.0130     18.30      12.24      0          0
to_38            C10b             CSO              50.00      0.0130     7.96       7.96       0          0
p_63             C11              C12              793.00     0.0130     7.74       7.21       0          0
p_64             C12              C13              262.00     0.0130     7.21       7.04       0          0
p_65             C13              C14              520.00     0.0130     7.04       6.70       0          0
to_39            r100             C14              22.00      0.0130     13.60      8.86       0          0
p_66             C14              sc               568.00     0.0130     6.70       6.32       0          0
to_40            r107             CSO              500.00     0.0130     19.90      14.65      0          0
to_41            r100             CSO              22.60      0.0130     14.44      14.12      0          0
sb               sc               ps               347.00     0.0130     3.82       2.89       0          0
cso19            sc               CSO              100.00     0.0130     6.32       6.31       0          0
p_67             C1               C2a              133.00     0.0130     11.32      10.90      0          0
p_68             C2a              C2b              20.00      0.0130     10.90      10.84      0          0
p_69             C9               C10a             825.00     0.0130     8.85       8.36       0          0
p_70             C10a             C10b             20.00      0.0130     8.36       7.96       0          0
p_71             B6               sc               525.00     0.0130     7.32       6.32       0          0
to_42            r37              B6               20.00      0.0130     9.39       8.82       0          0
to_43            r37              CSO              117.00     0.0130     9.39       8.06       0          0
p_72             B5               B6               732.00     0.0130     10.35      7.32       0          0
to_44            d39              CSO              30.00      0.0130     12.30      11.10      0          0
to_45            d39              B5               50.00      0.0130     12.30      11.30      0          0
p_73             B4               B5               206.00     0.0130     11.20      10.35      0          0
to_46            r42              B4               50.00      0.0130     11.38      11.20      0          0
to_47            r42              CSO              20.00      0.0130     11.38      11.20      0          0
230.1            B3               B4               652.00     0.0130     12.50      11.20      0          0
to_48            r47              cso_26           113.00     0.0130     13.49      12.74      0          0
to_49            r47              B3               51.00      0.0130     13.49      12.50      0          0
p_74             B1               B2               580.00     0.0130     15.00      14.08      0          0
p_75             B2               B3               467.00     0.0130     14.08      12.50      0          0
to_50            r141             CSO              705.00     0.0130     14.89      12.50      0          0
p_76             SR               r141             100.00     0.0130     18.94      18.61      0          0
p_77             CR2a             CR2b             202.00     0.0130     17.18      15.50      0          0
p_78             CR2b             r141             20.00      0.0130     15.50      15.33      0          0
p_79             CR4b             CR2a             285.00     0.0130     18.41      17.18      0          0
to_51            r238             CSO              1000.00    0.0130     13.30      8.30       0          0
p_80             D2               D3               218.00     0.0130     12.53      12.44      0          0
p_81             D3               D6               605.00     0.0130     12.44      12.20      0          0
to_52            d3_2             D3               64.00      0.0130     15.75      14.23      0          0
to_53            d2_2             D2               868.00     0.0130     14.04      13.00      0          0
p_82             D6               D7               309.00     0.0130     12.00      11.79      0          0
to_54            D7               DC               359.00     0.0130     11.79      11.54      0          0
to_55            d7_2             D7               1260.00    0.0130     15.13      13.62      0          0
p_83             D1c              D2               5880.00    0.0130     14.87      12.53      0          0
p_84             r238             D5               4.00       0.0130     13.30      13.30      0          0
p_85             D5               D6               2200.00    0.0130     13.30      12.20      0          0
p_86             S3a              S3b              770.00     0.0130     29.56      28.02      0          0
p_87             S4               S5a              1770.00    0.0130     26.56      23.02      0          0
to_56            GRR              CSO              75.00      0.0130     30.06      28.93      0          0
to_57            DIV              S4               50.00      0.0130     27.06      26.56      0          0
to_58            DIV              CSO              50.00      0.0130     27.06      24.56      0          0
to_59            REG              CSO              50.00      0.0130     23.52      21.52      0          0
p_88             ovfl2            S2a              751.00     0.0130     37.28      34.61      0          0
p_89             S2a              S2b              505.00     0.0130     34.61      33.00      0          0
p_90             S2b              S2c              1135.00    0.0130     33.00      31.75      0          0
p_91             S5a              S5b              560.00     0.0130     23.02      21.10      0          0
pipe_2           S5b              B1               453.00     0.0130     21.10      16.10      0          0
p_92             r360             FR4b             53.00      0.0130     72.60      70.77      0          0
p_93             FR4b             FR4c             170.00     0.0130     70.77      64.89      0          0
p_94             FR4c             FR4d             151.00     0.0130     64.39      62.83      0          0
p_95             FR4d             FR4e             456.00     0.0130     62.53      58.15      0          0
p_96             FR4e             CSO              108.00     0.0130     57.15      55.64      0          0
to_60            r1               CSO              60.00      0.0130     117.67     116.86     0          0
p_97             r1               Sr3              90.00      0.0130     117.67     116.98     0          0
p_98             Sr3              Sr4              10.00      0.0130     116.98     116.48     0          0
p_99             Sr4              Sr5              104.00     0.0130     116.48     115.77     0          0
p_100            Sr5              Sr6              10.00      0.0130     115.77     115.27     0          0
p_101            Sr6              Sr7              2019.00    0.0130     108.97     102.11     0          0
p_102            Sr7              Sr8              1114.00    0.0130     102.11     96.18      0          0
p_103            Sr8              Sr9              10.00      0.0130     97.47      97.36      0          0
p_104            Sr9              Sr10             242.00     0.0130     97.35      94.60      0          0
816.1            Sr10             Sr11             357.00     0.0130     92.10      89.83      0          0
p_105            Sr11             Sr12             10.00      0.0130     92.33      91.83      0          0
p_106            Sr12             Sr13             268.00     0.0130     91.83      90.16      0          0
p_107            Sr13             Sr14             922.00     0.0130     90.16      84.56      0          0
p_108            Sr14             Sr15             299.00     0.0130     84.56      82.75      0          0
to_61            r360             Sr15             24.00      0.0130     78.00      76.42      0          0
p_109            Sr15             Sr16             276.00     0.0130     73.50      71.55      0          0
p_110            Sr16             Sr17             271.00     0.0130     71.55      69.36      0          0
p_111            Sr17             Sr18             842.00     0.0130     69.36      62.56      0          0
p_112            Sr18             Sr19             794.00     0.0130     62.56      58.34      0          0
p_113            Sr19             Sr20             1824.00    0.0130     58.34      48.69      0          0
p_114            Sr20             Sr21             291.00     0.0130     48.69      47.10      0          0
p_115            Sr21             Sr22             10.00      0.0130     47.10      46.43      0          0
p_116            Sr22             Sr23             980.00     0.0130     46.43      40.12      0          0
p_117            Sr23             Sr24             10.00      0.0130     40.12      39.62      0          0
p_118            Sr24             Ci1              1346.00    0.0130     39.62      31.04      0          0
Ato11th          A8               ps               150.00     0.0130     5.40       5.39       0          0
to_62            B1               cso_26           100.00     0.0130     15.00      11.00      0          0
to_63            Sr8              CSO              100.00     0.0130     96.18      94.18      0          0
p_119            Ci1              Ci2              230.00     0.0130     30.20      28.71      0          0
p_120            Ci2              Ci3              5.00       0.0130     28.71      27.71      0          0
p_121            Ci3              Ci4              210.00     0.0130     27.71      27.29      0          0
p_122            Ci4              Ci5              242.00     0.0130     27.29      26.80      0          0
p_123            Ci5              Ci6              230.00     0.0130     26.80      26.32      0          0
p_124            Ci6              Ci7              368.00     0.0130     26.32      25.54      0          0
p_125            Ci7              Ci8              182.00     0.0130     25.54      25.15      0          0
p_126            Ci8              Ci9              317.00     0.0130     25.15      24.52      0          0
p_127            Ci9              Ci10             354.00     0.0130     24.52      23.81      0          0
p_128            Ci10             Ci11             716.00     0.0130     23.81      22.31      0          0
p_129            Ci11             Ci12             348.00     0.0130     22.31      21.58      0          0
p_130            Ci12             Ci13             500.00     0.0130     21.58      20.49      0          0
p_131            Ci13             Ci14             195.00     0.0130     20.49      19.26      0          0
p_132            Ci14             CR4b             265.00     0.0130     19.26      18.41      0          0
to_64            D7               CSO              50.00      0.0130     11.79      11.79      0          0
to_65            d3_2             CSO              880.00     0.0130     14.04      9.64       0          0
p_133            E3c              E4               62.50      0.0130     12.78      12.48      0          0
to_66            REG              S5a              50.00      0.0130     23.52      23.02      0          0
to_67            GRR              S3a              50.00      0.0130     30.06      29.56      0          0
p_134            S2c              S3a              625.00     0.0130     31.75      29.56      0          0
p_135            S3b              S4               180.00     0.0130     28.02      26.56      0          0
750              r1               r1               10.00      0.0130     117.70     117.67     0          0
752              Sr8              Sr8              10.00      0.0130     97.50      97.47      0          0
754              r360             r360             10.00      0.0130     78.03      78.00      0          0
762              r134             r134             10.00      0.0130     14.88      14.85      0          0
763              d131             d131             10.00      0.0130     16.01      15.98      0          0
764              d128             d128             10.00      0.0130     17.68      17.65      0          0
765              d126             d126             10.00      0.0130     16.19      16.16      0          0
766              d122             d122             10.00      0.0130     16.55      16.52      0          0
770              r117             r117             10.00      0.0130     14.05      14.02      0          0
771              d115             d115             10.00      0.0130     16.21      16.18      0          0
772              r111             r111             10.00      0.0130     15.11      15.08      0          0
775              d3s              d3_2             10.00      0.0130     15.78      15.75      0          0
776              d2s              d2_2             10.00      0.0130     15.78      15.75      0          0
780              r107             r107             10.00      0.0130     19.93      19.90      0          0
782              r100             r100             10.00      0.0130     14.47      14.44      0          0
787              r37              r37              10.00      0.0130     9.42       9.39       0          0
788              d39              d39              10.00      0.0130     12.33      12.30      0          0
789              r42              r42              10.00      0.0130     11.41      11.38      0          0
790              r47              r47              10.00      0.0130     13.52      13.49      0          0
796              REG              REG              10.00      0.0130     23.55      23.52      0          0
797              DIV              DIV              10.00      0.0130     27.09      27.06      0          0
799              GRR              GRR              10.00      0.0130     30.09      30.06      0          0
95               Node_95          Node_1034608     10.00      0.0130     0          0          0          0
1047.1           pe               FM1a             1197.00    0.0130     18.50      8.92       0          0
o                d2_2             CSO              1000.00    0.0130     15.75      10.75      0          0

[PUMPS]
;;Name           From             To               PumpCurve  Status   Startup    Shutoff
;;-------------- ---------------- ---------------- ---------- -------- ---------- ----------
no1              no2              no3l             PC_no1     ON       10.25      8.25      

[CURVES]
;;Name           Type       X-Value    Y-Value
;;-------------- ---------- ---------- ----------
;; Synthesized generic pump curves — replace with actual pump data
PC_no1           Pump1      0          5
PC_no1                      10         10

[XSECTIONS]
;;Link           Shape        Geom1      Geom2      Geom3      Geom4      Barrels
;;-------------- ------------ ---------- ---------- ---------- ---------- ----------
p                CIRCULAR     3.50       0          0          0          1
p_2              CIRCULAR     1.67       0          0          0          1
p_3              CIRCULAR     3.50       0          0          0          1
p_4              CIRCULAR     3.50       0          0          0          1
p_5              CIRCULAR     3.50       0          0          0          1
p_6              CIRCULAR     3.50       0          0          0          1
p_7              CIRCULAR     3.50       0          0          0          1
1                CIRCULAR     3.24       0          0          0          1
p_8              CIRCULAR     1.67       0          0          0          1
p_9              CIRCULAR     1.67       0          0          0          1
to               CIRCULAR     6.00       0          0          0          1
to_2             CIRCULAR     1.67       0          0          0          1
to_3             CIRCULAR     6.00       0          0          0          1
to_4             CIRCULAR     1.25       0          0          0          1
to_5             CIRCULAR     2.50       0          0          0          1
to_6             CIRCULAR     0.83       0          0          0          1
to_7             CIRCULAR     3.00       0          0          0          1
to_8             CIRCULAR     1.00       0          0          0          1
to_9             CIRCULAR     5.00       0          0          0          1
to_10            CIRCULAR     1.00       0          0          0          1
to_11            CIRCULAR     0.67       0          0          0          1
to_12            CIRCULAR     2.00       0          0          0          1
to_13            CIRCULAR     9.25       0          0          0          1
to_14            CIRCULAR     2.25       0          0          0          1
to_15            CIRCULAR     6.00       0          0          0          1
to_16            CIRCULAR     6.00       0          0          0          1
to_17            CIRCULAR     2.00       0          0          0          1
A5-a             CIRCULAR     4.50       0          0          0          1
p_10             CIRCULAR     4.50       0          0          0          1
p_11             CIRCULAR     4.00       0          0          0          1
p_12             CIRCULAR     5.00       0          0          0          1
p_13             CIRCULAR     4.00       0          0          0          1
p_14             CIRCULAR     4.00       0          0          0          1
p_15             CIRCULAR     4.50       0          0          0          1
p_16             CIRCULAR     4.50       0          0          0          1
p_17             CIRCULAR     3.50       0          0          0          1
p_18             CIRCULAR     3.50       0          0          0          1
p_19             CIRCULAR     4.50       0          0          0          1
p_20             CIRCULAR     4.50       0          0          0          1
p_21             CIRCULAR     4.50       0          0          0          1
p_22             CIRCULAR     5.00       0          0          0          1
p_23             CIRCULAR     3.50       0          0          0          1
pipe             CIRCULAR     3.50       0          0          0          1
p_24             CIRCULAR     3.50       0          0          0          1
p_25             CIRCULAR     7.00       0          0          0          1
p_26             CIRCULAR     7.00       0          0          0          1
p_27             CIRCULAR     7.00       0          0          0          1
p_28             CIRCULAR     7.00       0          0          0          1
p_29             CIRCULAR     7.00       0          0          0          1
p_30             CIRCULAR     7.00       0          0          0          1
p_31             CIRCULAR     7.00       0          0          0          1
p_32             CIRCULAR     7.00       0          0          0          1
p_33             RECT_CLOSED  6.00       7.00       0          0          1
p_34             RECT_CLOSED  6.00       7.00       0          0          1
p_35             CIRCULAR     7.00       0          0          0          1
p_36             CIRCULAR     9.25       0          0          0          1
p_37             CIRCULAR     9.25       0          0          0          1
to_18            CIRCULAR     6.50       0          0          0          1
p_38             CIRCULAR     2.00       0          0          0          1
p_39             CIRCULAR     6.50       0          0          0          1
p_40             CIRCULAR     6.50       0          0          0          1
p_41             CIRCULAR     6.50       0          0          0          1
p_42             CIRCULAR     6.50       0          0          0          1
p_43             CIRCULAR     6.50       0          0          0          1
to_19            CIRCULAR     1.50       0          0          0          1
to_20            CIRCULAR     5.00       0          0          0          1
p_44             CIRCULAR     5.50       0          0          0          1
p_45             CIRCULAR     3.50       0          0          0          1
p_46             CIRCULAR     3.50       0          0          0          1
p_47             CIRCULAR     3.50       0          0          0          1
p_48             CIRCULAR     3.50       0          0          0          1
p_49             CIRCULAR     3.50       0          0          0          1
p_50             CIRCULAR     3.75       0          0          0          1
p_51             CIRCULAR     4.00       0          0          0          1
p_52             CIRCULAR     6.00       0          0          0          1
p_53             CIRCULAR     6.00       0          0          0          1
p_54             CIRCULAR     5.50       0          0          0          1
p_55             CIRCULAR     6.00       0          0          0          1
p_56             CIRCULAR     6.00       0          0          0          1
p_57             CIRCULAR     6.00       0          0          0          1
p_58             CIRCULAR     6.00       0          0          0          1
to_21            CIRCULAR     1.00       0          0          0          1
to_22            CIRCULAR     0.67       0          0          0          1
to_23            CIRCULAR     0.67       0          0          0          1
to_24            CIRCULAR     0.67       0          0          0          1
to_25            CIRCULAR     0.67       0          0          0          1
to_26            CIRCULAR     5.00       0          0          0          1
to_27            CIRCULAR     4.50       0          0          0          1
to_28            CIRCULAR     1.67       0          0          0          1
to_29            CIRCULAR     2.50       0          0          0          1
to_30            CIRCULAR     2.50       0          0          0          1
p_59             CIRCULAR     6.00       0          0          0          1
to_31            CIRCULAR     1.50       0          0          0          1
to_32            CIRCULAR     5.50       0          0          0          1
p_60             CIRCULAR     6.00       0          0          0          1
to_33            CIRCULAR     0.67       0          0          0          1
to_34            CIRCULAR     2.00       0          0          0          1
to_35            CIRCULAR     1.00       0          0          0          1
p_61             CIRCULAR     6.00       0          0          0          1
to_36            CIRCULAR     2.50       0          0          0          1
p_62             CIRCULAR     6.50       0          0          0          1
siphon           CIRCULAR     2.59       0          0          0          1
to_37            CIRCULAR     1.00       0          0          0          1
to_38            CIRCULAR     5.00       0          0          0          1
p_63             CIRCULAR     6.50       0          0          0          1
p_64             CIRCULAR     6.50       0          0          0          1
p_65             CIRCULAR     6.50       0          0          0          1
to_39            CIRCULAR     0.67       0          0          0          1
p_66             CIRCULAR     6.50       0          0          0          1
to_40            CIRCULAR     1.67       0          0          0          1
to_41            CIRCULAR     2.75       0          0          0          1
sb               CIRCULAR     5.84       0          0          0          1
cso19            CIRCULAR     4.00       7.00       0          0          1
p_67             CIRCULAR     5.50       0          0          0          1
p_68             CIRCULAR     6.00       0          0          0          1
p_69             CIRCULAR     6.00       0          0          0          1
p_70             CIRCULAR     6.50       0          0          0          1
p_71             CIRCULAR     3.50       0          0          0          1
to_42            CIRCULAR     0.67       0          0          0          1
to_43            CIRCULAR     3.00       0          0          0          1
p_72             CIRCULAR     3.50       0          0          0          1
to_44            CIRCULAR     1.25       0          0          0          1
to_45            CIRCULAR     0.67       0          0          0          1
p_73             CIRCULAR     3.50       0          0          0          1
to_46            CIRCULAR     3.50       0          0          0          1
to_47            CIRCULAR     3.50       0          0          0          1
230.1            CIRCULAR     3.50       0          0          0          1
to_48            CIRCULAR     2.00       0          0          0          1
to_49            CIRCULAR     1.00       0          0          0          1
p_74             CIRCULAR     3.00       0          0          0          1
p_75             CIRCULAR     3.00       0          0          0          1
to_50            RECT_CLOSED  20.00      8.00       0          0          1
p_76             RECT_CLOSED  16.00      8.00       0          0          1
p_77             RECT_CLOSED  8.00       10.00      0          0          1
p_78             RECT_CLOSED  8.00       10.00      0          0          1
p_79             RECT_CLOSED  10.00      4.50       0          0          1
to_51            CIRCULAR     4.00       0          0          0          1
p_80             CIRCULAR     3.00       0          0          0          1
p_81             CIRCULAR     3.00       0          0          0          1
to_52            CIRCULAR     0.67       0          0          0          1
to_53            CIRCULAR     1.50       0          0          0          1
p_82             CIRCULAR     3.50       0          0          0          1
to_54            CIRCULAR     3.50       0          0          0          1
to_55            CIRCULAR     1.50       0          0          0          1
p_83             CIRCULAR     3.00       0          0          0          1
p_84             CIRCULAR     3.00       0          0          0          1
p_85             CIRCULAR     3.00       0          0          0          1
p_86             HORSESHOE    3.50       0          0          0          1
p_87             HORSESHOE    3.50       0          0          0          1
to_56            CIRCULAR     3.00       0          0          0          1
to_57            CIRCULAR     0.83       0          0          0          1
to_58            CIRCULAR     2.50       0          0          0          1
to_59            CIRCULAR     2.00       0          0          0          1
p_88             CIRCULAR     1.67       0          0          0          1
p_89             CIRCULAR     2.00       0          0          0          1
p_90             HORSESHOE    3.25       0          0          0          1
p_91             CIRCULAR     3.00       0          0          0          1
pipe_2           CIRCULAR     2.00       0          0          0          1
p_92             CIRCULAR     5.00       0          0          0          1
p_93             CIRCULAR     5.00       0          0          0          1
p_94             CIRCULAR     5.00       0          0          0          1
p_95             CIRCULAR     5.00       0          0          0          1
p_96             CIRCULAR     5.00       0          0          0          1
to_60            CIRCULAR     7.00       0          0          0          1
p_97             CIRCULAR     1.50       0          0          0          1
p_98             CIRCULAR     1.50       0          0          0          1
p_99             CIRCULAR     1.50       0          0          0          1
p_100            CIRCULAR     1.50       0          0          0          1
p_101            CIRCULAR     1.50       0          0          0          1
p_102            CIRCULAR     1.50       0          0          0          1
p_103            CIRCULAR     1.67       0          0          0          1
p_104            CIRCULAR     1.67       0          0          0          1
816.1            CIRCULAR     1.67       0          0          0          1
p_105            CIRCULAR     1.67       0          0          0          1
p_106            CIRCULAR     1.67       0          0          0          1
p_107            CIRCULAR     1.67       0          0          0          1
p_108            CIRCULAR     1.67       0          0          0          1
to_61            CIRCULAR     1.00       0          0          0          1
p_109            CIRCULAR     2.00       0          0          0          1
p_110            CIRCULAR     2.00       0          0          0          1
p_111            CIRCULAR     2.00       0          0          0          1
p_112            CIRCULAR     2.00       0          0          0          1
p_113            CIRCULAR     2.00       0          0          0          1
p_114            CIRCULAR     2.00       0          0          0          1
p_115            CIRCULAR     2.00       0          0          0          1
p_116            CIRCULAR     2.00       0          0          0          1
p_117            CIRCULAR     2.00       0          0          0          1
p_118            CIRCULAR     2.00       0          0          0          1
Ato11th          CIRCULAR     5.00       0          0          0          1
to_62            CIRCULAR     2.50       0          0          0          1
to_63            CIRCULAR     4.00       0          0          0          1
p_119            CIRCULAR     2.00       0          0          0          1
p_120            CIRCULAR     2.00       0          0          0          1
p_121            HORSESHOE    3.75       0          0          0          1
p_122            HORSESHOE    4.00       0          0          0          1
p_123            HORSESHOE    4.25       0          0          0          1
p_124            HORSESHOE    4.50       0          0          0          1
p_125            HORSESHOE    5.00       0          0          0          1
p_126            HORSESHOE    5.25       0          0          0          1
p_127            HORSESHOE    5.50       0          0          0          1
p_128            CIRCULAR     4.50       0          0          0          1
p_129            CIRCULAR     5.00       0          0          0          1
p_130            CIRCULAR     6.50       0          0          0          1
p_131            CIRCULAR     6.50       0          0          0          1
p_132            RECT_CLOSED  10.00      5.50       0          0          1
to_64            CIRCULAR     3.50       0          0          0          1
to_65            CIRCULAR     3.00       0          0          0          1
p_133            CIRCULAR     5.00       0          0          0          1
to_66            CIRCULAR     0.83       0          0          0          1
to_67            CIRCULAR     0.83       0          0          0          1
p_134            HORSESHOE    3.25       0          0          0          1
p_135            HORSESHOE    3.50       0          0          0          1
750              CIRCULAR     10.00      0          0          0          1
752              CIRCULAR     10.00      0          0          0          1
754              CIRCULAR     10.00      0          0          0          1
762              CIRCULAR     10.00      0          0          0          1
763              CIRCULAR     10.00      0          0          0          1
764              CIRCULAR     10.00      0          0          0          1
765              CIRCULAR     10.00      0          0          0          1
766              CIRCULAR     10.00      0          0          0          1
770              CIRCULAR     10.00      0          0          0          1
771              CIRCULAR     5.00       0          0          0          1
772              CIRCULAR     10.00      0          0          0          1
775              CIRCULAR     10.00      0          0          0          1
776              CIRCULAR     10.00      0          0          0          1
780              CIRCULAR     10.00      0          0          0          1
782              CIRCULAR     10.00      0          0          0          1
787              CIRCULAR     10.00      0          0          0          1
788              CIRCULAR     5.00       0          0          0          1
789              CIRCULAR     10.00      0          0          0          1
790              CIRCULAR     10.00      0          0          0          1
796              CIRCULAR     10.00      0          0          0          1
797              CIRCULAR     10.00      0          0          0          1
799              CIRCULAR     4.50       0          0          0          1
95               CIRCULAR     10.00      0          0          0          1
1047.1           CIRCULAR     7.00       0          0          0          1
o                CIRCULAR     5.20       0          0          0          1

[LOSSES]
;;Link           Inlet      Outlet     Average    Flap Gate
;;-------------- ---------- ---------- ---------- ----------
p                0          0          0          NO
p_2              0          0          0          NO
p_3              0          0          0          NO
p_4              0          0          0          NO
p_5              0          0          0          NO
p_6              0          0          0          NO
p_7              0          0          0          NO
1                0          0          0          NO
p_8              0          0          0          NO
p_9              0          0          0          NO
to               0          0          0          NO
to_2             0          0          0          NO
to_3             0          0          0          NO
to_4             0          0          0          NO
to_5             0          0          0          NO
to_6             0          0          0          NO
to_7             0          0          0          NO
to_8             0          0          0          NO
to_9             0          0          0          NO
to_10            0          0          0          NO
to_11            0          0          0          NO
to_12            0          0          0          NO
to_13            0          0          0          NO
to_14            0          0          0          NO
to_15            0          0          0          NO
to_16            0          0          0          NO
to_17            0          0          0          NO
A5-a             0          0          0          NO
p_10             0          0          0          NO
p_11             0          0          0          NO
p_12             0          0          0          NO
p_13             0          0          0          NO
p_14             0          0          0          NO
p_15             0          0          0          NO
p_16             0          0          0          NO
p_17             0          0          0          NO
p_18             0          0          0          NO
p_19             0          0          0          NO
p_20             0          0          0          NO
p_21             0          0          0          NO
p_22             0          0          0          NO
p_23             0          0          0          NO
pipe             0          0          0          NO
p_24             0          0          0          NO
p_25             0          0          0          NO
p_26             0          0          0          NO
p_27             0          0          0          NO
p_28             0          0          0          NO
p_29             0          0          0          NO
p_30             0          0          0          NO
p_31             0          0          0          NO
p_32             0          0          0          NO
p_33             0          0          0          NO
p_34             0          0          0          NO
p_35             0          0          0          NO
p_36             0          0          0          NO
p_37             0          0          0          NO
to_18            0          0          0          NO
p_38             0          0          0          NO
p_39             0          0          0          NO
p_40             0          0          0          NO
p_41             0          0          0          NO
p_42             0          0          0          NO
p_43             0          0          0          NO
to_19            0          0          0          NO
to_20            0          0          0          NO
p_44             0          0          0          NO
p_45             0          0          0          NO
p_46             0          0          0          NO
p_47             0          0          0          NO
p_48             0          0          0          NO
p_49             0          0          0          NO
p_50             0          0          0          NO
p_51             0          0          0          NO
p_52             0          0          0          NO
p_53             0          0          0          NO
p_54             0          0          0          NO
p_55             0          0          0          NO
p_56             0          0          0          NO
p_57             0          0          0          NO
p_58             0          0          0          NO
to_21            0          0          0          NO
to_22            0          0          0          NO
to_23            0          0          0          NO
to_24            0          0          0          NO
to_25            0          0          0          NO
to_26            0          0          0          NO
to_27            0          0          0          NO
to_28            0          0          0          NO
to_29            0          0          0          NO
to_30            0          0          0          NO
p_59             0          0          0          NO
to_31            0          0          0          NO
to_32            0          0          0          NO
p_60             0          0          0          NO
to_33            0          0          0          NO
to_34            0          0          0          NO
to_35            0          0          0          NO
p_61             0          0          0          NO
to_36            0          0          0          NO
p_62             0          0          0          NO
siphon           0          0          0          NO
to_37            0          0          0          NO
to_38            0          0          0          NO
p_63             0          0          0          NO
p_64             0          0          0          NO
p_65             0          0          0          NO
to_39            0          0          0          NO
p_66             0          0          0          NO
to_40            0          0          0          NO
to_41            0          0          0          NO
sb               0          0          0          NO
cso19            0          0          0          NO
p_67             0          0          0          NO
p_68             0          0          0          NO
p_69             0          0          0          NO
p_70             0          0          0          NO
p_71             0          0          0          NO
to_42            0          0          0          NO
to_43            0          0          0          NO
p_72             0          0          0          NO
to_44            0          0          0          NO
to_45            0          0          0          NO
p_73             0          0          0          NO
to_46            0          0          0          NO
to_47            0          0          0          NO
230.1            0          0          0          NO
to_48            0          0          0          NO
to_49            0          0          0          NO
p_74             0          0          0          NO
p_75             0          0          0          NO
to_50            0          0          0          NO
p_76             0          0          0          NO
p_77             0          0          0          NO
p_78             0          0          0          NO
p_79             0          0          0          NO
to_51            0          0          0          NO
p_80             0          0          0          NO
p_81             0          0          0          NO
to_52            0          0          0          NO
to_53            0          0          0          NO
p_82             0          0          0          NO
to_54            0          0          0          NO
to_55            0          0          0          NO
p_83             0          0          0          NO
p_84             0          0          0          NO
p_85             0          0          0          NO
p_86             0          0          0          NO
p_87             0          0          0          NO
to_56            0          0          0          NO
to_57            0          0          0          NO
to_58            0          0          0          NO
to_59            0          0          0          NO
p_88             0          0          0          NO
p_89             0          0          0          NO
p_90             0          0          0          NO
p_91             0          0          0          NO
pipe_2           0          0          0          NO
p_92             0          0          0          NO
p_93             0          0          0          NO
p_94             0          0          0          NO
p_95             0          0          0          NO
p_96             0          0          0          NO
to_60            0          0          0          NO
p_97             0          0          0          NO
p_98             0          0          0          NO
p_99             0          0          0          NO
p_100            0          0          0          NO
p_101            0          0          0          NO
p_102            0          0          0          NO
p_103            0          0          0          NO
p_104            0          0          0          NO
816.1            0          0          0          NO
p_105            0          0          0          NO
p_106            0          0          0          NO
p_107            0          0          0          NO
p_108            0          0          0          NO
to_61            0          0          0          NO
p_109            0          0          0          NO
p_110            0          0          0          NO
p_111            0          0          0          NO
p_112            0          0          0          NO
p_113            0          0          0          NO
p_114            0          0          0          NO
p_115            0          0          0          NO
p_116            0          0          0          NO
p_117            0          0          0          NO
p_118            0          0          0          NO
Ato11th          0          0          0          NO
to_62            0          0          0          NO
to_63            0          0          0          NO
p_119            0          0          0          NO
p_120            0          0          0          NO
p_121            0          0          0          NO
p_122            0          0          0          NO
p_123            0          0          0          NO
p_124            0          0          0          NO
p_125            0          0          0          NO
p_126            0          0          0          NO
p_127            0          0          0          NO
p_128            0          0          0          NO
p_129            0          0          0          NO
p_130            0          0          0          NO
p_131            0          0          0          NO
p_132            0          0          0          NO
to_64            0          0          0          NO
to_65            0          0          0          NO
p_133            0          0          0          NO
to_66            0          0          0          NO
to_67            0          0          0          NO
p_134            0          0          0          NO
p_135            0          0          0          NO
750              0          0          0          NO
752              0          0          0          NO
754              0          0          0          NO
762              0          0          0          NO
763              0          0          0          NO
764              0          0          0          NO
765              0          0          0          NO
766              0          0          0          NO
770              0          0          0          NO
771              0          0          0          NO
772              0          0          0          NO
775              0          0          0          NO
776              0          0          0          NO
780              0          0          0          NO
782              0          0          0          NO
787              0          0          0          NO
788              0          0          0          NO
789              0          0          0          NO
790              0          0          0          NO
796              0          0          0          NO
797              0          0          0          NO
799              0          0          0          NO
95               0          0          0          NO
1047.1           0          0          0          NO
o                0          0          0          NO

[COORDINATES]
;;Node           X-Coord            Y-Coord
;;-------------- ------------------ ------------------
BA1              10.47              44.69             
BA2a             33.72              63.60             
ovfl1a           27.21              90.77             
BA3              106.88             107.63            
ovfl2            99.85              131.56            
BA4a             130.54             169.42            
BA2b             61.16              81.10             
BA2c             84.53              95.23             
BA4b             108.75             182.27            
ovfl1b           53.69              124.43            
r365             157.22             145.01            
CSO              107.49             158.18            
CSO_2            300.96             838.61            
CSO_3            157.59             348.40            
CSO_4            183.15             561.03            
CSO_5            190.64             402.13            
CSO_6            225.44             741.57            
A3b              133.80             341.61            
A1c              85.86              221.80            
r36              33.23              192.82            
rNA              96.24              304.16            
A4               138.77             387.04            
r24              109.20             373.02            
r22              117.90             443.66            
A6e              151.83             589.11            
A7e              214.72             782.14            
A8               278.05             903.37            
d15              124.59             575.11            
r8               132.02             773.98            
r3               221.76             884.80            
r3_2             176.56             877.92            
CSO_7            81.84              165.13            
CSO_8            137.81             281.08            
A5               140.31             460.69            
A2               101.06             264.05            
A1b              80.20              196.64            
A3a              119.95             308.53            
A6a              142.67             491.26            
A6b              145.32             520.14            
A6c              147.14             542.02            
A6d              148.52             564.46            
A7a              158.52             620.23            
A7b              165.68             649.72            
A7c              179.46             671.13            
A7d              196.82             736.97            
CSO_9            246.90             695.09            
PR1a             -90.02             634.25            
PR1b             -64.11             643.10            
PR1c             -36.85             653.59            
PR1d             -12.65             661.69            
PR1e             12.66              667.32            
PR1f             42.00              670.14            
PR2b             100.36             672.18            
PR2c             128.85             678.14            
PR2d             155.41             688.40            
PR2e             190.25             686.88            
PR2f             216.51             688.06            
d413             -150.02            602.02            
PRI2b            -145.30            734.17            
PRI3d            -7.05              755.31            
PRI4             31.62              759.94            
PRI2a            -147.07            671.25            
PRI3a            -103.11            740.39            
PRI3b            -71.85             746.76            
PRI3c            -37.17             752.17            
E2a              -154.25            1148.33           
DIV              -144.78            1069.01           
CSO_10           -109.19            1229.32           
E3a              24.87              1047.78           
E4               76.52              928.01            
E5a              101.60             891.59            
E2b              -90.91             1072.05           
E2c              -59.31             1108.85           
E2d              -24.87             1096.42           
E2e              0.30               1077.13           
E3b              44.21              1012.96           
E5b              139.47             884.51            
CSO_11           789.89             564.31            
CSO_12           791.26             617.76            
CSO_13           616.28             1124.16           
CSO_14           824.42             852.71            
CSO_15           791.18             519.72            
CSO_16           786.78             670.92            
CSO_17           813.92             930.13            
CSO_18           533.24             1291.01           
CSO_19           811.76             739.41            
CSO_20           791.81             462.67            
C1               694.93             351.39            
CSO_21           684.33             1197.96           
CSO_22           403.99             1303.67           
C2b              664.89             474.96            
C3               669.64             535.65            
C4               675.41             591.88            
C5               677.48             651.70            
C6               689.40             711.00            
r134             720.04             459.81            
d131             725.26             516.88            
d128             724.69             558.99            
d126             728.77             622.86            
d122             724.41             676.10            
C7               719.28             816.47            
r117             756.50             756.84            
C8               729.51             884.74            
d115             777.17             840.53            
C9               736.53             952.76            
r111             699.56             923.96            
C10b             685.71             1016.81           
DC               751.13             1129.17           
C11              588.58             1030.64           
r107             642.70             1053.92           
C12              571.26             1070.70           
C13              531.56             1091.84           
C14              513.71             1146.17           
r100             483.68             1193.12           
sc               433.98             1136.78           
C2a              671.01             410.56            
C10a             728.62             1009.00           
B6               399.77             835.02            
r37              433.15             780.76            
CSO_23           260.15             745.99            
B5               393.36             705.55            
d39              348.17             659.17            
CSO_24           262.43             658.77            
B4               372.27             613.80            
r42              338.21             586.96            
CSO_25           245.56             595.66            
B3               349.77             489.12            
r47              387.31             509.17            
cso_26           237.12             527.40            
B2               317.70             441.96            
B1               286.39             375.63            
r141             722.59             284.10            
SR               634.21             252.29            
CSO_27           776.12             323.66            
CR2a             705.84             128.35            
CR2b             706.25             190.94            
CR4b             755.44             31.32             
D2               869.11             1382.42           
d2_2             947.61             1343.53           
D3               845.20             1329.43           
d3_2             912.67             1263.39           
D6               810.46             1227.48           
r238             917.97             1048.76           
CSO_28           849.75             877.14            
D7               784.40             1186.80           
d7_2             690.97             1348.21           
D1c              923.10             1463.89           
D5               871.59             1141.77           
S2a              191.10             107.08            
S3a              198.09             219.53            
S4               209.49             240.38            
REG              348.13             239.12            
CSO_29           129.39             209.39            
DIV_2            274.05             229.10            
CSO_30           174.79             293.83            
CSO_31           189.67             349.74            
S2b              170.65             163.36            
S5b              266.69             328.94            
FR4b             787.78             -812.89           
FR4c             818.01             -861.78           
FR4e             855.05             -881.28           
FR4d             836.16             -869.39           
r1               585.15             -1049.45          
CSO_32           648.65             -1102.74          
Sr3              608.32             -1035.24          
Sr4              624.19             -1019.61          
Sr5              637.74             -1002.80          
Sr6              656.80             -988.74           
Sr7              674.92             -975.92           
Sr8              688.53             -960.92           
Sr9              704.78             -947.03           
Sr10             721.34             -932.28           
Sr11             736.03             -918.95           
Sr12             749.15             -904.94           
Sr13             762.93             -886.82           
Sr14             775.93             -868.42           
Sr15             785.46             -844.36           
r360             743.43             -817.46           
Sr16             812.10             -830.50           
Sr17             833.49             -824.32           
Sr18             859.80             -813.26           
Sr19             886.93             -801.50           
Sr20             908.09             -789.82           
Sr21             927.16             -782.75           
Sr22             947.87             -774.63           
Sr23             972.19             -763.80           
Sr24             1005.28            -749.05           
CSO_33           877.31             -902.38           
cso_34           214.38             430.49            
CSO_35           738.77             -1000.93          
Ci1              1051.80            -724.05           
Ci2              1019.21            -697.09           
Ci3              998.27             -667.40           
Ci4              992.96             -628.03           
Ci5              989.52             -582.09           
Ci6              981.39             -538.96           
Ci7              981.08             -487.09           
Ci8              981.71             -438.34           
Ci9              983.58             -390.53           
Ci10             983.58             -328.96           
Ci11             982.89             -237.64           
Ci12             970.39             -165.76           
Ci13             910.11             -121.73           
Ci14             858.87             -75.82            
CSO_36           807.76             1071.20           
CSO_37           719.61             1368.50           
CSO_38           778.29             1493.09           
E3c              68.07              972.25            
S5a              234.42             289.57            
GRR              213.78             160.42            
S2c              185.26             192.32            
S3b              237.65             208.26            
ps               293.45             1104.48           
pe               291.43             1182.48           
r1_2             549.67             -1066.36          
Sr8_2            662.32             -936.67           
r360_2           724.48             -853.91           
r134_2           731.69             424.27            
d131_2           734.78             481.23            
d128_2           743.36             531.35            
d126_2           745.77             586.66            
d122_2           745.43             641.95            
r117_2           774.27             712.69            
d115_2           796.59             792.00            
r111_2           682.24             865.85            
d3s              930.86             1219.55           
d2s              982.37             1304.37           
r107_2           592.61             1088.27           
r100_2           533.99             1200.08           
d39_2            312.96             620.66            
r42_2            310.68             547.17            
r47_2            415.15             553.32            
r37_2            447.35             729.86            
REG_2            338.50             291.33            
DIV_3            312.79             186.35            
GRR_2            261.69             159.65            
r365_2           144.28             67.81             
BA1_2            -14.52             17.30             
r36_2            -9.32              190.03            
rNA_2            58.82              302.32            
r24_2            75.79              374.78            
r22_2            81.97              446.21            
d15_2            83.69              574.98            
d413_2           -146.88            545.45            
r8_2             97.08              809.44            
r3_3             185.34             930.06            
dNA              -145.40            998.87            
r238_2           962.27             1152.14           
B1_2             317.18             350.97            
FM1a             213.04             1204.40           

[MAP]
DIMENSIONS -154.25 -1102.74 1051.80 1493.09
Units      None

[REPORT]
SUBCATCHMENTS ALL
NODES ALL
LINKS ALL
