;; SWMM5 .inp converted from XPSWMM .xp file
;; Generated by XPSWMM Card Reader
;; Source format: XP_CARD | Original title: CATCHMENT TRIBUTARY TO MONITOR 20.  USING OVERSIZED CHANNEL & ORIFICE
;; Links parsed from source: 103 | Routable in this .inp: 103

[TITLE]
;;Project Title/Notes
CATCHMENT TRIBUTARY TO MONITOR 20.  USING OVERSIZED CHANNEL & ORIFICE

[OPTIONS]
FLOW_UNITS           CMS
INFILTRATION         HORTON
FLOW_ROUTING         DYNWAVE
LINK_OFFSETS         DEPTH
MIN_SLOPE            0.0
ALLOW_PONDING        NO
SKIP_STEADY_STATE    NO
ROUTING_STEP         00:00:30
VARIABLE_STEP        0.75
INERTIAL_DAMPING     PARTIAL
NORMAL_FLOW_LIMITED  BOTH
MAX_TRIALS           30
START_DATE           01/01/2001
START_TIME           00:00:00
REPORT_START_DATE    01/01/2001
REPORT_START_TIME    00:00:00
END_DATE             01/02/2001
END_TIME             00:00:00
SWEEP_START          01/01
SWEEP_END            12/31
DRY_DAYS             0
REPORT_STEP          00:15:00
WET_STEP             00:05:00
DRY_STEP             01:00:00

[JUNCTIONS]
;;Name           Elev       MaxDepth   InitDepth  SurDepth   Aponded
;;-------------- ---------- ---------- ---------- ---------- ----------
883              700.89     0          0          0          0
884              698.60     0          0          0          0
8841             695.09     0          0          0          0
8842             694.48     0          0          0          0
8843             690.98     0          0          0          0
8844             689.15     0          0          0          0
885              688.39     0          0          0          0
886              688.39     0          0          0          0
8861             688.69     0          0          0          0
887              690.37     0          0          0          0
888              690.52     0          0          0          0
889              686.71     0          0          0          0
8891             685.95     0          0          0          0
890              684.27     0          0          0          0
8901             683.82     0          0          0          0
8902             683.05     0          0          0          0
8911             682.90     0          0          0          0
891              683.51     0          0          0          0
8912             683.36     0          0          0          0
892              683.97     0          0          0          0
8921             684.27     0          0          0          0
893              682.60     0          0          0          0
8931             682.14     0          0          0          0
8932             682.90     0          0          0          0
894              682.29     0          0          0          0
8941             683.21     0          0          0          0
8942             681.38     0          0          0          0
896              679.85     0          0          0          0
895              680.46     0          0          0          0
8951             679.70     0          0          0          0
8952             679.85     0          0          0          0
8953             679.70     0          0          0          0
81053            681.23     0          0          0          0
897              696.16     0          0          0          0
898              690.37     0          0          0          0
8981             688.85     0          0          0          0
899              687.32     0          0          0          0
8991             685.34     0          0          0          0
8992             685.19     0          0          0          0
8100             684.88     0          0          0          0
8101             685.49     0          0          0          0
8102             685.65     0          0          0          0
81051            682.75     0          0          0          0
8103             688.85     0          0          0          0
81031            689.30     0          0          0          0
81032            686.41     0          0          0          0
8104             682.44     0          0          0          0
81041            683.21     0          0          0          0
8105             682.44     0          0          0          0
81052            681.23     0          0          0          0
8106             681.23     0          0          0          0
8107             681.23     0          0          0          0
81081            681.38     0          0          0          0
8108             681.84     0          0          0          0
81102            681.23     0          0          0          0
8109             686.25     0          0          0          0
8110             685.65     0          0          0          0
81101            683.36     0          0          0          0
8111             683.21     0          0          0          0
N1               694.00     0          0          0          0
N2               688.60     0          0          0          0
DC7108           0          0          0          0          0
DS7108           0          0          0          0          0
DC6108           0          0          0          0          0
DS6108           0          0          0          0          0
DC7107           0          0          0          0          0
DS7107           0          0          0          0          0
DC71051          0          0          0          0          0
DS71051          0          0          0          0          0
DC7100           0          0          0          0          0
DS7100           0          0          0          0          0
DC799            0          0          0          0          0
DS799            0          0          0          0          0
DC798            0          0          0          0          0
DS798            0          0          0          0          0
DC797            0          0          0          0          0
DS797            0          0          0          0          0
DC783            0          0          0          0          0
DS783            0          0          0          0          0
DC784            0          0          0          0          0
DS784            0          0          0          0          0
DC785            0          0          0          0          0
DS785            0          0          0          0          0
DC786            0          0          0          0          0
DS786            0          0          0          0          0
DC789            0          0          0          0          0
DS789            0          0          0          0          0
DC792            0          0          0          0          0
DS792            0          0          0          0          0
DC7103           0          0          0          0          0
DS7103           0          0          0          0          0
DC794            0          0          0          0          0
DS794            0          0          0          0          0
DC795            0          0          0          0          0
DS795            0          0          0          0          0
DC7953           0          0          0          0          0
DS7953           0          0          0          0          0
DC6953           0          0          0          0          0
DS6953           0          0          0          0          0
DC6107           0          0          0          0          0
DS6107           0          0          0          0          0
HW_153N1A        689.26     0          0          0          0
HW_81            677.35     0          0          0          0
HW_22871081      0          0          0          0          0
HW_22971080      0          0          0          0          0
HW_23061081      0          0          0          0          0
HW_23161080      0          0          0          0          0
HW_23271071      0          0          0          0          0
HW_23371070      0          0          0          0          0
HW_23471051      0          0          0          0          0
HW_23561051      0          0          0          0          0
HW_23671001      0          0          0          0          0
HW_23771000      0          0          0          0          0
HW_2387991       0          0          0          0          0
HW_2397990       0          0          0          0          0
HW_2407981       0          0          0          0          0
HW_2417980       0          0          0          0          0
HW_2427971       0          0          0          0          0
HW_2437970       0          0          0          0          0
HW_2447831       0          0          0          0          0
HW_2457830       0          0          0          0          0
HW_2467841       0          0          0          0          0
HW_2477840       0          0          0          0          0
HW_2487851       0          0          0          0          0
HW_2497850       0          0          0          0          0
HW_2507861       0          0          0          0          0
HW_2517860       0          0          0          0          0
HW_2527891       0          0          0          0          0
HW_2537890       0          0          0          0          0
HW_2547921       0          0          0          0          0
HW_2557920       0          0          0          0          0
HW_25671031      0          0          0          0          0
HW_25771030      0          0          0          0          0
HW_2587941       0          0          0          0          0
HW_2597940       0          0          0          0          0
HW_2607951       0          0          0          0          0
HW_2617950       0          0          0          0          0
HW_26279531      0          0          0          0          0
HW_26379530      0          0          0          0          0
HW_26469531      0          0          0          0          0
HW_26569530      0          0          0          0          0
HW_26661071      0          0          0          0          0
HW_26761070      0          0          0          0          0

[OUTFALLS]
;;Name           Elev       Type       Stage      Gated
;;-------------- ---------- ---------- ---------- -----
7842             688.54     FREE                  NO

[CONDUITS]
;;Name           From             To               Length     Roughness  InOffset   OutOffset  InitFlow   MaxFlow
;;-------------- ---------------- ---------------- ---------- ---------- ---------- ---------- ---------- ----------
526              883              884              270.36     0.0150     694.64     693.67     0          0
527              884              8841             154.78     0.0150     691.80     689.88     0          0
529              8841             8842             217.93     0.0150     689.88     689.23     0          0
1156N2.1         N2               7842             18.00      0.0150     685.23     684.43     0          0
533              8843             8844             79.14      0.0110     684.65     684.42     0          0
537              8844             885              248.41     0.0150     684.27     683.52     0          0
539              885              886              210.92     0.0150     682.73     682.31     0          0
541              886              8861             67.06      0.0100     682.31     682.18     0          0
543              8861             887              162.15     0.0150     682.18     680.16     0          0
545              887              888              235.00     0.0150     680.13     679.62     0          0
547              888              889              304.19     0.0150     679.59     678.98     0          0
549              889              8891             95.43      0.0120     678.98     676.90     0          0
551              8891             890              112.88     0.0120     676.90     676.65     0          0
553              890              8901             66.14      0.0100     676.60     676.40     0          0
555              8901             8902             108.51     0.0130     676.40     676.31     0          0
557              8902             8911             116.74     0.0130     676.30     676.15     0          0
561              891              8911             120.40     0.0130     678.12     677.83     0          0
559              8911             8912             84.70      0.0110     676.15     676.04     0          0
563              8912             892              103.63     0.0120     676.04     675.90     0          0
565              892              8921             95.10      0.0120     675.90     675.61     0          0
567              8921             893              94.79      0.0120     675.61     675.31     0          0
569              893              8931             49.68      0.0080     675.31     675.16     0          0
571              8931             8932             108.20     0.0130     675.16     674.82     0          0
573              8932             894              81.38      0.0110     674.82     674.76     0          0
575              894              8941             476.10     0.0150     674.76     673.78     0          0
626              81041            8941             13.70      0.0150     678.20     678.26     0          0
577              8941             8942             416.05     0.0150     673.78     672.90     0          0
581              8942             896              87.02      0.0110     672.86     672.53     0          0
587              895              8951             136.09     0.0140     674.40     673.91     0          0
588              8951             8952             170.99     0.0150     673.55     673.22     0          0
590              8952             8953             91.44      0.0120     673.14     672.71     0          0
593              8953             896              97.38      0.0120     672.68     672.60     0          0
585              896              81053            349.91     0.0150     672.18     671.59     0          0
598              897              898              362.41     0.0150     690.53     686.22     0          0
599              898              8981             148.13     0.0150     684.41     684.23     0          0
601              8981             899              204.52     0.0150     683.12     681.87     0          0
603              899              8991             160.02     0.0150     681.81     681.34     0          0
605              8991             8992             465.43     0.0150     681.20     680.14     0          0
607              8992             8100             86.56      0.0110     680.14     680.13     0          0
609              8100             8101             87.93      0.0110     679.67     679.28     0          0
611              8101             8102             145.39     0.0150     678.00     677.21     0          0
613              8102             81051            204.22     0.0264     677.21     673.72     0          0
619              8103             81031            129.22     0.0140     681.46     680.98     0          0
620              81031            81032            320.65     0.0150     680.94     679.77     0          0
622              81032            8104             394.41     0.0150     679.77     677.78     0          0
624              8104             81041            150.57     0.0150     676.27     675.80     0          0
626_2            81041            8105             145.09     0.0150     675.80     675.52     0          0
629              8105             81051            137.92     0.0140     675.52     674.60     0          0
617              81051            81052            376.73     0.0150     673.72     673.10     0          0
632              81052            81053            110.03     0.0130     673.10     672.09     0          0
596              81053            8106             64.49      0.0100     671.17     671.14     0          0
635              8106             8107             201.00     0.0150     671.14     670.90     0          0
637              8107             81081            202.00     0.0150     670.88     670.18     0          0
641              8108             81081            100.58     0.0120     675.65     670.18     0          0
639              81081            81102            194.00     0.0150     670.18     669.96     0          0
645              8109             8110             180.44     0.0150     681.07     680.59     0          0
646              8110             81101            304.80     0.0150     679.38     678.28     0          0
648              81101            81102            320.34     0.0337     678.28     669.96     0          0
643              81102            8111             248.00     0.0150     669.96     669.50     0          0
153N1A           HW_153N1A        8843             110.00     0.0015     689.26     689.26     0          0
1153N1B          N1               N2               39.00      0.1250     689.57     685.23     0          0
531              8842             N1               110.00     0.0019     689.88     689.26     0          0
81               HW_81            8952             96.00      0.0217     677.35     673.14     0          0
22871081         HW_22871081      8108             41.00      0.0150     0          0          0          0
23061081         HW_23061081      8108             101.00     0.0150     0          0          0          0
23271071         HW_23271071      8107             153.00     0.0150     0          0          0          0
23471051         HW_23471051      81051            229.00     0.0150     0          0          0          0
23671001         HW_23671001      8100             222.00     0.0150     0          0          0          0
2387991          HW_2387991       899              190.00     0.0150     0          0          0          0
2407981          HW_2407981       898              117.00     0.0150     0          0          0          0
2427971          HW_2427971       897              133.00     0.0150     0          0          0          0
2447831          HW_2447831       883              103.00     0.0150     0          0          0          0
2467841          HW_2467841       884              72.00      0.0150     0          0          0          0
2487851          HW_2487851       885              97.00      0.0150     0          0          0          0
2507861          HW_2507861       886              172.00     0.0150     0          0          0          0
2527891          HW_2527891       889              70.00      0.0150     0          0          0          0
2547921          HW_2547921       892              129.00     0.0150     0          0          0          0
25671031         HW_25671031      8103             91.00      0.0150     0          0          0          0
2587941          HW_2587941       894              108.00     0.0150     0          0          0          0
2607951          HW_2607951       895              91.00      0.0150     0          0          0          0
26279531         HW_26279531      8953             138.00     0.0150     0          0          0          0
26469531         HW_26469531      8953             105.00     0.0150     0          0          0          0
26661071         HW_26661071      8107             105.00     0.0150     0          0          0          0

[ORIFICES]
;;Name           From             To               Type       Offset     Qcoeff     Gated    CloseTime
;;-------------- ---------------- ---------------- ---------- ---------- ---------- -------- ----------
22971080         HW_22971080      8108             SIDE       0          0.650      NO       0
23161080         HW_23161080      8108             SIDE       0          0.650      NO       0
23371070         HW_23371070      8107             SIDE       0          0.650      NO       0
23561051         HW_23561051      81051            SIDE       0          0.650      NO       0
23771000         HW_23771000      8100             SIDE       0          0.650      NO       0
2397990          HW_2397990       899              SIDE       0          0.650      NO       0
2417980          HW_2417980       898              SIDE       0          0.650      NO       0
2437970          HW_2437970       897              SIDE       0          0.650      NO       0
2457830          HW_2457830       883              SIDE       0          0.650      NO       0
2477840          HW_2477840       884              SIDE       0          0.650      NO       0
2497850          HW_2497850       885              SIDE       0          0.650      NO       0
2517860          HW_2517860       886              SIDE       0          0.650      NO       0
2537890          HW_2537890       889              SIDE       0          0.650      NO       0
2557920          HW_2557920       892              SIDE       0          0.650      NO       0
25771030         HW_25771030      8103             SIDE       0          0.650      NO       0
2597940          HW_2597940       894              SIDE       0          0.650      NO       0
2617950          HW_2617950       895              SIDE       0          0.650      NO       0
26379530         HW_26379530      8953             SIDE       0          0.650      NO       0
26569530         HW_26569530      8953             SIDE       0          0.650      NO       0
26761070         HW_26761070      8107             SIDE       0          0.650      NO       0

[XSECTIONS]
;;Link           Shape        Geom1      Geom2      Geom3      Geom4      Barrels
;;-------------- ------------ ---------- ---------- ---------- ---------- ----------
526              CIRCULAR     1.05       0          0          0          1
527              CIRCULAR     1.05       0          0          0          1
529              CIRCULAR     1.05       0          0          0          1
1156N2.1         RECT_CLOSED  1.22       1.22       0          0          1
533              CIRCULAR     1.05       0          0          0          1
537              CIRCULAR     1.20       0          0          0          1
539              CIRCULAR     1.35       0          0          0          1
541              CIRCULAR     1.35       0          0          0          1
543              CIRCULAR     1.35       0          0          0          1
545              CIRCULAR     1.35       0          0          0          1
547              CIRCULAR     1.35       0          0          0          1
549              CIRCULAR     1.35       0          0          0          1
551              CIRCULAR     1.35       0          0          0          1
553              CIRCULAR     1.35       0          0          0          1
555              CIRCULAR     1.35       0          0          0          1
557              CIRCULAR     1.35       0          0          0          1
561              CIRCULAR     1.05       0          0          0          1
559              CIRCULAR     1.35       0          0          0          1
563              CIRCULAR     1.35       0          0          0          1
565              CIRCULAR     1.35       0          0          0          1
567              CIRCULAR     1.35       0          0          0          1
569              CIRCULAR     1.35       0          0          0          1
571              CIRCULAR     1.35       0          0          0          1
573              CIRCULAR     1.35       0          0          0          1
575              CIRCULAR     1.35       0          0          0          1
626              CIRCULAR     0.75       0          0          0          1
577              CIRCULAR     1.35       0          0          0          1
581              CIRCULAR     1.35       0          0          0          1
587              CIRCULAR     1.05       0          0          0          1
588              CIRCULAR     1.35       0          0          0          1
590              CIRCULAR     1.35       0          0          0          1
593              CIRCULAR     1.35       0          0          0          1
585              CIRCULAR     1.95       0          0          0          1
598              CIRCULAR     0.90       0          0          0          1
599              CIRCULAR     1.05       0          0          0          1
601              CIRCULAR     1.05       0          0          0          1
603              CIRCULAR     1.20       0          0          0          1
605              CIRCULAR     1.20       0          0          0          1
607              CIRCULAR     1.20       0          0          0          1
609              CIRCULAR     1.20       0          0          0          1
611              CIRCULAR     1.20       0          0          0          1
613              CIRCULAR     1.20       0          0          0          1
619              CIRCULAR     1.05       0          0          0          1
620              CIRCULAR     1.05       0          0          0          1
622              CIRCULAR     1.05       0          0          0          1
624              CIRCULAR     1.05       0          0          0          1
626_2            CIRCULAR     1.20       0          0          0          1
629              CIRCULAR     1.20       0          0          0          1
617              CIRCULAR     1.95       0          0          0          1
632              CIRCULAR     1.95       0          0          0          1
596              HORSESHOE    3.17       1.95       0          0          1
635              HORSESHOE    3.17       1.95       0          0          1
637              HORSESHOE    3.17       1.95       0          0          1
641              CIRCULAR     1.05       0          0          0          1
639              HORSESHOE    3.17       1.95       0          0          1
645              CIRCULAR     0.90       0          0          0          1
646              CIRCULAR     0.90       0          0          0          1
648              CIRCULAR     0.90       0          0          0          1
643              HORSESHOE    3.17       1.95       0          0          1
153N1A           CIRCULAR     0.20       0          0          0          1
1153N1B          HORSESHOE    1.75       1.37       0          0          1
531              CIRCULAR     1.05       0          0          0          1
81               CIRCULAR     0.25       0          0          0          1
22871081         TRAPEZOIDAL  0.50       9.00       1          1          1
23061081         TRAPEZOIDAL  0.50       9.00       1          1          1
23271071         TRAPEZOIDAL  0.50       9.00       1          1          1
23471051         TRAPEZOIDAL  0.50       9.00       1          1          1
23671001         TRAPEZOIDAL  0.50       14.00      1          1          1
2387991          TRAPEZOIDAL  0.50       9.00       1          1          1
2407981          TRAPEZOIDAL  0.50       9.00       1          1          1
2427971          TRAPEZOIDAL  0.50       14.00      1          1          1
2447831          TRAPEZOIDAL  0.50       9.00       1          1          1
2467841          TRAPEZOIDAL  0.50       9.00       1          1          1
2487851          TRAPEZOIDAL  0.50       11.50      1          1          1
2507861          TRAPEZOIDAL  0.50       11.50      1          1          1
2527891          TRAPEZOIDAL  0.50       11.50      1          1          1
2547921          TRAPEZOIDAL  0.50       14.00      1          1          1
25671031         TRAPEZOIDAL  0.50       9.00       1          1          1
2587941          TRAPEZOIDAL  0.50       11.50      1          1          1
2607951          TRAPEZOIDAL  0.50       9.00       1          1          1
26279531         TRAPEZOIDAL  0.50       14.00      1          1          1
26469531         TRAPEZOIDAL  0.50       43.00      1          1          1
26661071         TRAPEZOIDAL  0.50       47.00      1          1          1
22971080         RECT_CLOSED  0.50       0.50       0          0
23161080         RECT_CLOSED  0.50       0.50       0          0
23371070         RECT_CLOSED  0.50       0.50       0          0
23561051         RECT_CLOSED  0.50       0.50       0          0
23771000         RECT_CLOSED  0.50       0.50       0          0
2397990          RECT_CLOSED  0.50       0.50       0          0
2417980          RECT_CLOSED  0.50       0.50       0          0
2437970          RECT_CLOSED  0.50       0.50       0          0
2457830          RECT_CLOSED  0.50       0.50       0          0
2477840          RECT_CLOSED  0.50       0.50       0          0
2497850          RECT_CLOSED  0.50       0.50       0          0
2517860          RECT_CLOSED  0.50       0.50       0          0
2537890          RECT_CLOSED  0.50       0.50       0          0
2557920          RECT_CLOSED  0.50       0.50       0          0
25771030         RECT_CLOSED  0.50       0.50       0          0
2597940          RECT_CLOSED  0.50       0.50       0          0
2617950          RECT_CLOSED  0.50       0.50       0          0
26379530         RECT_CLOSED  0.50       0.50       0          0
26569530         RECT_CLOSED  0.50       0.50       0          0
26761070         RECT_CLOSED  0.50       0.50       0          0

[LOSSES]
;;Link           Inlet      Outlet     Average    Flap Gate
;;-------------- ---------- ---------- ---------- ----------
526              0          0          0          NO
527              0          0          0          NO
529              0          0          0          NO
1156N2.1         0          0          0          NO
533              0          0          0          NO
537              0          0          0          NO
539              0          0          0          NO
541              0          0          0          NO
543              0          0          0          NO
545              0          0          0          NO
547              0          0          0          NO
549              0          0          0          NO
551              0          0          0          NO
553              0          0          0          NO
555              0          0          0          NO
557              0          0          0          NO
561              0          0          0          NO
559              0          0          0          NO
563              0          0          0          NO
565              0          0          0          NO
567              0          0          0          NO
569              0          0          0          NO
571              0          0          0          NO
573              0          0          0          NO
575              0          0          0          NO
626              0          0          0          NO
577              0          0          0          NO
581              0          0          0          NO
587              0          0          0          NO
588              0          0          0          NO
590              0          0          0          NO
593              0          0          0          NO
585              0          0          0          NO
598              0          0          0          NO
599              0          0          0          NO
601              0          0          0          NO
603              0          0          0          NO
605              0          0          0          NO
607              0          0          0          NO
609              0          0          0          NO
611              0          0          0          NO
613              0          0          0          NO
619              0          0          0          NO
620              0          0          0          NO
622              0          0          0          NO
624              0          0          0          NO
626_2            0          0          0          NO
629              0          0          0          NO
617              0          0          0          NO
632              0          0          0          NO
596              0          0          0          NO
635              0          0          0          NO
637              0          0          0          NO
641              0          0          0          NO
639              0          0          0          NO
645              0          0          0          NO
646              0          0          0          NO
648              0          0          0          NO
643              0          0          0          NO
153N1A           0          0          0          NO
1153N1B          0          0          0          NO
531              0          0          0          NO
81               0          0          0          NO
22871081         0          0          0          NO
23061081         0          0          0          NO
23271071         0          0          0          NO
23471051         0          0          0          NO
23671001         0          0          0          NO
2387991          0          0          0          NO
2407981          0          0          0          NO
2427971          0          0          0          NO
2447831          0          0          0          NO
2467841          0          0          0          NO
2487851          0          0          0          NO
2507861          0          0          0          NO
2527891          0          0          0          NO
2547921          0          0          0          NO
25671031         0          0          0          NO
2587941          0          0          0          NO
2607951          0          0          0          NO
26279531         0          0          0          NO
26469531         0          0          0          NO
26661071         0          0          0          NO

[INFLOWS]
;;Node           Constituent  Time Series      Type     Mfactor  Sfactor  Baseline Pattern
;;-------------- ------------ ---------------- -------- -------- -------- -------- --------
;; SYNTHETIC TEST INFLOWS — the source .xp carried no constant inflows
;; and RUNF hydrology is not converted; 0.03 CMS is applied at each
;; headwater node so the network runs wet for QA. Replace with real
;; hydrology or inflow hydrographs before using results.
891              FLOW         ""               FLOW     1.0      1.0      0.03
8109             FLOW         ""               FLOW     1.0      1.0      0.03
HW_153N1A        FLOW         ""               FLOW     1.0      1.0      0.03
HW_81            FLOW         ""               FLOW     1.0      1.0      0.03
HW_22871081      FLOW         ""               FLOW     1.0      1.0      0.03
HW_22971080      FLOW         ""               FLOW     1.0      1.0      0.03
HW_23061081      FLOW         ""               FLOW     1.0      1.0      0.03
HW_23161080      FLOW         ""               FLOW     1.0      1.0      0.03
HW_23271071      FLOW         ""               FLOW     1.0      1.0      0.03
HW_23371070      FLOW         ""               FLOW     1.0      1.0      0.03
HW_23471051      FLOW         ""               FLOW     1.0      1.0      0.03
HW_23561051      FLOW         ""               FLOW     1.0      1.0      0.03
HW_23671001      FLOW         ""               FLOW     1.0      1.0      0.03
HW_23771000      FLOW         ""               FLOW     1.0      1.0      0.03
HW_2387991       FLOW         ""               FLOW     1.0      1.0      0.03
HW_2397990       FLOW         ""               FLOW     1.0      1.0      0.03
HW_2407981       FLOW         ""               FLOW     1.0      1.0      0.03
HW_2417980       FLOW         ""               FLOW     1.0      1.0      0.03
HW_2427971       FLOW         ""               FLOW     1.0      1.0      0.03
HW_2437970       FLOW         ""               FLOW     1.0      1.0      0.03
HW_2447831       FLOW         ""               FLOW     1.0      1.0      0.03
HW_2457830       FLOW         ""               FLOW     1.0      1.0      0.03
HW_2467841       FLOW         ""               FLOW     1.0      1.0      0.03
HW_2477840       FLOW         ""               FLOW     1.0      1.0      0.03
HW_2487851       FLOW         ""               FLOW     1.0      1.0      0.03
HW_2497850       FLOW         ""               FLOW     1.0      1.0      0.03
HW_2507861       FLOW         ""               FLOW     1.0      1.0      0.03
HW_2517860       FLOW         ""               FLOW     1.0      1.0      0.03
HW_2527891       FLOW         ""               FLOW     1.0      1.0      0.03
HW_2537890       FLOW         ""               FLOW     1.0      1.0      0.03
HW_2547921       FLOW         ""               FLOW     1.0      1.0      0.03
HW_2557920       FLOW         ""               FLOW     1.0      1.0      0.03
HW_25671031      FLOW         ""               FLOW     1.0      1.0      0.03
HW_25771030      FLOW         ""               FLOW     1.0      1.0      0.03
HW_2587941       FLOW         ""               FLOW     1.0      1.0      0.03
HW_2597940       FLOW         ""               FLOW     1.0      1.0      0.03
HW_2607951       FLOW         ""               FLOW     1.0      1.0      0.03
HW_2617950       FLOW         ""               FLOW     1.0      1.0      0.03
HW_26279531      FLOW         ""               FLOW     1.0      1.0      0.03
HW_26379530      FLOW         ""               FLOW     1.0      1.0      0.03
HW_26469531      FLOW         ""               FLOW     1.0      1.0      0.03
HW_26569530      FLOW         ""               FLOW     1.0      1.0      0.03
HW_26661071      FLOW         ""               FLOW     1.0      1.0      0.03
HW_26761070      FLOW         ""               FLOW     1.0      1.0      0.03

[COORDINATES]
;;Node           X-Coord            Y-Coord
;;-------------- ------------------ ------------------
883              -21105.88          144664.39         
884              -25691.15          149759.54         
8841             -30016.91          150077.74         
8842             -31716.72          149271.28         
8843             -34762.96          147385.27         
7842             -36462.45          160161.88         
8844             -36350.17          145315.89         
885              -34418.94          144095.63         
886              -35614.76          139764.73         
8861             -38707.48          136308.32         
887              -39315.08          134139.59         
888              -36547.27          129989.71         
889              -36062.52          126578.58         
8891             -35675.29          123348.29         
890              -35569.01          120049.02         
8901             -35933.32          116711.36         
8902             -38226.78          113470.36         
8911             -39146.03          110308.18         
891              -42875.10          110820.14         
8912             -37982.55          107666.21         
892              -36283.18          106053.10         
8921             -36402.09          102608.67         
893              -39375.75          100019.69         
8931             -41038.63          96246.08          
8932             -43376.49          90083.42          
894              -44573.76          84426.69          
8941             -45151.85          72489.01          
8942             -46762.21          64859.78          
896              -45523.36          58420.69          
895              -63425.62          65126.29          
8951             -60210.87          65749.02          
8952             -55390.46          65124.72          
8953             -54234.37          58398.67          
81053            -32258.33          58893.93          
897              -26221.04          129087.11         
898              -27128.21          122308.91         
8981             -27791.81          116084.85         
899              -27655.31          110364.75         
8991             -26925.10          104812.90         
8992             -25186.05          91627.55          
8100             -22436.66          86337.81          
8101             -25088.37          83889.68          
8102             -28167.01          81334.66          
81051            -32715.98          75557.84          
8103             -64289.28          89880.37          
81031            -64407.85          82802.39          
81032            -53482.47          83056.97          
8104             -53866.73          76728.26          
81041            -47144.25          75990.94          
8105             -39655.03          75678.47          
81052            -33244.47          67402.90          
8106             -28736.70          59386.43          
8107             -23732.67          59617.46          
81081            -18253.81          59856.20          
8108             -17779.78          66006.27          
81102            -11830.78          59119.79          
8109             -13155.53          83862.00          
8110             -12866.74          79491.69          
81101            -13248.72          73588.58          
8111             -6348.77           59411.94          
N1               -32786.54          148737.71         
N2               -35255.28          154350.05         
DC7108           -17602.36          65997.64          
DS7108           -17602.36          66097.64          
DC6108           -17702.36          65997.64          
DS6108           -17702.36          66097.64          
DC7107           -23602.36          59597.64          
DS7107           -23602.36          59647.64          
DC71051          -32602.36          75597.64          
DS71051          -32602.36          75697.64          
DC7100           -22302.36          86397.64          
DS7100           -22302.36          86447.64          
DC799            -27592.36          110297.64         
DS799            -27592.36          110347.64         
DC798            -27002.36          122297.64         
DS798            -27002.36          122397.64         
DC797            -26202.36          129097.64         
DS797            -26202.36          129147.64         
DC783            -20902.36          144647.64         
DS783            -20902.36          144697.64         
DC784            -25502.36          149797.64         
DS784            -25502.36          149747.64         
DC785            -34302.36          144097.64         
DS785            -34302.36          143997.64         
DC786            -35502.36          139797.64         
DS786            -35502.36          139847.64         
DC789            -36002.36          126497.64         
DS789            -36002.36          126547.64         
DC792            -36202.36          106097.64         
DS792            -36202.36          106197.64         
DC7103           -64202.36          89897.64          
DS7103           -64202.36          89847.64          
DC794            -44502.36          84397.64          
DS794            -44502.36          84417.64          
DC795            -63302.36          65197.64          
DS795            -63302.36          65097.64          
DC7953           -54102.36          58497.64          
DS7953           -54102.36          58597.64          
DC6953           -54052.36          58497.64          
DS6953           -54052.36          58597.64          
DC6107           -23602.36          59597.64          
DS6107           -23627.36          59597.64          

[MAP]
DIMENSIONS -64407.85 58398.67 -6348.77 160161.88
Units      None

[REPORT]
SUBCATCHMENTS ALL
NODES ALL
LINKS ALL
