;; SWMM5 .inp converted from XPSWMM .xp file
;; Generated by XPSWMM Card Reader
;; Source format: XP_CARD | Original title: Transport Simulation - example input file template
;; Links parsed from source: 8 | Routable in this .inp: 8

[TITLE]
;;Project Title/Notes
Transport Simulation - example input file template

[OPTIONS]
FLOW_UNITS           CFS
INFILTRATION         HORTON
FLOW_ROUTING         DYNWAVE
LINK_OFFSETS         DEPTH
MIN_SLOPE            0.0
ALLOW_PONDING        NO
SKIP_STEADY_STATE    NO
INERTIAL_DAMPING     PARTIAL
NORMAL_FLOW_LIMITED  BOTH
START_DATE           01/01/2001
START_TIME           00:00:00
REPORT_START_DATE    01/01/2001
REPORT_START_TIME    00:00:00
END_DATE             01/02/2001
END_TIME             00:00:00
SWEEP_START          01/01
SWEEP_END            12/31
DRY_DAYS             0
REPORT_STEP          00:15:00
WET_STEP             00:05:00
DRY_STEP             01:00:00

[JUNCTIONS]
;;Name           Elev       MaxDepth   InitDepth  SurDepth   Aponded
;;-------------- ---------- ---------- ---------- ---------- ----------
101              0          0          0          0          0
201              0          0          0          0          0
301              0          0          0          0          0
401              0          0          0          0          0
501              0          0          0          0          0
601              0          0          0          0          0
701              0          0          0          0          0
801              0          0          0          0          0

[OUTFALLS]
;;Name           Elev       Type       Stage      Gated
;;-------------- ---------- ---------- ---------- -----
901              0          FREE                  NO

[CONDUITS]
;;Name           From             To               Length     Roughness  InOffset   OutOffset  InitFlow   MaxFlow
;;-------------- ---------------- ---------------- ---------- ---------- ---------- ---------- ---------- ----------
201              101              201              5000.00    0.0200     5.00       0          0          0
202              201              301              5000.00    0.0200     5.00       0          0          0
203              301              401              5000.00    0.0200     5.00       0          0          0
204              401              501              5000.00    0.0200     5.00       0          0          0
205              501              601              5000.00    0.0200     5.00       0          0          0
206              601              701              5000.00    0.0200     5.00       0          0          0
207              701              801              5000.00    0.0200     5.00       0          0          0
208              801              901              5000.00    0.0200     5.00       0          0          0

[XSECTIONS]
;;Link           Shape        Geom1      Geom2      Geom3      Geom4      Barrels
;;-------------- ------------ ---------- ---------- ---------- ---------- ----------
201              TRAPEZOIDAL  5.00       6.00       1          1          1
202              TRAPEZOIDAL  5.00       6.00       1          1          1
203              TRAPEZOIDAL  5.00       6.00       1          1          1
204              TRAPEZOIDAL  5.00       6.00       1          1          1
205              TRAPEZOIDAL  5.00       6.00       1          1          1
206              TRAPEZOIDAL  5.00       6.00       1          1          1
207              TRAPEZOIDAL  5.00       6.00       1          1          1
208              TRAPEZOIDAL  5.00       6.00       1          1          1

[LOSSES]
;;Link           Inlet      Outlet     Average    Flap Gate
;;-------------- ---------- ---------- ---------- ----------
201              0          0          0          NO
202              0          0          0          NO
203              0          0          0          NO
204              0          0          0          NO
205              0          0          0          NO
206              0          0          0          NO
207              0          0          0          NO
208              0          0          0          NO

[INFLOWS]
;;Node           Constituent  Time Series      Type     Mfactor  Sfactor  Baseline Pattern
;;-------------- ------------ ---------------- -------- -------- -------- -------- --------
;; SYNTHETIC TEST INFLOWS — the source .xp carried no constant inflows
;; and RUNF hydrology is not converted; 1.00 CFS is applied at each
;; headwater node so the network runs wet for QA. Replace with real
;; hydrology or inflow hydrographs before using results.
101              FLOW         ""               FLOW     1.0      1.0      1.00

[COORDINATES]
;;Node           X-Coord            Y-Coord
;;-------------- ------------------ ------------------
101              332.17             -4.08             
201              342.44             14.27             
301              353.24             -3.51             
401              367.15             13.75             
501              378.52             -3.78             
601              394.28             10.77             
701              405.47             -2.26             
801              419.94             10.63             
901              432.32             -2.67             

[MAP]
DIMENSIONS 332.17 -4.08 432.32 14.27
Units      None

[REPORT]
SUBCATCHMENTS ALL
NODES ALL
LINKS ALL
