;; SWMM5 .inp converted from XPSWMM .xp file
;; Generated by XPSWMM Card Reader
;; Source format: XP_CARD | Original title: (none)
;; Links parsed from source: 14 | Routable in this .inp: 14

[TITLE]
;;Project Title/Notes
Converted from XPSWMM .xp file

[OPTIONS]
FLOW_UNITS           CFS
INFILTRATION         HORTON
FLOW_ROUTING         DYNWAVE
LINK_OFFSETS         DEPTH
MIN_SLOPE            0.0
ALLOW_PONDING        NO
SKIP_STEADY_STATE    NO
ROUTING_STEP         00:00:10
VARIABLE_STEP        0.75
INERTIAL_DAMPING     PARTIAL
NORMAL_FLOW_LIMITED  BOTH
MAX_TRIALS           50
START_DATE           01/01/2001
START_TIME           00:00:00
REPORT_START_DATE    01/01/2001
REPORT_START_TIME    00:00:00
END_DATE             01/02/2001
END_TIME             00:00:00
SWEEP_START          01/01
SWEEP_END            12/31
DRY_DAYS             0
REPORT_STEP          00:15:00
WET_STEP             00:05:00
DRY_STEP             01:00:00

[JUNCTIONS]
;;Name           Elev       MaxDepth   InitDepth  SurDepth   Aponded
;;-------------- ---------- ---------- ---------- ---------- ----------
238              20.00      0          0          0          0
240              20.00      0          0          0          0

[OUTFALLS]
;;Name           Elev       Type       Stage      Gated
;;-------------- ---------- ---------- ---------- -----
Outfall          20.00      FREE                  NO

[STORAGE]
;;Name           Elev       MaxDepth   InitDepth  Shape      Curve/Params
;;-------------- ---------- ---------- ---------- ---------- ----------
Duckpond         20.00      10.00      2.50       FUNCTIONAL 1000.00 0          0
202              20.00      10.00      2.50       FUNCTIONAL 1000.00 0          0
203              20.00      10.00      2.50       FUNCTIONAL 1000.00 0          0
204              20.00      10.00      2.50       FUNCTIONAL 1000.00 0          0
205              20.00      10.00      2.50       FUNCTIONAL 1000.00 0          0
206              20.00      10.00      2.50       FUNCTIONAL 1000.00 0          0
207              20.00      10.00      2.50       FUNCTIONAL 1000.00 0          0

[CONDUITS]
;;Name           From             To               Length     Roughness  InOffset   OutOffset  InitFlow   MaxFlow
;;-------------- ---------------- ---------------- ---------- ---------- ---------- ---------- ---------- ----------
239              206              238              100.00     0.0140     10.00      9.99       0          0
241              238              240              100.00     0.0140     9.99       9.98       0          0
243              240              Outfall          100.00     0.0140     9.98       9.97       0          0

[ORIFICES]
;;Name           From             To               Type       Offset     Qcoeff     Gated    CloseTime
;;-------------- ---------------- ---------------- ---------- ---------- ---------- -------- ----------
227              Duckpond         202              SIDE       0          0.650      NO       0
228              202              205              SIDE       0          0.650      NO       0
229              205              Duckpond         SIDE       0          0.650      NO       0
230              202              207              SIDE       0          0.650      NO       0
231              207              203              SIDE       0          0.650      NO       0
232              203              204              SIDE       0          0.650      NO       0
233              204              206              SIDE       0          0.650      NO       0
234              206              203              SIDE       0          0.650      NO       0
235              203              202              SIDE       0          0.650      NO       0
236              205              207              SIDE       0          0.650      NO       0
237              207              206              SIDE       0          0.650      NO       0

[XSECTIONS]
;;Link           Shape        Geom1      Geom2      Geom3      Geom4      Barrels
;;-------------- ------------ ---------- ---------- ---------- ---------- ----------
239              TRAPEZOIDAL  4.00       4.00       1          1          1
241              TRAPEZOIDAL  4.00       4.00       1          1          1
243              TRAPEZOIDAL  4.00       4.00       1          1          1
227              RECT_CLOSED  0.50       0.50       0          0
228              RECT_CLOSED  0.50       0.50       0          0
229              RECT_CLOSED  0.50       0.50       0          0
230              RECT_CLOSED  0.50       0.50       0          0
231              RECT_CLOSED  0.50       0.50       0          0
232              RECT_CLOSED  0.50       0.50       0          0
233              RECT_CLOSED  0.50       0.50       0          0
234              RECT_CLOSED  0.50       0.50       0          0
235              RECT_CLOSED  0.50       0.50       0          0
236              RECT_CLOSED  0.50       0.50       0          0
237              RECT_CLOSED  0.50       0.50       0          0

[LOSSES]
;;Link           Inlet      Outlet     Average    Flap Gate
;;-------------- ---------- ---------- ---------- ----------
239              0          0          0          NO
241              0          0          0          NO
243              0          0          0          NO

[INFLOWS]
;;Node           Constituent  Time Series      Type     Mfactor  Sfactor  Baseline Pattern
;;-------------- ------------ ---------------- -------- -------- -------- -------- --------
;; SYNTHETIC TEST INFLOWS — the source .xp carried no constant inflows
;; and RUNF hydrology is not converted; 1.00 CFS is applied at each
;; headwater node so the network runs wet for QA. Replace with real
;; hydrology or inflow hydrographs before using results.
Duckpond         FLOW         ""               FLOW     1.0      1.0      1.00

[COORDINATES]
;;Node           X-Coord            Y-Coord
;;-------------- ------------------ ------------------
Duckpond         17.64              17.64             
202              17.52              52.62             
203              17.64              97.64             
204              17.64              117.64            
205              37.64              37.64             
206              37.64              117.64            
207              37.64              77.64             
238              57.64              117.64            
240              57.64              97.64             
Outfall          57.64              77.64             

[MAP]
DIMENSIONS 17.52 17.64 57.64 117.64
Units      None

[REPORT]
SUBCATCHMENTS ALL
NODES ALL
LINKS ALL
