;; SWMM5 .inp converted from XPSWMM .xp file
;; Generated by XPSWMM Card Reader
;; Source format: XP_CARD | Original title: (none)
;; Links parsed from source: 8 | Routable in this .inp: 8

[TITLE]
;;Project Title/Notes
Converted from XPSWMM .xp file

[OPTIONS]
FLOW_UNITS           CFS
INFILTRATION         HORTON
FLOW_ROUTING         DYNWAVE
LINK_OFFSETS         DEPTH
MIN_SLOPE            0.0
ALLOW_PONDING        NO
SKIP_STEADY_STATE    NO
INERTIAL_DAMPING     PARTIAL
NORMAL_FLOW_LIMITED  BOTH
START_DATE           01/01/2001
START_TIME           00:00:00
REPORT_START_DATE    01/01/2001
REPORT_START_TIME    00:00:00
END_DATE             01/02/2001
END_TIME             00:00:00
SWEEP_START          01/01
SWEEP_END            12/31
DRY_DAYS             0
REPORT_STEP          00:15:00
WET_STEP             00:05:00
DRY_STEP             01:00:00

[JUNCTIONS]
;;Name           Elev       MaxDepth   InitDepth  SurDepth   Aponded
;;-------------- ---------- ---------- ---------- ---------- ----------
202              0          0          0          0          0
203              0          0          0          0          0
205              0          0          0          0          0
207              0          0          0          0          0
209              0          0          0          0          0
211              0          0          0          0          0
213              0          0          0          0          0
215              0          0          0          0          0

[OUTFALLS]
;;Name           Elev       Type       Stage      Gated
;;-------------- ---------- ---------- ---------- -----
217              0          FREE                  NO

[CONDUITS]
;;Name           From             To               Length     Roughness  InOffset   OutOffset  InitFlow   MaxFlow
;;-------------- ---------------- ---------------- ---------- ---------- ---------- ---------- ---------- ----------
204              202              203              100.00     0.0130     0          0          0          0
206              203              205              100.00     0.0130     0          0          0          0
208              205              207              100.00     0.0130     0          0          0          0
210              207              209              100.00     0.0130     0          0          0          0
212              209              211              100.00     0.0130     0          0          0          0
214              211              213              100.00     0.0130     0          0          0          0
216              213              215              100.00     0.0130     0          0          0          0
218              215              217              100.00     0.0130     0          0          0          0

[XSECTIONS]
;;Link           Shape        Geom1      Geom2      Geom3      Geom4      Barrels
;;-------------- ------------ ---------- ---------- ---------- ---------- ----------
204              CIRCULAR     1.00       0          0          0          1
206              CIRCULAR     1.00       0          0          0          1
208              CIRCULAR     1.00       0          0          0          1
210              CIRCULAR     1.00       0          0          0          1
212              CIRCULAR     1.00       0          0          0          1
214              CIRCULAR     1.00       0          0          0          1
216              CIRCULAR     1.00       0          0          0          1
218              CIRCULAR     1.00       0          0          0          1

[LOSSES]
;;Link           Inlet      Outlet     Average    Flap Gate
;;-------------- ---------- ---------- ---------- ----------
204              0          0          0          NO
206              0          0          0          NO
208              0          0          0          NO
210              0          0          0          NO
212              0          0          0          NO
214              0          0          0          NO
216              0          0          0          NO
218              0          0          0          NO

[INFLOWS]
;;Node           Constituent  Time Series      Type     Mfactor  Sfactor  Baseline Pattern
;;-------------- ------------ ---------------- -------- -------- -------- -------- --------
;; SYNTHETIC TEST INFLOWS — the source .xp carried no constant inflows
;; and RUNF hydrology is not converted; 1.00 CFS is applied at each
;; headwater node so the network runs wet for QA. Replace with real
;; hydrology or inflow hydrographs before using results.
202              FLOW         ""               FLOW     1.0      1.0      1.00

[COORDINATES]
;;Node           X-Coord            Y-Coord
;;-------------- ------------------ ------------------
202              12.32              115.45            
203              28.41              116.63            
205              45.93              114.27            
207              57.77              105.24            
209              67.71              91.50             
211              75.28              78.15             
213              84.75              66.76             
215              86.17              46.73             
217              85.22              27.49             

[MAP]
DIMENSIONS 12.32 27.49 86.17 116.63
Units      None

[REPORT]
SUBCATCHMENTS ALL
NODES ALL
LINKS ALL
