;; SWMM5 .inp converted from XPSWMM .xp file
;; Generated by XPSWMM Card Reader
;; Source format: XP_CARD | Original title: (none)
;; Links parsed from source: 78 | Routable in this .inp: 78

[TITLE]
;;Project Title/Notes
Converted from XPSWMM .xp file

[OPTIONS]
FLOW_UNITS           CFS
INFILTRATION         HORTON
FLOW_ROUTING         DYNWAVE
LINK_OFFSETS         DEPTH
MIN_SLOPE            0.0
ALLOW_PONDING        NO
SKIP_STEADY_STATE    NO
INERTIAL_DAMPING     PARTIAL
NORMAL_FLOW_LIMITED  BOTH
START_DATE           01/01/2001
START_TIME           00:00:00
REPORT_START_DATE    01/01/2001
REPORT_START_TIME    00:00:00
END_DATE             01/02/2001
END_TIME             00:00:00
SWEEP_START          01/01
SWEEP_END            12/31
DRY_DAYS             0
REPORT_STEP          00:15:00
WET_STEP             00:05:00
DRY_STEP             01:00:00

[JUNCTIONS]
;;Name           Elev       MaxDepth   InitDepth  SurDepth   Aponded
;;-------------- ---------- ---------- ---------- ---------- ----------
9207O            145.17     0          0          0          0
9206O            144.58     0          0          0          0
9205O            144.25     0          0          0          0
8403O            152.53     0          0          0          0
8401O            148.00     0          0          0          0
8406O            152.19     0          0          0          0
8402O            147.40     0          0          0          0
9199O            142.17     0          0          0          0
9198O            142.67     0          0          0          0
8591O            160.98     0          0          0          0
8592O            158.73     0          0          0          0
8644O            154.61     0          0          0          0
8647O            153.77     0          0          0          0
8648O            152.17     0          0          0          0
8645O            154.44     0          0          0          0
8649O            151.33     0          0          0          0
8652O            146.96     0          0          0          0
8650O            151.09     0          0          0          0
8653O            149.96     0          0          0          0
8651O            153.34     0          0          0          0
8654O            149.35     0          0          0          0
8656O            153.19     0          0          0          0
8657O            154.94     0          0          0          0
8655O            149.04     0          0          0          0
8582O            146.07     0          0          0          0
8581O            147.53     0          0          0          0
8580O            149.00     0          0          0          0
8506O            179.89     0          0          0          0
8507O            177.11     0          0          0          0
8510O            180.11     0          0          0          0
8511O            178.79     0          0          0          0
8490O            175.60     0          0          0          0
8492O            176.21     0          0          0          0
8491O            171.74     0          0          0          0
8497O            169.68     0          0          0          0
8498O            167.81     0          0          0          0
8499O            170.81     0          0          0          0
8500O            174.71     0          0          0          0
8501O            176.27     0          0          0          0
8503O            169.50     0          0          0          0
8502O            166.21     0          0          0          0
8518O            164.24     0          0          0          0
8520O            166.02     0          0          0          0
8519O            163.73     0          0          0          0
8587O            163.26     0          0          0          0
8588O            162.27     0          0          0          0
8523O            165.64     0          0          0          0
8522O            167.20     0          0          0          0
8521O            168.92     0          0          0          0
8508O            174.32     0          0          0          0
8517O            169.84     0          0          0          0
8509O            174.36     0          0          0          0
8512O            177.52     0          0          0          0
8513O            177.70     0          0          0          0
8514O            172.00     0          0          0          0
8515O            167.00     0          0          0          0
8516O            165.10     0          0          0          0
8596O            163.97     0          0          0          0
8597O            162.85     0          0          0          0
8598O            161.69     0          0          0          0
8600O            167.50     0          0          0          0
8599O            160.52     0          0          0          0
8601O            159.03     0          0          0          0
8602O            157.57     0          0          0          0
8603O            156.92     0          0          0          0
8604O            156.54     0          0          0          0
8595O            157.18     0          0          0          0
8594O            157.67     0          0          0          0
8593O            158.11     0          0          0          0
8622O            156.33     0          0          0          0
8623O            155.70     0          0          0          0
8608O            162.54     0          0          0          0
8607O            163.69     0          0          0          0
8606O            164.99     0          0          0          0
8605O            166.29     0          0          0          0
8609O            160.55     0          0          0          0
8646O            154.91     0          0          0          0
8631O            154.51     0          0          0          0
TW_9206P         144.25     0          0          0          0
TW_9205P         143.52     0          0          0          0
TW_8403P         152.19     0          0          0          0
TW_8401P         147.40     0          0          0          0
TW_8406P         152.02     0          0          0          0
TW_8402P         146.55     0          0          0          0
TW_9199P         140.60     0          0          0          0
TW_9198P         142.17     0          0          0          0
TW_8591P         160.23     0          0          0          0
TW_8592P         158.11     0          0          0          0
TW_8644P         153.77     0          0          0          0
TW_8647P         151.33     0          0          0          0
TW_8648P         151.33     0          0          0          0
TW_8645P         153.77     0          0          0          0
TW_8649P         150.26     0          0          0          0
TW_8652P         149.96     0          0          0          0
TW_8650P         150.26     0          0          0          0
TW_8653P         149.35     0          0          0          0
TW_8651P         151.09     0          0          0          0
TW_8654P         149.04     0          0          0          0
TW_8656P         149.35     0          0          0          0
TW_8657P         153.19     0          0          0          0
TW_8655P         147.76     0          0          0          0
TW_8582P         145.29     0          0          0          0
TW_8581P         146.07     0          0          0          0
TW_8580P         147.53     0          0          0          0
TW_8506P         177.11     0          0          0          0
TW_8507P         174.32     0          0          0          0
TW_8510P         178.79     0          0          0          0
TW_8511P         177.52     0          0          0          0
TW_8490P         173.96     0          0          0          0
TW_8492P         173.98     0          0          0          0
TW_8491P         169.68     0          0          0          0
TW_8497P         167.81     0          0          0          0
TW_8498P         166.21     0          0          0          0
TW_8499P         167.81     0          0          0          0
TW_8500P         170.81     0          0          0          0
TW_8501P         174.71     0          0          0          0
TW_8503P         167.92     0          0          0          0
TW_8502P         164.24     0          0          0          0
TW_8518P         163.73     0          0          0          0
TW_8520P         164.98     0          0          0          0
TW_8519P         163.26     0          0          0          0
TW_8587P         162.27     0          0          0          0
TW_8588P         161.14     0          0          0          0
TW_8523P         164.00     0          0          0          0
TW_8522P         165.64     0          0          0          0
TW_8521P         167.20     0          0          0          0
TW_8508P         171.94     0          0          0          0
TW_8517P         167.00     0          0          0          0
TW_8509P         171.94     0          0          0          0
TW_8512P         175.90     0          0          0          0
TW_8513P         176.00     0          0          0          0
TW_8514P         170.70     0          0          0          0
TW_8515P         165.10     0          0          0          0
TW_8516P         163.97     0          0          0          0
TW_8596P         162.85     0          0          0          0
TW_8597P         161.69     0          0          0          0
TW_8598P         160.52     0          0          0          0
TW_8600P         163.55     0          0          0          0
TW_8599P         159.03     0          0          0          0
TW_8601P         157.65     0          0          0          0
TW_8602P         156.92     0          0          0          0
TW_8603P         156.54     0          0          0          0
TW_8604P         156.14     0          0          0          0
TW_8595P         156.37     0          0          0          0
TW_8594P         157.18     0          0          0          0
TW_8593P         157.67     0          0          0          0
TW_8622P         155.70     0          0          0          0
TW_8623P         155.51     0          0          0          0
TW_8608P         161.60     0          0          0          0
TW_8607P         162.54     0          0          0          0
TW_8606P         163.69     0          0          0          0
TW_8605P         164.99     0          0          0          0
TW_8609P         159.60     0          0          0          0
TW_8646P         154.44     0          0          0          0
TW_8631P         154.13     0          0          0          0

[OUTFALLS]
;;Name           Elev       Type       Stage      Gated
;;-------------- ---------- ---------- ---------- -----
TW_9207P         144.58     FREE                  NO

[CONDUITS]
;;Name           From             To               Length     Roughness  InOffset   OutOffset  InitFlow   MaxFlow
;;-------------- ---------------- ---------------- ---------- ---------- ---------- ---------- ---------- ----------
9207P            9207O            TW_9207P         207.00     0.0130     145.17     144.58     0          0
9206P            9206O            TW_9206P         105.00     0.0130     144.58     144.25     0          0
9205P            9205O            TW_9205P         260.00     0.0130     144.25     143.52     0          0
8403P            8403O            TW_8403P         232.00     0.0130     152.53     152.19     0          0
8401P            8401O            TW_8401P         200.00     0.0130     148.00     147.40     0          0
8406P            8406O            TW_8406P         57.00      0.0130     152.19     152.02     0          0
8402P            8402O            TW_8402P         300.00     0.0130     147.40     146.55     0          0
9199P            9199O            TW_9199P         312.00     0.0130     142.17     140.60     0          0
9198P            9198O            TW_9198P         165.00     0.0130     142.67     142.17     0          0
8591P            8591O            TW_8591P         250.00     0.0130     160.98     160.23     0          0
8592P            8592O            TW_8592P         263.00     0.0130     158.73     158.11     0          0
8644P            8644O            TW_8644P         210.00     0.0130     154.61     153.77     0          0
8647P            8647O            TW_8647P         621.00     0.0130     153.77     151.33     0          0
8648P            8648O            TW_8648P         264.00     0.0130     152.17     151.33     0          0
8645P            8645O            TW_8645P         190.00     0.0130     154.44     153.77     0          0
8649P            8649O            TW_8649P         499.00     0.0130     151.33     150.26     0          0
8652P            8652O            TW_8652P         27.00      0.0130     146.96     149.96     0          0
8650P            8650O            TW_8650P         260.00     0.0130     151.09     150.26     0          0
8653P            8653O            TW_8653P         290.00     0.0130     149.96     149.35     0          0
8651P            8651O            TW_8651P         300.00     0.0130     153.34     151.09     0          0
8654P            8654O            TW_8654P         145.00     0.0130     149.35     149.04     0          0
8656P            8656O            TW_8656P         295.00     0.0130     153.19     149.35     0          0
8657P            8657O            TW_8657P         292.00     0.0130     154.94     153.19     0          0
8655P            8655O            TW_8655P         610.00     0.0130     149.04     147.76     0          0
8582P            8582O            TW_8582P         161.00     0.0130     146.07     145.29     0          0
8581P            8581O            TW_8581P         280.00     0.0130     147.53     146.07     0          0
8580P            8580O            TW_8580P         245.00     0.0130     149.00     147.53     0          0
8506P            8506O            TW_8506P         464.00     0.0130     179.89     177.11     0          0
8507P            8507O            TW_8507P         464.00     0.0130     177.11     174.32     0          0
8510P            8510O            TW_8510P         264.00     0.0130     180.11     178.79     0          0
8511P            8511O            TW_8511P         253.00     0.0130     178.79     177.52     0          0
8490P            8490O            TW_8490P         274.00     0.0130     175.60     173.96     0          0
8492P            8492O            TW_8492P         400.00     0.0130     176.21     173.98     0          0
8491P            8491O            TW_8491P         343.00     0.0130     171.74     169.68     0          0
8497P            8497O            TW_8497P         313.00     0.0130     169.68     167.81     0          0
8498P            8498O            TW_8498P         285.00     0.0130     167.81     166.21     0          0
8499P            8499O            TW_8499P         270.00     0.0130     170.81     167.81     0          0
8500P            8500O            TW_8500P         260.00     0.0130     174.71     170.81     0          0
8501P            8501O            TW_8501P         260.00     0.0130     176.27     174.71     0          0
8503P            8503O            TW_8503P         264.00     0.0130     169.50     167.92     0          0
8502P            8502O            TW_8502P         820.00     0.0130     166.21     164.24     0          0
8518P            8518O            TW_8518P         212.00     0.0130     164.24     163.73     0          0
8520P            8520O            TW_8520P         260.00     0.0130     166.02     164.98     0          0
8519P            8519O            TW_8519P         196.00     0.0130     163.73     163.26     0          0
8587P            8587O            TW_8587P         260.00     0.0130     163.26     162.27     0          0
8588P            8588O            TW_8588P         270.00     0.0130     162.27     161.14     0          0
8523P            8523O            TW_8523P         273.00     0.0130     165.64     164.00     0          0
8522P            8522O            TW_8522P         260.00     0.0130     167.20     165.64     0          0
8521P            8521O            TW_8521P         245.00     0.0130     168.92     167.20     0          0
8508P            8508O            TW_8508P         265.00     0.0130     174.32     171.94     0          0
8517P            8517O            TW_8517P         803.00     0.0130     169.84     167.00     0          0
8509P            8509O            TW_8509P         242.00     0.0130     174.36     171.94     0          0
8512P            8512O            TW_8512P         405.00     0.0130     177.52     175.90     0          0
8513P            8513O            TW_8513P         284.00     0.0130     177.70     176.00     0          0
8514P            8514O            TW_8514P         260.00     0.0130     172.00     170.70     0          0
8515P            8515O            TW_8515P         270.00     0.0130     167.00     165.10     0          0
8516P            8516O            TW_8516P         250.00     0.0130     165.10     163.97     0          0
8596P            8596O            TW_8596P         249.00     0.0130     163.97     162.85     0          0
8597P            8597O            TW_8597P         258.00     0.0130     162.85     161.69     0          0
8598P            8598O            TW_8598P         260.00     0.0130     161.69     160.52     0          0
8600P            8600O            TW_8600P         393.00     0.0130     167.50     163.55     0          0
8599P            8599O            TW_8599P         271.00     0.0130     160.52     159.03     0          0
8601P            8601O            TW_8601P         250.00     0.0130     159.03     157.65     0          0
8602P            8602O            TW_8602P         263.00     0.0130     157.57     156.92     0          0
8603P            8603O            TW_8603P         150.00     0.0130     156.92     156.54     0          0
8604P            8604O            TW_8604P         158.00     0.0130     156.54     156.14     0          0
8595P            8595O            TW_8595P         260.00     0.0130     157.18     156.37     0          0
8594P            8594O            TW_8594P         260.00     0.0130     157.67     157.18     0          0
8593P            8593O            TW_8593P         260.00     0.0130     158.11     157.67     0          0
8622P            8622O            TW_8622P         250.00     0.0130     156.33     155.70     0          0
8623P            8623O            TW_8623P         69.00      0.0130     155.70     155.51     0          0
8608P            8608O            TW_8608P         187.00     0.0130     162.54     161.60     0          0
8607P            8607O            TW_8607P         230.00     0.0130     163.69     162.54     0          0
8606P            8606O            TW_8606P         260.00     0.0130     164.99     163.69     0          0
8605P            8605O            TW_8605P         260.00     0.0130     166.29     164.99     0          0
8609P            8609O            TW_8609P         271.00     0.0130     160.55     159.60     0          0
8646P            8646O            TW_8646P         135.00     0.0130     154.91     154.44     0          0
8631P            8631O            TW_8631P         216.00     0.0130     154.51     154.13     0          0

[XSECTIONS]
;;Link           Shape        Geom1      Geom2      Geom3      Geom4      Barrels
;;-------------- ------------ ---------- ---------- ---------- ---------- ----------
9207P            RECT_CLOSED  3.00       2.00       0          0          1
9206P            CIRCULAR     2.25       0          0          0          1
9205P            CIRCULAR     2.25       0          0          0          1
8403P            CIRCULAR     1.25       0          0          0          1
8401P            CIRCULAR     1.00       0          0          0          1
8406P            CIRCULAR     1.25       0          0          0          1
8402P            CIRCULAR     1.00       0          0          0          1
9199P            CIRCULAR     1.50       0          0          0          1
9198P            CIRCULAR     1.50       0          0          0          1
8591P            CIRCULAR     1.00       0          0          0          1
8592P            CIRCULAR     2.50       0          0          0          1
8644P            CIRCULAR     0.83       0          0          0          1
8647P            CIRCULAR     1.25       0          0          0          1
8648P            CIRCULAR     1.00       0          0          0          1
8645P            CIRCULAR     1.00       0          0          0          1
8649P            CIRCULAR     1.75       0          0          0          1
8652P            CIRCULAR     2.25       0          0          0          1
8650P            CIRCULAR     1.00       0          0          0          1
8653P            CIRCULAR     2.25       0          0          0          1
8651P            CIRCULAR     0.67       0          0          0          1
8654P            CIRCULAR     2.25       0          0          0          1
8656P            CIRCULAR     0.83       0          0          0          1
8657P            CIRCULAR     0.67       0          0          0          1
8655P            CIRCULAR     2.25       0          0          0          1
8582P            CIRCULAR     1.00       0          0          0          1
8581P            CIRCULAR     0.83       0          0          0          1
8580P            CIRCULAR     0.67       0          0          0          1
8506P            CIRCULAR     0.83       0          0          0          1
8507P            CIRCULAR     0.83       0          0          0          1
8510P            CIRCULAR     1.00       0          0          0          1
8511P            CIRCULAR     1.00       0          0          0          1
8490P            CIRCULAR     1.25       0          0          0          1
8492P            CIRCULAR     1.00       0          0          0          1
8491P            CIRCULAR     1.25       0          0          0          1
8497P            CIRCULAR     1.25       0          0          0          1
8498P            CIRCULAR     1.75       0          0          0          1
8499P            CIRCULAR     1.00       0          0          0          1
8500P            CIRCULAR     0.83       0          0          0          1
8501P            CIRCULAR     0.83       0          0          0          1
8503P            CIRCULAR     0.83       0          0          0          1
8502P            CIRCULAR     2.00       0          0          0          1
8518P            CIRCULAR     2.00       0          0          0          1
8520P            CIRCULAR     0.83       0          0          0          1
8519P            CIRCULAR     2.00       0          0          0          1
8587P            CIRCULAR     2.00       0          0          0          1
8588P            CIRCULAR     2.00       0          0          0          1
8523P            CIRCULAR     1.25       0          0          0          1
8522P            CIRCULAR     1.25       0          0          0          1
8521P            CIRCULAR     1.00       0          0          0          1
8508P            CIRCULAR     0.83       0          0          0          1
8517P            CIRCULAR     1.25       0          0          0          1
8509P            CIRCULAR     1.25       0          0          0          1
8512P            CIRCULAR     1.25       0          0          0          1
8513P            CIRCULAR     1.00       0          0          0          1
8514P            CIRCULAR     1.00       0          0          0          1
8515P            CIRCULAR     1.50       0          0          0          1
8516P            CIRCULAR     1.75       0          0          0          1
8596P            CIRCULAR     1.75       0          0          0          1
8597P            CIRCULAR     1.75       0          0          0          1
8598P            CIRCULAR     1.75       0          0          0          1
8600P            CIRCULAR     0.83       0          0          0          1
8599P            CIRCULAR     1.75       0          0          0          1
8601P            CIRCULAR     1.75       0          0          0          1
8602P            CIRCULAR     2.00       0          0          0          1
8603P            CIRCULAR     2.00       0          0          0          1
8604P            CIRCULAR     2.00       0          0          0          1
8595P            CIRCULAR     2.50       0          0          0          1
8594P            CIRCULAR     2.50       0          0          0          1
8593P            CIRCULAR     2.50       0          0          0          1
8622P            CIRCULAR     2.75       0          0          0          1
8623P            CIRCULAR     2.75       0          0          0          1
8608P            CIRCULAR     0.83       0          0          0          1
8607P            CIRCULAR     0.83       0          0          0          1
8606P            CIRCULAR     0.83       0          0          0          1
8605P            CIRCULAR     0.83       0          0          0          1
8609P            CIRCULAR     0.83       0          0          0          1
8646P            CIRCULAR     1.00       0          0          0          1
8631P            CIRCULAR     3.00       0          0          0          1

[LOSSES]
;;Link           Inlet      Outlet     Average    Flap Gate
;;-------------- ---------- ---------- ---------- ----------
9207P            0          0          0          NO
9206P            0          0          0          NO
9205P            0          0          0          NO
8403P            0          0          0          NO
8401P            0          0          0          NO
8406P            0          0          0          NO
8402P            0          0          0          NO
9199P            0          0          0          NO
9198P            0          0          0          NO
8591P            0          0          0          NO
8592P            0          0          0          NO
8644P            0          0          0          NO
8647P            0          0          0          NO
8648P            0          0          0          NO
8645P            0          0          0          NO
8649P            0          0          0          NO
8652P            0          0          0          NO
8650P            0          0          0          NO
8653P            0          0          0          NO
8651P            0          0          0          NO
8654P            0          0          0          NO
8656P            0          0          0          NO
8657P            0          0          0          NO
8655P            0          0          0          NO
8582P            0          0          0          NO
8581P            0          0          0          NO
8580P            0          0          0          NO
8506P            0          0          0          NO
8507P            0          0          0          NO
8510P            0          0          0          NO
8511P            0          0          0          NO
8490P            0          0          0          NO
8492P            0          0          0          NO
8491P            0          0          0          NO
8497P            0          0          0          NO
8498P            0          0          0          NO
8499P            0          0          0          NO
8500P            0          0          0          NO
8501P            0          0          0          NO
8503P            0          0          0          NO
8502P            0          0          0          NO
8518P            0          0          0          NO
8520P            0          0          0          NO
8519P            0          0          0          NO
8587P            0          0          0          NO
8588P            0          0          0          NO
8523P            0          0          0          NO
8522P            0          0          0          NO
8521P            0          0          0          NO
8508P            0          0          0          NO
8517P            0          0          0          NO
8509P            0          0          0          NO
8512P            0          0          0          NO
8513P            0          0          0          NO
8514P            0          0          0          NO
8515P            0          0          0          NO
8516P            0          0          0          NO
8596P            0          0          0          NO
8597P            0          0          0          NO
8598P            0          0          0          NO
8600P            0          0          0          NO
8599P            0          0          0          NO
8601P            0          0          0          NO
8602P            0          0          0          NO
8603P            0          0          0          NO
8604P            0          0          0          NO
8595P            0          0          0          NO
8594P            0          0          0          NO
8593P            0          0          0          NO
8622P            0          0          0          NO
8623P            0          0          0          NO
8608P            0          0          0          NO
8607P            0          0          0          NO
8606P            0          0          0          NO
8605P            0          0          0          NO
8609P            0          0          0          NO
8646P            0          0          0          NO
8631P            0          0          0          NO

[INFLOWS]
;;Node           Constituent  Time Series      Type     Mfactor  Sfactor  Baseline Pattern
;;-------------- ------------ ---------------- -------- -------- -------- -------- --------
;; SYNTHETIC TEST INFLOWS — the source .xp carried no constant inflows
;; and RUNF hydrology is not converted; 1.00 CFS is applied at each
;; headwater node so the network runs wet for QA. Replace with real
;; hydrology or inflow hydrographs before using results.
9207O            FLOW         ""               FLOW     1.0      1.0      1.00
9206O            FLOW         ""               FLOW     1.0      1.0      1.00
9205O            FLOW         ""               FLOW     1.0      1.0      1.00
8403O            FLOW         ""               FLOW     1.0      1.0      1.00
8401O            FLOW         ""               FLOW     1.0      1.0      1.00
8406O            FLOW         ""               FLOW     1.0      1.0      1.00
8402O            FLOW         ""               FLOW     1.0      1.0      1.00
9199O            FLOW         ""               FLOW     1.0      1.0      1.00
9198O            FLOW         ""               FLOW     1.0      1.0      1.00
8591O            FLOW         ""               FLOW     1.0      1.0      1.00
8592O            FLOW         ""               FLOW     1.0      1.0      1.00
8644O            FLOW         ""               FLOW     1.0      1.0      1.00
8647O            FLOW         ""               FLOW     1.0      1.0      1.00
8648O            FLOW         ""               FLOW     1.0      1.0      1.00
8645O            FLOW         ""               FLOW     1.0      1.0      1.00
8649O            FLOW         ""               FLOW     1.0      1.0      1.00
8652O            FLOW         ""               FLOW     1.0      1.0      1.00
8650O            FLOW         ""               FLOW     1.0      1.0      1.00
8653O            FLOW         ""               FLOW     1.0      1.0      1.00
8651O            FLOW         ""               FLOW     1.0      1.0      1.00
8654O            FLOW         ""               FLOW     1.0      1.0      1.00
8656O            FLOW         ""               FLOW     1.0      1.0      1.00
8657O            FLOW         ""               FLOW     1.0      1.0      1.00
8655O            FLOW         ""               FLOW     1.0      1.0      1.00
8582O            FLOW         ""               FLOW     1.0      1.0      1.00
8581O            FLOW         ""               FLOW     1.0      1.0      1.00
8580O            FLOW         ""               FLOW     1.0      1.0      1.00
8506O            FLOW         ""               FLOW     1.0      1.0      1.00
8507O            FLOW         ""               FLOW     1.0      1.0      1.00
8510O            FLOW         ""               FLOW     1.0      1.0      1.00
8511O            FLOW         ""               FLOW     1.0      1.0      1.00
8490O            FLOW         ""               FLOW     1.0      1.0      1.00
8492O            FLOW         ""               FLOW     1.0      1.0      1.00
8491O            FLOW         ""               FLOW     1.0      1.0      1.00
8497O            FLOW         ""               FLOW     1.0      1.0      1.00
8498O            FLOW         ""               FLOW     1.0      1.0      1.00
8499O            FLOW         ""               FLOW     1.0      1.0      1.00
8500O            FLOW         ""               FLOW     1.0      1.0      1.00
8501O            FLOW         ""               FLOW     1.0      1.0      1.00
8503O            FLOW         ""               FLOW     1.0      1.0      1.00
8502O            FLOW         ""               FLOW     1.0      1.0      1.00
8518O            FLOW         ""               FLOW     1.0      1.0      1.00
8520O            FLOW         ""               FLOW     1.0      1.0      1.00
8519O            FLOW         ""               FLOW     1.0      1.0      1.00
8587O            FLOW         ""               FLOW     1.0      1.0      1.00
8588O            FLOW         ""               FLOW     1.0      1.0      1.00
8523O            FLOW         ""               FLOW     1.0      1.0      1.00
8522O            FLOW         ""               FLOW     1.0      1.0      1.00
8521O            FLOW         ""               FLOW     1.0      1.0      1.00
8508O            FLOW         ""               FLOW     1.0      1.0      1.00
8517O            FLOW         ""               FLOW     1.0      1.0      1.00
8509O            FLOW         ""               FLOW     1.0      1.0      1.00
8512O            FLOW         ""               FLOW     1.0      1.0      1.00
8513O            FLOW         ""               FLOW     1.0      1.0      1.00
8514O            FLOW         ""               FLOW     1.0      1.0      1.00
8515O            FLOW         ""               FLOW     1.0      1.0      1.00
8516O            FLOW         ""               FLOW     1.0      1.0      1.00
8596O            FLOW         ""               FLOW     1.0      1.0      1.00
8597O            FLOW         ""               FLOW     1.0      1.0      1.00
8598O            FLOW         ""               FLOW     1.0      1.0      1.00
8600O            FLOW         ""               FLOW     1.0      1.0      1.00
8599O            FLOW         ""               FLOW     1.0      1.0      1.00
8601O            FLOW         ""               FLOW     1.0      1.0      1.00
8602O            FLOW         ""               FLOW     1.0      1.0      1.00
8603O            FLOW         ""               FLOW     1.0      1.0      1.00
8604O            FLOW         ""               FLOW     1.0      1.0      1.00
8595O            FLOW         ""               FLOW     1.0      1.0      1.00
8594O            FLOW         ""               FLOW     1.0      1.0      1.00
8593O            FLOW         ""               FLOW     1.0      1.0      1.00
8622O            FLOW         ""               FLOW     1.0      1.0      1.00
8623O            FLOW         ""               FLOW     1.0      1.0      1.00
8608O            FLOW         ""               FLOW     1.0      1.0      1.00
8607O            FLOW         ""               FLOW     1.0      1.0      1.00
8606O            FLOW         ""               FLOW     1.0      1.0      1.00
8605O            FLOW         ""               FLOW     1.0      1.0      1.00
8609O            FLOW         ""               FLOW     1.0      1.0      1.00
8646O            FLOW         ""               FLOW     1.0      1.0      1.00
8631O            FLOW         ""               FLOW     1.0      1.0      1.00

[REPORT]
SUBCATCHMENTS ALL
NODES ALL
LINKS ALL
