;; SWMM5 .inp converted from XPSWMM .xp file
;; Generated by XPSWMM Card Reader
;; Source format: XP_CARD | Original title: (none)
;; Links parsed from source: 4 | Routable in this .inp: 4

[TITLE]
;;Project Title/Notes
Converted from XPSWMM .xp file

[OPTIONS]
FLOW_UNITS           CFS
INFILTRATION         HORTON
FLOW_ROUTING         DYNWAVE
LINK_OFFSETS         DEPTH
MIN_SLOPE            0.0
ALLOW_PONDING        NO
SKIP_STEADY_STATE    NO
ROUTING_STEP         00:00:02
VARIABLE_STEP        0.75
INERTIAL_DAMPING     NONE
NORMAL_FLOW_LIMITED  BOTH
MAX_TRIALS           50
START_DATE           01/01/2001
START_TIME           00:00:00
REPORT_START_DATE    01/01/2001
REPORT_START_TIME    00:00:00
END_DATE             01/02/2001
END_TIME             00:00:00
SWEEP_START          01/01
SWEEP_END            12/31
DRY_DAYS             0
REPORT_STEP          00:15:00
WET_STEP             00:05:00
DRY_STEP             01:00:00

[JUNCTIONS]
;;Name           Elev       MaxDepth   InitDepth  SurDepth   Aponded
;;-------------- ---------- ---------- ---------- ---------- ----------
10000            140.00     0          0          0          0

[OUTFALLS]
;;Name           Elev       Type       Stage      Gated
;;-------------- ---------- ---------- ---------- -----
11000            140.00     FREE                  NO

[STORAGE]
;;Name           Elev       MaxDepth   InitDepth  Shape      Curve/Params
;;-------------- ---------- ---------- ---------- ---------- ----------
26000            148.00     10.00      0          FUNCTIONAL 1000.00 0          0
4                140.00     10.00      0          FUNCTIONAL 1000.00 0          0
1                140.00     10.00      0          FUNCTIONAL 1000.00 0          0

[CONDUITS]
;;Name           From             To               Length     Roughness  InOffset   OutOffset  InitFlow   MaxFlow
;;-------------- ---------------- ---------------- ---------- ---------- ---------- ---------- ---------- ----------
2x36             26000            4                50.00      0.0140     136.00     135.00     0          0
4x200            1                10000            36.00      0.0140     129.58     128.65     0          0
999              10000            11000            1000.00    0.0600     128.65     113.00     0          0

[WEIRS]
;;Name           From             To               Type       CrestHt    Qcoeff     Gated    EndCon   EndCoeff   Surcharge
;;-------------- ---------------- ---------------- ---------- ---------- ---------- -------- -------- ---------- ----------
100              4                1                TRANSVERSE 136.22     1.840      NO       0        0          YES

[XSECTIONS]
;;Link           Shape        Geom1      Geom2      Geom3      Geom4      Barrels
;;-------------- ------------ ---------- ---------- ---------- ---------- ----------
2x36             CIRCULAR     3.00       0          0          0          2
4x200            CIRCULAR     4.16       0          0          0          4
999              TRAPEZOIDAL  8.00       90.00      1          1          1
100              RECT_OPEN    1.00       50.00      0          0

[LOSSES]
;;Link           Inlet      Outlet     Average    Flap Gate
;;-------------- ---------- ---------- ---------- ----------
2x36             0          0          0          NO
4x200            0          0          0          NO
999              0          0          0          NO

[INFLOWS]
;;Node           Constituent  Time Series      Type     Mfactor  Sfactor  Baseline Pattern
;;-------------- ------------ ---------------- -------- -------- -------- -------- --------
;; SYNTHETIC TEST INFLOWS — the source .xp carried no constant inflows
;; and RUNF hydrology is not converted; 1.00 CFS is applied at each
;; headwater node so the network runs wet for QA. Replace with real
;; hydrology or inflow hydrographs before using results.
26000            FLOW         ""               FLOW     1.0      1.0      1.00

[COORDINATES]
;;Node           X-Coord            Y-Coord
;;-------------- ------------------ ------------------
26000            40.25              38.88             
4                46.88              75.40             
1                57.77              113.10            
10000            74.33              153.15            
11000            101.32             175.14            

[MAP]
DIMENSIONS 40.25 38.88 101.32 175.14
Units      None

[REPORT]
SUBCATCHMENTS ALL
NODES ALL
LINKS ALL
