;; SWMM5 .inp converted from XPSWMM .xp file
;; Generated by XPSWMM Card Reader
;; Source format: XP_CARD | Original title: chute test - rapidly varied flow !!!
;; Links parsed from source: 9 | Routable in this .inp: 9

[TITLE]
;;Project Title/Notes
chute test - rapidly varied flow !!!

[OPTIONS]
FLOW_UNITS           CMS
INFILTRATION         HORTON
FLOW_ROUTING         DYNWAVE
LINK_OFFSETS         DEPTH
MIN_SLOPE            0.0
ALLOW_PONDING        NO
SKIP_STEADY_STATE    NO
ROUTING_STEP         00:00:01
VARIABLE_STEP        0.75
INERTIAL_DAMPING     NONE
NORMAL_FLOW_LIMITED  BOTH
MAX_TRIALS           50
HEAD_TOLERANCE       .001
START_DATE           01/01/2001
START_TIME           00:00:00
REPORT_START_DATE    01/01/2001
REPORT_START_TIME    00:00:00
END_DATE             01/02/2001
END_TIME             00:00:00
SWEEP_START          01/01
SWEEP_END            12/31
DRY_DAYS             0
REPORT_STEP          00:15:00
WET_STEP             00:05:00
DRY_STEP             01:00:00

[JUNCTIONS]
;;Name           Elev       MaxDepth   InitDepth  SurDepth   Aponded
;;-------------- ---------- ---------- ---------- ---------- ----------
201              105.00     0          0          0          0
202              105.00     0          0          0          0
204              105.00     0          0          0          0
206              105.00     0          0          0          0
208              105.00     0          0          0          0
210              105.00     0          0          0          0
212              105.00     0          0          0          0
214              105.00     0          0          0          0
216              105.00     0          0          0          0
IMPLCT           1.00       0          0          0          0

[OUTFALLS]
;;Name           Elev       Type       Stage      Gated
;;-------------- ---------- ---------- ---------- -----
218              105.00     FREE                  NO

[CONDUITS]
;;Name           From             To               Length     Roughness  InOffset   OutOffset  InitFlow   MaxFlow
;;-------------- ---------------- ---------------- ---------- ---------- ---------- ---------- ---------- ----------
203              201              202              8.00       0.0140     100.00     99.00      0          0
205              202              204              8.00       0.0140     99.00      98.00      0          0
207              204              206              8.00       0.0140     98.00      97.00      0          0
209              206              208              8.00       0.0140     97.00      96.00      0          0
211              208              210              8.00       0.0140     96.00      96.00      0          0
213              210              212              8.00       0.0140     96.00      95.90      0          0
215              212              214              8.00       0.0140     95.90      95.80      0          0
CHME217          214              216              6.00       0.0140     95.80      95.80      0          0
219              216              218              10.00      0.0140     95.80      94.00      0          0

[XSECTIONS]
;;Link           Shape        Geom1      Geom2      Geom3      Geom4      Barrels
;;-------------- ------------ ---------- ---------- ---------- ---------- ----------
203              TRAPEZOIDAL  4.00       10.00      1          1          1
205              TRAPEZOIDAL  4.00       10.00      1          1          1
207              TRAPEZOIDAL  4.00       10.00      1          1          1
209              TRAPEZOIDAL  4.00       10.00      1          1          1
211              TRAPEZOIDAL  4.00       4.00       1          1          1
213              TRAPEZOIDAL  4.00       4.00       1          1          1
215              TRAPEZOIDAL  4.00       4.00       1          1          1
CHME217          TRAPEZOIDAL  4.00       5.00       1          1          1
219              TRAPEZOIDAL  3.00       20.00      1          1          1

[LOSSES]
;;Link           Inlet      Outlet     Average    Flap Gate
;;-------------- ---------- ---------- ---------- ----------
203              0          0          0          NO
205              0          0          0          NO
207              0          0          0          NO
209              0          0          0          NO
211              0          0          0          NO
213              0          0          0          NO
215              0          0          0          NO
CHME217          0          0          0          NO
219              0          0          0          NO

[INFLOWS]
;;Node           Constituent  Time Series      Type     Mfactor  Sfactor  Baseline Pattern
;;-------------- ------------ ---------------- -------- -------- -------- -------- --------
;; SYNTHETIC TEST INFLOWS — the source .xp carried no constant inflows
;; and RUNF hydrology is not converted; 0.03 CMS is applied at each
;; headwater node so the network runs wet for QA. Replace with real
;; hydrology or inflow hydrographs before using results.
201              FLOW         ""               FLOW     1.0      1.0      0.03

[COORDINATES]
;;Node           X-Coord            Y-Coord
;;-------------- ------------------ ------------------
201              14.21              14.92             
202              23.21              29.45             
204              32.20              43.20             
206              40.72              54.19             
208              47.82              63.62             
210              47.82              76.18             
212              47.82              88.75             
214              47.64              107.64            
216              47.64              127.64            
218              47.64              147.64            
IMPLCT           17.64              77.64             

[MAP]
DIMENSIONS 14.21 14.92 47.82 147.64
Units      None

[REPORT]
SUBCATCHMENTS ALL
NODES ALL
LINKS ALL
