;; SWMM5 .inp converted from XPSWMM .xp file
;; Generated by XPSWMM Card Reader
;; Source format: XP_CARD | Original title: City of Camden and Gloucester City Sewer System Model
;; NOTE: 151 link(s) dropped (missing endpoint): TS2-C2, TS5-C2, TS7-C2, TS1-C5, TS1-C9, TS1-C14, TS3-C11, TS3-C10, TS9-C3, IC3-C22, FM1-PI, FM2-BA, TS1-C23, WEIR-C24, TS1-C24, OP-C24, IC3-C24, TG1-C32, OP-C32, IC3-C32, IC2-C32, IC1-C32, TS1-G2, TG1-G2, OP-G2, G02RG, TS1-G1, TG1-G1, OP-G1, G01RG, TS1-G3, TG1-G3, OP-G3, G03RG, TS1-G4, TG1-G4, OP-G4, G04RG, TS1-G5, TG1-G5, OP-G5, G05RG, TS1-G6, TG1-G6, OP-G6, G06RG, TS1-G7, TG1-G7, OP-G7, G07RG, IC3-G7, IC-C24C23, TS2-C24, TS2-C23, S1-C22A, TS4-C22A, S3-C22A, TS6-C22A, TS5-C22A, FS3-C22A23, FS2-C22A23, FS1-C22A23, TS6-C23, TS5-C23, TS4-C23, TS3-C23, TS7-C23, TS8-C23, TS5-C22, TS4-C22, S3-C22, TS7-C22, TS6-C22, TS6-C11, S2-C15, S2-C17, S19-C3, S20-C3, S11-C3, S3-C1, TS2-G1, TS2-G4, TS4-G4, TS3-G4, FM1-ESSEX, TS2-G6, FM1-FERRY, TS12-C2, TS8-C2, FM1-MTEPH, TS2-ME, TS5-C1, S4-C1, S2-C27, TS1-C28A, C1-C28A, OP1-C28A, TG-C28A, TS3-C9, C23A-WEIR, TG1-C23A, OP-C23A, CFE, C27B, TS6A-C22, CMT, OP3-TH, OP2-TH, OP1-TH, TS1-CFA, CFA-WEIR, CFA-OP1, TG1-TH, OP-CME, TS1-ME, KING, TS3-G6, IC3-G6, IC3-G5, IC3-G4, IC3-G3, IC3-G1, IC3-G2, IC-G2G3, GL-PS, FM1-GL, IC5-GL, IC-Pennsk, IC1-C32PEN, BR-PS, M-BR-PS, C1-GL, UMMY-AR, CFA-DUMMY, BR-DUMMY, C2-COUNTY, IC3-COUNTY, IC4-COUNTY, IC5-COUNTY, GL-SIPH, GC-FM2, C3-C6, C-FV, C22-DUM-2, C22-DUM-1, GL-PS-Dum, WEIR-C22, DUMMY-ORIF, G4-TG, OP-C28ADUM, DUMMY-C32

[TITLE]
;;Project Title/Notes
City of Camden and Gloucester City Sewer System Model

[OPTIONS]
FLOW_UNITS           CFS
INFILTRATION         HORTON
FLOW_ROUTING         DYNWAVE
LINK_OFFSETS         DEPTH
MIN_SLOPE            0.0
ALLOW_PONDING        NO
SKIP_STEADY_STATE    NO
ROUTING_STEP         00:00:30
VARIABLE_STEP        0.75
INERTIAL_DAMPING     PARTIAL
NORMAL_FLOW_LIMITED  BOTH
MAX_TRIALS           50
HEAD_TOLERANCE       0.0033
START_DATE           01/01/2001
START_TIME           00:00:00
REPORT_START_DATE    01/01/2001
REPORT_START_TIME    00:00:00
END_DATE             01/02/2001
END_TIME             00:00:00
SWEEP_START          01/01
SWEEP_END            12/31
DRY_DAYS             0
REPORT_STEP          00:15:00
WET_STEP             00:05:00
DRY_STEP             01:00:00

[JUNCTIONS]
;;Name           Elev       MaxDepth   InitDepth  SurDepth   Aponded
;;-------------- ---------- ---------- ---------- ---------- ----------
GC-COU-JNC       12.90      0          0          0          0
IC-WPCF          10.25      0          0          0          0
GT-County        10.75      0          0          0          0
GT-Camden        10.75      0          0          0          0
C2-FE-IC50       6.50       0          0          0          0
OF-C3            3.69       0          0          0          0
C2-FE-IC40       6.39       0          0          0          0
C2-IC            6.55       0          0          0          0
C2-JE-009        6.55       0          0          0          0
OF-C2            7.95       0          0          0          0
C2-JE-055        12.93      0          0          0          0
C3-08-065        7.58       0          0          0          0
C3-08-094        8.58       0          0          0          0
C3-10-124        6.94       0          0          0          0
OF-C1            9.00       0          0          0          0
OF-C5            5.19       0          0          0          0
IC-C5            5.51       0          0          0          0
OF-C6            6.83       0          0          0          0
C6-IC            6.23       0          0          0          0
OF-C7            6.72       0          0          0          0
C7-IC            5.67       0          0          0          0
OF-C8            10.04      0          0          0          0
C8-IC            6.32       0          0          0          0
OF-C9            3.67       0          0          0          0
OF1-C9           8.61       0          0          0          0
OF-C10           4.96       0          0          0          0
C10-AR-008       4.90       0          0          0          0
AR-IC            9.01       0          0          0          0
C11-IC           5.50       0          0          0          0
OF-C11           7.13       0          0          0          0
C12-IC           6.26       0          0          0          0
OF-C12           6.54       0          0          0          0
C13-IC           11.13      0          0          0          0
OF-C13           3.02       0          0          0          0
C14-IC           9.65       0          0          0          0
OF-C14           8.82       0          0          0          0
C3-08-164        27.30      0          0          0          0
C3-08-134        18.90      0          0          0          0
C3-08-091        9.35       0          0          0          0
C3-EV-075        10.00      0          0          0          0
C13-BE-I25       7.45       0          0          0          0
C12-DE-I70       6.15       0          0          0          0
C7-02-I10        5.96       0          0          0          0
C16-IC           18.00      0          0          0          0
OF-C16           18.36      0          0          0          0
OF-C15           2.41       0          0          0          0
C15-ST-010       17.66      0          0          0          0
C17-IC           5.61       0          0          0          0
OF-C17           7.53       0          0          0          0
OF-C28           2.93       0          0          0          0
OF-C19           12.74      0          0          0          0
OF-C27           10.00      0          0          0          0
PINE-IC          19.44      0          0          0          0
OF-C18           7.39       0          0          0          0
OF-C22           6.18       0          0          0          0
PI-SP-IC75       25.00      0          0          0          0
C17-ME-I10       11.00      0          0          0          0
C16-BR-I50       6.00       0          0          0          0
C16-BR-I45       7.00       0          0          0          0
C16-BR-I30       17.00      0          0          0          0
ST-PE-I40        25.00      0          0          0          0
ST-10-I30        200.00     0          0          0          0
ST-10-I20        200.00     0          0          0          0
C15-IC           15.60      0          0          0          0
C15-ST-I20       15.00      0          0          0          0
C15-ST-I30       10.00      0          0          0          0
ST-ST-F50        200.00     0          0          0          0
FE-FE-F10        200.00     0          0          0          0
FE-FE-F20        9.00       0          0          0          0
FE-FE-F60        6.00       0          0          0          0
OF-C22A          5.26       0          0          0          0
C22A-RI050       15.69      0          0          0          0
C22A-IC          9.50       0          0          0          0
C19-PI-010       200.00     0          0          0          0
BA-BA-F20        200.00     0          0          0          0
OF-C23           5.00       0          0          0          0
C23-HA-I20       6.00       0          0          0          0
OF-C24           6.88       0          0          0          0
C24-27-010       13.00      0          0          0          0
C32-IC           10.00      0          0          0          0
OF-G2            5.22       0          0          0          0
OF-G1            5.15       0          0          0          0
OF-G3            6.67       0          0          0          0
OF-G4            7.49       0          0          0          0
OF-G5            10.38      0          0          0          0
OF-G6            10.95      0          0          0          0
OF-G7            7.02       0          0          0          0
27TH-IC          10.00      0          0          0          0
C22A-RI060       15.70      0          0          0          0
C23-22-050       21.15      0          0          0          0
C23-20-050       17.02      0          0          0          0
C23-19-050       15.69      0          0          0          0
C23A-PR060       8.04       0          0          0          0
C23-PR-060       9.01       0          0          0          0
C23-PR-045       12.00      0          0          0          0
C22-BA-130       20.33      0          0          0          0
C11-PE-030       8.89       0          0          0          0
C9-BE-010        6.32       0          0          0          0
G6-ES-010        5.00       0          0          0          0
G4-MA-040        10.00      0          0          0          0
G4-MA-070        10.00      0          0          0          0
G6-ES-060        15.00      0          0          0          0
C2-FE-220        26.00      0          0          0          0
C2-FE-180        24.00      0          0          0          0
C2-FE-110        11.87      0          0          0          0
C19-PA-080       12.00      0          0          0          0
C19-PA-030       13.50      0          0          0          0
C19-PA-051       11.04      0          0          0          0
C19-PA-060       10.58      0          0          0          0
C1-SY-060        6.78       0          0          0          0
C28A-ES030       4.66       0          0          0          0
C28A-RG          11.44      0          0          0          0
C28A-OF1         11.44      0          0          0          0
OF-C28A          7.11       0          0          0          0
C23A-TG          6.54       0          0          0          0
C23A-TG1         6.54       0          0          0          0
OF-C23A          6.54       0          0          0          0
CFE-OF           26.90      0          0          0          0
C27B-OF          23.95      0          0          0          0
C22-MA-130       19.54      0          0          0          0
CMT-OF           19.54      0          0          0          0
OF-THORN         6.24       0          0          0          0
CFA              12.35      0          0          0          0
OF-CFA           10.00      0          0          0          0
TH-TG1           6.24       0          0          0          0
OF-CME           8.33       0          0          0          0
CME-ME-030       8.33       0          0          0          0
G06-EL-030       18.75      0          0          0          0
G02-WA-I05       4.55       0          0          0          0
IC2-GL-CCM       206.00     0          0          0          0
GL-FM-END        219.95     0          0          0          0
GL-SI1           107.64     0          0          0          0
GL-SI2           107.64     0          0          0          0
BA-FM5           200.00     0          0          0          0
PI-PS            223.00     0          0          0          0
AR-JUNC          7.10       0          0          0          0
CFA-JUNC         13.85      0          0          0          0
BR-JUNC          13.50      0          0          0          0
COU-FA-030       8.40       0          0          0          0
COU-FA-080       10.00      0          0          0          0
COU-04-090       5.80       0          0          0          0
COU-BR-200       10.00      0          0          0          0
GL-RIV           6.43       0          0          0          0
FAIRVIEW         10.80      0          0          0          0
OF-C32           10.50      0          0          0          0
1309             0          0          0          0          0
GL-Dummy         11.00      0          0          0          0
C2-JE-019        6.55       0          0          0          0
1326             0          0          0          0          0
C28A-DUMMY       7.11       0          0          0          0
C32-DUMMY        12.43      0          0          0          0
Node_90          -0.19      0          0          0          0
Node_10221017    -1.50      0          0          0          0
Node_60          -0.52      0          0          0          0
Node_11771017    -1.50      0          0          0          0
Node_11791177    -0.52      0          0          0          0
TS1b-C19         0          0          0          0          0
TS7b-C19         1.25       0          0          0          0
Node_13091310    0.67       0          0          0          0
TS4b-C19         0.42       0          0          0          0
Node_13161253    0.60       0          0          0          0
TS2b-C19         0.17       0          0          0          0
Node_1314752     -0.08      0          0          0          0
TS3b-C19         0.60       0          0          0          0
Node_12531314    0.17       0          0          0          0
TS6b-C19         0.67       0          0          0          0
Node_13101317    0.52       0          0          0          0
TS5b-C19         0.52       0          0          0          0
Node_13171316    0.42       0          0          0          0
Node_15151022    -0.19      0          0          0          0
Node_1323        0          0          0          0          0
Node_12701522    0          0          0          0          0

[OUTFALLS]
;;Name           Elev       Type       Stage      Gated
;;-------------- ---------- ---------- ---------- -----
OF-WPCF          3.69       FREE                  NO

[STORAGE]
;;Name           Elev       MaxDepth   InitDepth  Shape      Curve/Params
;;-------------- ---------- ---------- ---------- ---------- ----------
WPCF             203.69     10.00      0          FUNCTIONAL 110000.00 0          0
PSWW-WPCF        9.00       10.00      0          FUNCTIONAL 500.00 0          0
C3-IC            6.91       10.00      0          FUNCTIONAL 76.50 0          0
C3-TG2           6.91       10.00      0          FUNCTIONAL 126.00 0          0
C3-JA-010        6.88       10.00      0          FUNCTIONAL 6112.00 0          0
C3-TG1           6.91       10.00      0          FUNCTIONAL 126.00 0          0
C3-RG            6.91       10.00      0          FUNCTIONAL 182.30 0          0
C2-IC2           7.46       10.00      0          FUNCTIONAL 48.00 0          0
C2-RG            7.46       10.00      0          FUNCTIONAL 37.50 0          0
C2-TG1           7.46       10.00      0          FUNCTIONAL 35.00 0          0
C2-TG2           7.46       10.00      0          FUNCTIONAL 35.00 0          0
C2-JE-050        8.09       10.00      0          FUNCTIONAL 6132.00 0          0
C2-JE-085        15.19      10.00      0          FUNCTIONAL 9513.00 0          0
C3-JA-018        7.10       10.00      0          FUNCTIONAL 14320.00 0          0
C3-EV-060        9.55       10.00      0          FUNCTIONAL 10870.00 0          0
C3-08-090        8.58       10.00      0          FUNCTIONAL 2633.00 0          0
C3-LI-116        7.98       10.00      0          FUNCTIONAL 8389.00 0          0
C1-RG            9.21       10.00      0          FUNCTIONAL 30.00 0          0
C1-IC            9.21       10.00      0          FUNCTIONAL 79.60 0          0
C1-TG1           9.21       10.00      0          FUNCTIONAL 45.00 0          0
C1-TG2           9.21       10.00      0          FUNCTIONAL 45.00 0          0
C1-FA-030        8.57       10.00      0          FUNCTIONAL 2275.00 0          0
C1-FA-050        4.63       10.00      0          FUNCTIONAL 2938.00 0          0
C5-IC2           5.19       10.00      0          FUNCTIONAL 35.50 0          0
C5-TG2           5.19       10.00      0          FUNCTIONAL 37.50 0          0
C5-TG1           5.19       10.00      0          FUNCTIONAL 37.50 0          0
C5-RG            5.19       10.00      0          FUNCTIONAL 26.00 0          0
C6-TG2           6.83       10.00      0          FUNCTIONAL 32.50 0          0
C6-TG1           6.83       10.00      0          FUNCTIONAL 32.50 0          0
C6-WA-020        5.55       10.00      0          FUNCTIONAL 3468.00 0          0
C6-RG            6.83       10.00      0          FUNCTIONAL 21.20 0          0
C7-IC2           6.72       10.00      0          FUNCTIONAL 33.00 0          0
C7-TG2           6.72       10.00      0          FUNCTIONAL 37.50 0          0
C7-TG1           6.72       10.00      0          FUNCTIONAL 37.50 0          0
C7-DI-010        5.37       10.00      0          FUNCTIONAL 8312.00 0          0
C7-RG            6.72       10.00      0          FUNCTIONAL 22.00 0          0
C5-KA-050        9.80       10.00      0          FUNCTIONAL 10667.00 0          0
C6-WA-040        8.36       10.00      0          FUNCTIONAL 4108.00 0          0
C8-IC2           10.40      10.00      0          FUNCTIONAL 24.00 0          0
C8-TG2           10.04      10.00      0          FUNCTIONAL 74.40 0          0
C8-TG1           10.04      10.00      0          FUNCTIONAL 61.25 0          0
C8-02-010        6.32       10.00      0          FUNCTIONAL 5722.00 0          0
C8-RG            10.04      10.00      0          FUNCTIONAL 27.00 0          0
C9-IC            8.76       10.00      0          FUNCTIONAL 24.00 0          0
C9-TG2           8.61       10.00      0          FUNCTIONAL 37.50 0          0
C9-TG1           8.61       10.00      0          FUNCTIONAL 37.50 0          0
C9-RG            8.61       10.00      0          FUNCTIONAL 25.00 0          0
C10-TG2          4.96       10.00      0          FUNCTIONAL 52.50 0          0
C10-TG1          4.96       10.00      0          FUNCTIONAL 52.50 0          0
C10-IC           4.96       10.00      0          FUNCTIONAL 24.00 0          0
PS-ARCH          9.01       10.00      0          FUNCTIONAL 336.00 0          0
C10-RG           4.96       10.00      0          FUNCTIONAL 48.10 0          0
C11-IC2          7.55       10.00      0          FUNCTIONAL 42.00 0          0
C11-TG2          7.55       10.00      0          FUNCTIONAL 70.00 0          0
C11-TG1          7.55       10.00      0          FUNCTIONAL 70.00 0          0
C11-CO-010       5.53       10.00      0          FUNCTIONAL 6161.00 0          0
C11-RG           7.55       10.00      0          FUNCTIONAL 36.00 0          0
C12-IC2          6.54       10.00      0          FUNCTIONAL 35.80 0          0
C12-TG2          6.54       10.00      0          FUNCTIONAL 24.00 0          0
C12-TG1          6.54       10.00      0          FUNCTIONAL 24.00 0          0
C12-DE-010       5.88       10.00      0          FUNCTIONAL 2400.00 0          0
C12-RG           6.54       10.00      0          FUNCTIONAL 24.00 0          0
C13-IC2          5.60       10.00      0          FUNCTIONAL 33.00 0          0
C13-TG2          5.60       10.00      0          FUNCTIONAL 70.00 0          0
C13-TG1          5.60       10.00      0          FUNCTIONAL 70.00 0          0
C13-SE-010       11.62      10.00      0          FUNCTIONAL 3453.00 0          0
C13-RG           5.60       10.00      0          FUNCTIONAL 32.00 0          0
C14-IC2          8.82       10.00      0          FUNCTIONAL 24.00 0          0
C14-TG2          8.82       10.00      0          FUNCTIONAL 32.50 0          0
C14-TG1          8.82       10.00      0          FUNCTIONAL 32.50 0          0
C14-RG           8.82       10.00      0          FUNCTIONAL 18.00 0          0
C13-ST-060       12.76      10.00      0          FUNCTIONAL 10504.00 0          0
C11-CO-020       9.42       10.00      0          FUNCTIONAL 3729.00 0          0
C11-FR-040       8.70       10.00      0          FUNCTIONAL 4773.00 0          0
C11-FR-060       8.47       10.00      0          FUNCTIONAL 9167.00 0          0
C10-AR-010       4.71       10.00      0          FUNCTIONAL 7857.00 0          0
C9-BE-050        10.00      10.00      0          FUNCTIONAL 6557.00 0          0
C8-BE-018        5.55       10.00      0          FUNCTIONAL 11819.00 0          0
C7-02-018        5.30       10.00      0          FUNCTIONAL 5201.00 0          0
C3-LI-160        21.55      10.00      0          FUNCTIONAL 10765.00 0          0
C3-ME-210        33.91      10.00      0          FUNCTIONAL 17206.00 0          0
C3-08-095        10.31      10.00      0          FUNCTIONAL 10658.00 0          0
C3-EV-085        16.50      10.00      0          FUNCTIONAL 5163.00 0          0
C16-IC2          18.36      10.00      0          FUNCTIONAL 30.00 0          0
C16-TG1          18.36      10.00      0          FUNCTIONAL 39.00 0          0
C16-RG           18.36      10.00      0          FUNCTIONAL 30.00 0          0
C16-LI-010       17.63      10.00      0          FUNCTIONAL 2520.00 0          0
C15-IC2          15.61      10.00      0          FUNCTIONAL 27.50 0          0
C15-TG1          15.61      10.00      0          FUNCTIONAL 45.00 0          0
C15-RG           15.61      10.00      0          FUNCTIONAL 27.50 0          0
C17-IC2          7.53       10.00      0          FUNCTIONAL 30.00 0          0
C17-TG2          7.53       10.00      0          FUNCTIONAL 45.00 0          0
C17-TG1          7.53       10.00      0          FUNCTIONAL 45.00 0          0
C17-RG           7.53       10.00      0          FUNCTIONAL 30.00 0          0
C17-AD-010       6.03       10.00      0          FUNCTIONAL 3673.00 0          0
C28-IC2          9.43       10.00      0          FUNCTIONAL 33.00 0          0
C28-TG2          9.43       10.00      0          FUNCTIONAL 44.00 0          0
C28-TG1          9.43       10.00      0          FUNCTIONAL 44.00 0          0
C28-RG           9.43       10.00      0          FUNCTIONAL 24.00 0          0
C28-ES-030       4.66       10.00      0          FUNCTIONAL 5124.00 0          0
C19-TG2          13.66      10.00      0          FUNCTIONAL 75.00 0          0
C19-TG1          13.66      10.00      0          FUNCTIONAL 75.00 0          0
C19-IC           13.66      10.00      0          FUNCTIONAL 61.90 0          0
C19-RG           13.66      10.00      0          FUNCTIONAL 75.00 0          0
C19-PA-010       14.18      10.00      0          FUNCTIONAL 13970.00 0          0
C27-TG2          11.09      10.00      0          FUNCTIONAL 58.50 0          0
C27-TG1          11.09      10.00      0          FUNCTIONAL 58.50 0          0
C27-RG           11.09      10.00      0          FUNCTIONAL 40.50 0          0
C27-BA-020       10.82      10.00      0          FUNCTIONAL 11021.00 0          0
C18-IC           20.00      10.00      0          FUNCTIONAL 30.00 0          0
C18-TG2          19.01      10.00      0          FUNCTIONAL 42.00 0          0
C18-TG1          19.01      10.00      0          FUNCTIONAL 42.00 0          0
C18-RG           19.01      10.00      0          FUNCTIONAL 42.00 0          0
C18-LI-020       17.54      10.00      0          FUNCTIONAL 8855.00 0          0
C22-TG2          7.85       10.00      0          FUNCTIONAL 70.00 0          0
C22-TG1          7.85       10.00      0          FUNCTIONAL 70.00 0          0
C22-IC           9.11       10.00      0          FUNCTIONAL 200.00 0          0
C22-RG           7.85       10.00      0          FUNCTIONAL 65.00 0          0
C22-FE-080       14.55      10.00      0          FUNCTIONAL 13112.00 0          0
PS-PINE          22.62      10.00      0          FUNCTIONAL 372.00 0          0
PS-STATE         8.40       10.00      0          FUNCTIONAL 161.00 0          0
C22-FE-010       8.38       10.00      0          FUNCTIONAL 6678.00 0          0
C22A-TG2         8.90       10.00      0          FUNCTIONAL 32.50 0          0
C22A-RG          8.90       10.00      0          FUNCTIONAL 35.75 0          0
C22A-TG1         8.90       10.00      0          FUNCTIONAL 32.50 0          0
BA-BA-F10        11.09      10.00      0          FUNCTIONAL 55.00 0          0
C23-TG2          6.04       10.00      0          FUNCTIONAL 31.50 0          0
C23-TG1          6.04       10.00      0          FUNCTIONAL 31.50 0          0
C23-RG           6.04       10.00      0          FUNCTIONAL 20.00 0          0
C23A-HA010       6.54       10.00      0          FUNCTIONAL 150.00 0          0
C23-IC           6.04       10.00      0          FUNCTIONAL 20.00 0          0
C24-STOR         6.88       10.00      0          FUNCTIONAL 100.00 0          0
C24-RG           6.88       10.00      0          FUNCTIONAL 64.90 0          0
C32-TG1          10.50      10.00      0          FUNCTIONAL 144.00 0          0
C32-RG           10.50      10.00      0          FUNCTIONAL 120.00 0          0
C32-IC2          12.43      10.00      0          FUNCTIONAL 325.00 0          0
C32-IC1          10.50      10.00      0          FUNCTIONAL 105.00 0          0
C90-HA-020       13.76      10.00      0          FUNCTIONAL 50937.00 0          0
G2-TG1           5.22       10.00      0          FUNCTIONAL 16.00 0          0
G2-RG            5.22       10.00      0          FUNCTIONAL 28.00 0          0
G2-IC            5.09       10.00      0          FUNCTIONAL 28.00 0          0
G1-CH-003        4.55       10.00      0          FUNCTIONAL 3838.00 0          0
G1-TG1           5.15       10.00      0          FUNCTIONAL 36.00 0          0
G1-RG            5.15       10.00      0          FUNCTIONAL 42.00 0          0
G1-IC            5.15       10.00      0          FUNCTIONAL 28.00 0          0
G3-JE-005        7.70       10.00      0          FUNCTIONAL 35480.00 0          0
G3-TG1           6.67       10.00      0          FUNCTIONAL 20.00 0          0
G3-RG            6.67       10.00      0          FUNCTIONAL 35.00 0          0
G3-IC            6.67       10.00      0          FUNCTIONAL 28.00 0          0
G4-MA-020        9.61       10.00      0          FUNCTIONAL 4160.00 0          0
G4-TG1           7.49       10.00      0          FUNCTIONAL 27.50 0          0
G4-RG            7.49       10.00      0          FUNCTIONAL 35.00 0          0
G4-IC            7.49       10.00      0          FUNCTIONAL 28.00 0          0
G5-EL-010        10.00      10.00      0          FUNCTIONAL 5674.00 0          0
G5-TG1           10.48      10.00      0          FUNCTIONAL 20.00 0          0
G5-RG            10.48      10.00      0          FUNCTIONAL 35.00 0          0
G5-IC            10.48      10.00      0          FUNCTIONAL 28.00 0          0
G6-ME-040        14.82      10.00      0          FUNCTIONAL 12569.00 0          0
G6-TG1           10.95      10.00      0          FUNCTIONAL 16.00 0          0
G6-RG            10.95      10.00      0          FUNCTIONAL 28.00 0          0
G6-IC            10.95      10.00      0          FUNCTIONAL 28.00 0          0
G7-BR-020        13.68      10.00      0          FUNCTIONAL 5644.00 0          0
G7-IC2           7.02       10.00      0          FUNCTIONAL 28.00 0          0
G7-TG1           7.02       10.00      0          FUNCTIONAL 16.00 0          0
G7-RG            7.02       10.00      0          FUNCTIONAL 28.00 0          0
G7-IC            10.20      10.00      0          FUNCTIONAL 35.00 0          0
BRPS-WW          12.50      10.00      0          FUNCTIONAL 306.00 0          0
C60-HA-030       10.03      10.00      0          FUNCTIONAL 5445.00 0          0
C60-LO-080       10.00      10.00      0          FUNCTIONAL 8935.00 0          0
C24-27-020       14.09      10.00      0          FUNCTIONAL 9731.00 0          0
C23-PR-040       11.71      10.00      0          FUNCTIONAL 5694.00 0          0
C22A-RI010       7.03       10.00      0          FUNCTIONAL 2065.00 0          0
C22A-RI080       15.69      10.00      0          FUNCTIONAL 296.00 0          0
C22A-RI110       21.15      10.00      0          FUNCTIONAL 1960.00 0          0
C22A-RI090       17.02      10.00      0          FUNCTIONAL 568.00 0          0
C22-BA-140       30.60      10.00      0          FUNCTIONAL 6144.00 0          0
C22-MA-120       16.14      10.00      0          FUNCTIONAL 4794.00 0          0
C22-EL-230       26.90      10.00      0          FUNCTIONAL 9646.00 0          0
C22-BE-160       23.95      10.00      0          FUNCTIONAL 10941.00 0          0
C11-PE-050       12.95      10.00      0          FUNCTIONAL 4743.00 0          0
C10-MA-050       13.13      10.00      0          FUNCTIONAL 3228.00 0          0
C14-02-010       9.52       10.00      0          FUNCTIONAL 2312.00 0          0
C15-ST-020       25.97      10.00      0          FUNCTIONAL 2302.00 0          0
C17-FE-030       14.40      10.00      0          FUNCTIONAL 3177.00 0          0
C19-PA-040       14.00      10.00      0          FUNCTIONAL 4118.00 0          0
C5-KA-010        5.50       10.00      0          FUNCTIONAL 17206.00 0          0
C3-JA-040        8.13       10.00      0          FUNCTIONAL 7210.00 0          0
C3-WE-020        6.88       10.00      0          FUNCTIONAL 3881.00 0          0
C3-10-110        5.97       10.00      0          FUNCTIONAL 6651.00 0          0
C3-LI-155        15.00      10.00      0          FUNCTIONAL 10481.00 0          0
C2-JE-020        6.55       10.00      0          FUNCTIONAL 3517.00 0          0
C2-JE-060        12.93      10.00      0          FUNCTIONAL 3713.00 0          0
C1-FA-070        8.10       10.00      0          FUNCTIONAL 4141.00 0          0
C1-FA-108        10.28      10.00      0          FUNCTIONAL 3267.00 0          0
G1-JE-050        15.91      10.00      0          FUNCTIONAL 3458.00 0          0
G4-MA-080        10.00      10.00      0          FUNCTIONAL 1588.00 0          0
CFA-FE-001       13.85      10.00      0          FUNCTIONAL 136.00 0          0
G2-WA-010        6.00       10.00      0          FUNCTIONAL 2416.00 0          0
CME-ME-010       7.75       10.00      0          FUNCTIONAL 206.00 0          0
CME-ME-PS1       9.13       10.00      0          FUNCTIONAL 179.00 0          0
C19-CH-110       10.50      10.00      0          FUNCTIONAL 6986.00 0          0
C27-BA-090       13.80      10.00      0          FUNCTIONAL 8194.00 0          0
C9-MI-060        10.07      10.00      0          FUNCTIONAL 5288.00 0          0
CFA-FE-010       14.06      10.00      0          FUNCTIONAL 8114.00 0          0
GL-PS-WW         9.89       10.00      0          FUNCTIONAL 396.00 0          0
Pennsauken       7.00       10.00      0          FUNCTIONAL 4000.00 0          0
FM1-BPS          112.85     10.00      0          FUNCTIONAL 304.00 0          0
C6-IC2           6.83       10.00      0          FUNCTIONAL 32.00 0          0
C22-EL230A       26.90      10.00      0          FUNCTIONAL 196.00 0          0
C22-BE160A       23.95      10.00      0          FUNCTIONAL 100.00 0          0
C23A-HA10A       6.54       10.00      0          FUNCTIONAL 100.00 0          0
C90-BE-070       27.17      10.00      0          FUNCTIONAL 22000.00 0          0
1320             8.09       10.00      0          FUNCTIONAL 6132.00 0          0
1322             12.93      10.00      0          FUNCTIONAL 3713.00 0          0
1324             15.19      10.00      0          FUNCTIONAL 9513.00 0          0

[CONDUITS]
;;Name           From             To               Length     Roughness  InOffset   OutOffset  InitFlow   MaxFlow
;;-------------- ---------------- ---------------- ---------- ---------- ---------- ---------- ---------- ----------
OP-WPCF          WPCF             OF-WPCF          200.00     0.0140     0          0          0          0
IC1-WPCF         IC-WPCF          PSWW-WPCF        140.00     0.0140     0          0          0          0
MAGMETER2        GT-County        IC-WPCF          26.50      0.0140     0          0          0          0
MAGMETER1        GT-Camden        IC-WPCF          26.50      0.0140     0          0          0          0
IC1-Cam          C3-IC            GT-Camden        170.00     0.0140     0          0          0          0
IC7-C2           C2-FE-IC50       C3-IC            292.00     0.0140     0          0          0          0
OP-C3            C3-TG2           OF-C3            640.00     0.0130     0          0          0          0
C3RG             C3-RG            C3-IC            10.00      0.0160     0          0          0          0
IC6-C2           C2-FE-IC40       C2-FE-IC50       273.00     0.0140     0          0          0          0
IC5-C2           C2-IC            C2-FE-IC40       1757.00    0.0140     0          0          0          0
IC3-C2           C2-IC2           C2-IC            990.00     0.0140     0          0          0          0
TS1-C2           C2-JE-009        C2-RG            120.00     0.0170     0          0          0          0
OP-C2            C2-TG2           OF-C2            318.00     0.0140     0          0          0          0
TS4-C2           C2-JE-055        C2-JE-050        849.00     0.0170     1.40       0.59       0          0
TS1-C3           C3-JA-010        C3-RG            402.00     0.0170     0          0          0          0
TS4-C3           C3-08-065        C3-EV-060        463.00     0.0170     0          0          0          0
TS3-C3           C3-EV-060        C3-JA-018        2665.00    0.0170     0          0          0          0
TS2-C3           C3-JA-018        C3-JA-010        463.00     0.0170     0          0          0          0
TS7-C3           C3-LI-116        C3-08-094        1174.00    0.0150     0.96       0.08       0          0
TS5-C3           C3-08-094        C3-08-065        741.00     0.0150     0.08       0          0          0
TS8-C3           C3-10-124        C3-08-090        1221.00    0.0140     0          0          0          0
TS6-C3           C3-08-090        C3-08-065        712.00     0.0140     0          0          0          0
C1RG             C1-RG            C1-IC            10.00      0.0160     0          0          0          0
OP-C1            C1-TG2           OF-C1            230.00     0.0150     0          0          0          0
TS7-C1           C1-FA-050        C1-FA-030        443.00     0.0150     0          0          0          0
TS2-C1           C1-FA-030        C1-RG            564.00     0.0140     0          0          0          0
IC3-C5           C5-IC2           IC-C5            853.00     0.0140     0          0          0          0
OP-C5            C5-TG2           OF-C5            200.00     0.0170     0          0          0          0
C5RG             C5-RG            C5-IC2           10.00      0.0160     0          0          0          0
OP-C6            C6-TG2           OF-C6            385.00     0.0130     0          0          0          0
TS1-C6           C6-WA-020        C6-RG            528.00     0.0150     0          0          0          0
IC3-C7           C7-IC2           C7-IC            380.00     0.0150     0          0          0          0
OP-C7            C7-TG2           OF-C7            1074.00    0.0130     0          0          0          0
C7RG             C7-RG            C7-IC2           10.00      0.0160     0          0          0          0
TS1-C7           C7-DI-010        C7-RG            375.00     0.0140     0          0          0          0
TS2-C6           C6-WA-040        C6-WA-020        918.00     0.0150     0.81       0          0          0
IC3-C8           C8-IC2           C8-IC            470.00     0.0150     0          0          0          0
OP-C8            C8-TG2           OF-C8            932.00     0.0130     0          0          0          0
C8RG             C8-RG            C8-IC2           10.00      0.0160     0          0          0          0
TS1-C8           C8-02-010        C8-RG            537.00     0.0140     0          0          0          0
C9RG             C9-RG            C9-IC            10.00      0.0160     0          0          0          0
OP1-C9           C9-TG2           OF1-C9           585.00     0.0170     0          0          0          0
OP-C9            OF1-C9           OF-C9            620.00     0.0170     0          0          0          0
OP-C10           C10-TG2          OF-C10           965.00     0.0140     0          0          0          0
TS1-C10          C10-AR-008       C10-RG           40.00      0.0140     0          0          0          0
C10RG            C10-RG           C10-IC           10.00      0.0160     0          0          0          0
IC3-C10          C10-IC           AR-JUNC          100.00     0.0130     0          0          0          0
C2RG             C2-RG            C2-IC2           10.00      0.0160     0          0          0          0
IC3-C11          C11-IC2          C11-IC           704.00     0.0140     0          0          0          0
C11RG            C11-RG           C11-IC2          10.00      0.0160     0          0          0          0
TS1-C11          C11-CO-010       C11-RG           375.00     0.0150     0          0          0          0
IC3-C12          C12-IC2          C12-IC           68.00      0.0150     0          0          0          0
C12RG            C12-RG           C12-IC2          10.00      0.0160     0.54       0.53       0          0
TS1-C12          C12-DE-010       C12-RG           190.00     0.0150     0.98       0.67       0          0
OP-C11           C11-TG2          OF-C11           415.00     0.0170     0          0          0          0
OP-C12           C12-TG2          OF-C12           478.00     0.0140     0.54       0.49       0          0
IC3-C13          C13-IC2          C13-IC           932.00     0.0140     0          0          0          0
C13RG            C13-RG           C13-IC2          10.00      0.0160     0          0          0          0
TS1-C13          C13-SE-010       C13-RG           921.00     0.0150     0.12       0          0          0
OP-C13           C13-TG2          OF-C13           250.00     0.0130     0          0          0          0
IC3-C14          C14-IC2          C14-IC           933.00     0.0150     0          0          0          0
C14RG            C14-RG           C14-IC2          10.00      0.0160     0          0          0          0
OP-C14           C14-TG2          OF-C14           250.00     0.0130     0          0          0          0
TS2-C13          C13-ST-060       C13-SE-010       1110.00    0.0150     2.91       0.12       0          0
TS2-C11          C11-CO-020       C11-CO-010       485.00     0.0150     0          0          0          0
TS5-C11          C11-FR-060       C11-FR-040       822.00     0.0150     0          0          0          0
TS2-C10          C10-AR-010       C10-AR-008       130.00     0.0140     0          0          0          0
TS2-C9           C9-BE-050        C9-BE-010        1076.00    0.0140     3.95       0.85       0          0
TS2-C8           C8-BE-018        C8-02-010        197.00     0.0140     0          0          0          0
TS3-C7           C7-02-018        C7-DI-010        254.00     0.0150     0          0          0          0
TS34-C3          C3-ME-210        C3-08-164        620.00     0.0150     20.11      14.58      0          0
TS33-C3          C3-08-164        C3-08-134        700.00     0.0150     14.58      8.34       0          0
TS32-C3          C3-08-134        C3-08-095        755.00     0.0150     8.34       1.61       0          0
TS31-C3          C3-08-095        C3-08-091        470.00     0.0150     1.61       0.60       0          0
TS30-C3          C3-08-091        C3-08-065        860.00     0.0150     0.60       0          0          0
TS41-C3          C3-EV-085        C3-EV-075        500.00     0.0150     5.98       1.78       0          0
TS40-C3          C3-EV-075        C3-08-065        358.00     0.0150     1.78       0          0          0
IC1-County       GC-COU-JNC       GT-County        4050.00    0.0140     0          0          0          0
IC4-C14          C14-IC           C13-IC           403.00     0.0150     0          0          0          0
IC4-C13          C13-IC           C13-BE-I25       842.00     0.0140     0          0          0          0
IC5-C13          C13-BE-I25       C12-IC           659.00     0.0140     0          0          0          0
IC4-C12          C12-IC           C12-DE-I70       1857.00    0.0140     0          0          0          0
IC7-C12          C12-DE-I70       C11-IC           1016.00    0.0140     0          0          0          0
IC4-C11          C11-IC           AR-JUNC          1258.00    0.0140     0          0          0          0
IC6-AR           AR-IC            C9-IC            2127.00    0.0140     0          0          0          0
IC5-C8           C8-IC            C7-IC            1420.00    0.0140     0          0          0          0
IC4-C7           C7-IC            C7-02-I10        235.00     0.0140     0          0          0          0
IC5-C7           C7-02-I10        C6-IC            544.00     0.0140     0          0          0          0
IC4-C9           C9-IC            C8-IC            818.00     0.0140     0          0          0          0
IC5-C6           C6-IC            IC-C5            1113.00    0.0150     0          0          0          0
IC5-C5           IC-C5            C3-IC            2353.00    0.0150     0          0          0          0
IC8-C1           C1-IC            C2-IC            4075.00    0.0140     0          0          0          0
IC3-C16          C16-IC2          C16-IC           114.00     0.0150     6.12       5.68       0          0
C16RG            C16-RG           C16-IC2          10.00      0.0160     6.44       6.43       0          0
TS1-C16          C16-LI-010       C16-RG           122.00     0.0150     8.08       7.07       0          0
OP-C16           C16-TG1          OF-C16           263.00     0.0150     6.44       6.41       0          0
IC2-C15          C15-IC2          C15-IC           124.00     0.0130     5.49       2.32       0          0
C15RG            C15-RG           C15-IC2          10.00      0.0160     6.90       6.32       0          0
TS1-C15          C15-ST-010       C15-RG           112.00     0.0150     9.82       6.90       0          0
OP-C15           C15-TG1          OF-C15           80.00      0.0130     7.03       0          0          0
IC3-C17          C17-IC2          C17-IC           303.00     0.0150     0          0          0          0
C17RG            C17-RG           C17-IC2          10.00      0.0160     0          0          0          0
TS1-C17          C17-AD-010       C17-RG           262.00     0.0150     0          0          0          0
OP-C17           C17-TG2          OF-C17           370.00     0.0150     0          0          0          0
IC3-C28          C28-IC2          PS-STATE         296.00     0.0150     0          0          0          0
C28RG            C28-RG           C28-IC2          10.00      0.0160     0          0          0          0
TS1-C28          C28-ES-030       C28-RG           1046.00    0.0150     0          0          0          0
OP-C28           C28-TG2          OF-C28           284.00     0.0130     0          0          0          0
C19RG            C19-RG           C19-IC           10.00      0.0160     0          0          0          0
OP-C19           C19-TG2          OF-C19           366.00     0.0130     0          0          0          0
C27RG            C27-RG           BA-BA-F10        10.00      0.0160     0          0          0          0
TS1-C27          C27-BA-020       C27-RG           1095.00    0.0150     0          0          0          0
OP-C27           C27-TG2          OF-C27           54.00      0.0130     0          0          0          0
IC22-C18         C18-IC           PINE-IC          162.00     0.0140     0          0          0          0
C18RG            C18-RG           C18-IC           10.00      0.0160     0          0          0          0
TS1-C18          C18-LI-020       C18-RG           1335.00    0.0150     4.55       0          0          0
OP-C18           C18-TG2          OF-C18           530.00     0.0130     0          0          0          0
TS2-C22          C22-FE-080       C22-FE-010       2887.00    0.0150     3.55       0          0          0
OP-C22           C22-TG2          OF-C22           75.00      0.0130     0          0          0          0
IC1-PI           PI-SP-IC75       C7-02-I10        2237.00    0.0150     10.92      0          0          0
FM6-ST           ST-10-I20        ST-10-I30        514.00     0.0150     13.42      21.94      0          0
IC11-ST          ST-PE-I40        C16-IC           540.00     0.0150     16.42      14.86      0          0
IC14-C16         C16-IC           C16-BR-I30       745.00     0.0150     5.68       4.56       0          0
IC17-C16         C16-BR-I45       C16-BR-I50       161.00     0.0150     0          0          0          0
IC20-C17         C17-ME-I10       C18-IC           2030.00    0.0150     0          0          0          0
IC4-C17          C17-IC           C17-ME-I10       185.00     0.0140     0          0          0          0
IC18-C16         C16-BR-I50       C17-ME-I10       504.00     0.0150     0          0          0          0
IC1-PINE         PINE-IC          PS-PINE          38.00      0.0140     0          0          0          0
FM5-ST           ST-ST-F50        ST-10-I20        139.00     0.0130     5.50       13.42      0          0
TS1-C22          C22-FE-010       C22-RG           170.00     0.0140     0          0          0          0
FM1-FE           FE-FE-F10        FE-FE-F20        171.00     0.0130     2.94       0          0          0
OP-C22A          C22A-TG2         OF-C22A          60.00      0.0130     0          0          0          0
TS2-C22A         C22A-RI050       C22A-RI010       1535.00    0.0140     0.92       0          0          0
IC1-C22A         C22A-RG          C22A-IC          120.00     0.0140     0          0          0          0
IC2-C22A         C22A-IC          C22-FE-010       380.00     0.0140     0          0          0          0
IC3-C19          C19-IC           PINE-IC          1062.00    0.0150     0          0          0          0
IC1-BA           C19-PI-010       C19-RG           618.00     0.0140     2.64       0.31       0          0
IC1-FE           FE-FE-F60        C17-IC           148.00     0.0150     0          0          0          0
OP-C23           C23-TG2          OF-C23           891.00     0.0130     0          0          0          0
IC3-C23          C23-IC           C23-HA-I20       473.00     0.0150     0          0          0          0
C23RG            C23-RG           C23-IC           10.00      0.0160     0          0          0          0
TS1-C90          Node_90          Node_10221017    727.00     0.0150     0          0          0          0
IC4-C23          C23-HA-I20       27TH-IC          1672.00    0.0150     0          0          0          0
TS1-C60          Node_60          Node_11771017    956.00     0.0140     0          0          0          0
TS2-C60          Node_60          Node_11791177    2336.00    0.0150     0.66       0          0          0
TS4-C11          C11-FR-040       C11-PE-030       294.00     0.0150     0          1.09       0          0
TS2-C5           C5-KA-050        C5-KA-010        2035.00    0.0140     0.99       0          0          0
TS10-C3          C3-LI-160        C3-LI-155        976.00     0.0150     10.55      4.51       0          0
TS3-C2           C2-JE-050        C2-JE-020        1346.00    0.0150     0.59       0          0          0
TS6-C2           C2-JE-085        C2-JE-060        832.00     0.0150     4.79       1.40       0          0
TS1a-C19         TS1b-C19         C19-RG           664.00     0.0150     0          0          0          0
TS7a-C19         TS7b-C19         Node_13091310    1192.00    0.0140     1.25       0.67       0          0
TS4a-C19         TS4b-C19         Node_13161253    259.00     0.0140     0.42       0.60       0          0
TS2a-C19         TS2b-C19         Node_1314752     478.00     0.0140     0.17       0          0          0
TS3a-C19         TS3b-C19         Node_12531314    237.00     0.0140     0.60       0.17       0          0
TS6a-C19         TS6b-C19         Node_13101317    295.00     0.0140     0.67       0.52       0          0
TS5a-C19         TS5b-C19         Node_13171316    250.00     0.0140     0.52       0.42       0          0
TS2-C28A         C28-ES-030       C28A-ES030       60.00      0.0150     0          0          0          0
C16-C16          C16-BR-I30       C16-BR-I45       770.00     0.0140     0          0          0          0
C1-10TH          ST-10-I30        ST-PE-I40        710.00     0.0140     21.61      19.55      0          0
FM3-BA-PS        BA-BA-F20        BA-FM5           215.00     0.0140     0          0          0          0
E-SIPH           FE-FE-F20        FE-FE-F60        250.00     0.0130     0          0          0          0
15-SIPH          C15-ST-I20       C15-ST-I30       255.00     0.0140     0          0          0          0
C6RG             C6-RG            C6-IC2           10.00      0.0160     0          0          0          0
C23A-DUMMY       C23A-HA010       C23A-HA10A       200.00     0.0140     0          0          0          0
11-TG1A          C11-RG           C11-TG2          100.00     0.0200     0          0          0          0
G1A-C22          C22-RG           C22-TG2          100.00     0.0200     0          0          0          0
G1A-C5           C5-RG            C5-TG2           100.00     0.0200     0          0          0          0
27-TG            C27-RG           C27-TG2          100.00     0.0200     0          0          0          0
TS2-C90          Node_90          Node_15151022    2789.00    0.0140     5.87       0          0          0
8-TG             C8-RG            C8-TG2           100.00     0.0200     0.34       0.33       0          0

[ORIFICES]
;;Name           From             To               Type       Offset     Qcoeff     Gated    CloseTime
;;-------------- ---------------- ---------------- ---------- ---------- ---------- -------- ----------
22-Orif          C22-RG           C22-IC           SIDE       0          0.650      NO       0
1321             C2-JE-050        1320             SIDE       0          0.650      NO       0
1323             Node_1323        Node_12701522    SIDE       0          0.650      NO       0
1325             C2-JE-085        1324             SIDE       0          0.650      NO       0

[WEIRS]
;;Name           From             To               Type       CrestHt    Qcoeff     Gated    EndCon   EndCoeff   Surcharge
;;-------------- ---------------- ---------------- ---------- ---------- ---------- -------- -------- ---------- ----------
TG2-C3           C3-TG1           C3-TG2           TRANSVERSE -1.02      1.840      NO       0        0          YES
TG1-C3           C3-RG            C3-TG2           TRANSVERSE -1.02      1.840      NO       0        0          YES
TG1-C2           C2-RG            C2-TG2           TRANSVERSE -1.64      1.840      NO       0        0          YES
TG2-C2           C2-TG1           C2-TG2           TRANSVERSE -1.64      1.840      NO       0        0          YES
TG1-C1           C1-RG            C1-TG2           TRANSVERSE -1.58      1.840      NO       0        0          YES
TG2-C1           C1-TG1           C1-TG2           TRANSVERSE -1.58      1.840      NO       0        0          YES
TG2-C5           C5-TG1           C5-TG2           TRANSVERSE -1.81      1.840      NO       0        0          YES
TG1-C5           C5-RG            C5-TG1           TRANSVERSE -1.81      1.840      NO       0        0          YES
TG2-C6           C6-TG1           C6-TG2           TRANSVERSE -0.80      1.840      NO       0        0          YES
TG1-C6           C6-RG            C6-TG2           TRANSVERSE -0.80      1.840      NO       0        0          YES
TG2-C7           C7-TG1           C7-TG2           TRANSVERSE -2.11      1.840      NO       0        0          YES
TG1-C7           C7-RG            C7-TG2           TRANSVERSE -2.11      1.840      NO       0        0          YES
TG2-C8           C8-TG1           C8-TG2           TRANSVERSE 0.34       1.840      NO       0        0          YES
TG1-C8           C8-RG            C8-TG1           TRANSVERSE 0.34       1.840      NO       0        0          YES
TG2-C9           C9-TG1           C9-TG2           TRANSVERSE 0.65       1.840      NO       0        0          YES
TG1-C9           C9-RG            C9-TG2           TRANSVERSE 0.65       1.840      NO       0        0          YES
TG2-C10          C10-TG1          C10-TG2          TRANSVERSE -2.84      1.840      NO       0        0          YES
TG1-C10          C10-RG           C10-TG2          TRANSVERSE -2.84      1.840      NO       0        0          YES
TG2-C11          C11-TG1          C11-TG2          TRANSVERSE -2.30      1.840      NO       0        0          YES
TG1-C11          C11-RG           C11-TG1          TRANSVERSE -2.30      1.840      NO       0        0          YES
TG2-C12          C12-TG1          C12-TG2          TRANSVERSE 1.25       1.840      NO       0        0          YES
TG1-C12          C12-RG           C12-TG2          TRANSVERSE 1.25       1.840      NO       0        0          YES
TG2-C13          C13-TG1          C13-TG2          TRANSVERSE -3.55      1.840      NO       0        0          YES
TG1-C13          C13-RG           C13-TG2          TRANSVERSE -3.55      1.840      NO       0        0          YES
TG2-C14          C14-TG1          C14-TG2          TRANSVERSE -2.72      1.840      NO       0        0          YES
TG1-C14          C14-RG           C14-TG2          TRANSVERSE -2.72      1.840      NO       0        0          YES
TG1-C16          C16-RG           C16-TG1          TRANSVERSE 7.49       1.840      NO       0        0          YES
TG1-C15          C15-RG           C15-TG1          TRANSVERSE 7.03       1.840      NO       0        0          YES
TG2-C17          C17-TG1          C17-TG2          TRANSVERSE -1.64      1.840      NO       0        0          YES
TG1-C17          C17-RG           C17-TG2          TRANSVERSE -1.64      1.840      NO       0        0          YES
TG2-C28          C28-TG1          C28-TG2          TRANSVERSE -1.07      1.840      NO       0        0          YES
TG1-C28          C28-RG           C28-TG2          TRANSVERSE -1.07      1.840      NO       0        0          YES
TG2-C19          C19-TG1          C19-TG2          TRANSVERSE 0.69       1.840      NO       0        0          YES
TG1-C19          C19-RG           C19-TG2          TRANSVERSE 0.69       1.840      NO       0        0          YES
TG2-C27          C27-TG1          C27-TG2          TRANSVERSE -2.12      1.840      NO       0        0          YES
TG2-C18          C18-TG1          C18-TG2          TRANSVERSE 2.57       1.840      NO       0        0          YES
TG1-C18          C18-RG           C18-TG2          TRANSVERSE 2.57       1.840      NO       0        0          YES
TG2-C22          C22-TG1          C22-TG2          TRANSVERSE -2.07      1.840      NO       0        0          YES
TG1-C22          C22-RG           C22-TG1          TRANSVERSE -2.07      1.840      NO       0        0          YES
IC3-C15          C15-IC           C15-ST-I20       TRANSVERSE 4.00       1.840      NO       0        0          YES
IC9-C15          C15-ST-I30       PS-STATE         TRANSVERSE -0.90      1.840      NO       0        0          YES
TG2-C22A         C22A-TG1         C22A-TG2         TRANSVERSE -0.60      1.840      NO       0        0          YES
TG1-C22A         C22A-RG          C22A-TG2         TRANSVERSE -0.60      1.840      NO       0        0          YES
TG2-C23          C23-TG1          C23-TG2          TRANSVERSE -0.50      1.840      NO       0        0          YES
TG1-C23          C23-RG           C23-TG2          TRANSVERSE -0.50      1.840      NO       0        0          YES

[PUMPS]
;;Name           From             To               PumpCurve  Status   Startup    Shutoff
;;-------------- ---------------- ---------------- ---------- -------- ---------- ----------
FM-WPCF          PSWW-WPCF        WPCF             PC_FM-WPCF ON       1.00       0         
FM-ARCH          PS-ARCH          AR-IC            PC_FM-ARCH ON       1.00       0         
M1-BA            BA-BA-F10        BA-BA-F20        PC_M1-BA   ON       1.00       0         
Pine-PS          PS-PINE          PI-PS            PC_Pine-PS ON       1.00       0         
ed-PS            C22-IC           FE-FE-F10        PC_ed-PS   ON       1.00       0         
TATE_PS          PS-STATE         ST-ST-F50        PC_TATE_PS ON       1.00       0         

[CURVES]
;;Name           Type       X-Value    Y-Value
;;-------------- ---------- ---------- ----------
;; Synthesized generic pump curves — replace with actual pump data
PC_FM-WPCF       Pump1      0          5
PC_FM-WPCF                  10         10
PC_FM-ARCH       Pump1      0          5
PC_FM-ARCH                  10         10
PC_M1-BA         Pump1      0          5
PC_M1-BA                    10         10
PC_Pine-PS       Pump1      0          5
PC_Pine-PS                  10         10
PC_ed-PS         Pump1      0          5
PC_ed-PS                    10         10
PC_TATE_PS       Pump1      0          5
PC_TATE_PS                  10         10

[XSECTIONS]
;;Link           Shape        Geom1      Geom2      Geom3      Geom4      Barrels
;;-------------- ------------ ---------- ---------- ---------- ---------- ----------
OP-WPCF          CIRCULAR     5.00       0          0          0          1
IC1-WPCF         CIRCULAR     7.00       0          0          0          1
MAGMETER2        CIRCULAR     4.00       0          0          0          1
MAGMETER1        CIRCULAR     4.00       0          0          0          1
IC1-Cam          CIRCULAR     6.00       0          0          0          1
IC7-C2           CIRCULAR     3.50       0          0          0          1
OP-C3            CIRCULAR     6.00       12.00      0          0          2
C3RG             RECT_CLOSED  1.00       1.56       0          0          1
IC6-C2           CIRCULAR     3.50       0          0          0          1
IC5-C2           CIRCULAR     3.50       0          0          0          1
IC3-C2           CIRCULAR     3.00       0          0          0          1
TS1-C2           CIRCULAR     3.37       0          0          0          1
OP-C2            CIRCULAR     5.00       0          0          0          1
TS4-C2           CIRCULAR     2.00       0          0          0          1
TS1-C3           RECT_CLOSED  5.70       10.50      0          0          1
TS4-C3           RECT_CLOSED  5.70       10.50      0          0          1
TS3-C3           RECT_CLOSED  5.70       10.50      0          0          1
TS2-C3           RECT_CLOSED  5.70       10.50      0          0          1
TS7-C3           RECT_CLOSED  4.66       6.50       0          0          1
TS5-C3           RECT_CLOSED  4.66       6.50       0          0          1
TS8-C3           CIRCULAR     2.50       0          0          0          1
TS6-C3           CIRCULAR     5.00       0          0          0          1
C1RG             RECT_CLOSED  1.33       2.25       0          0          1
OP-C1            CIRCULAR     5.00       0          0          0          1
TS7-C1           RECT_CLOSED  1.66       2.50       0          0          1
TS2-C1           CIRCULAR     4.50       0          0          0          1
IC3-C5           CIRCULAR     2.50       0          0          0          1
OP-C5            CIRCULAR     4.00       144.00     0          0          1
C5RG             RECT_CLOSED  1.00       1.95       0          0          1
OP-C6            CIRCULAR     3.00       12.00      0          0          1
TS1-C6           CIRCULAR     3.00       3.50       0          0          1
IC3-C7           CIRCULAR     1.25       0          0          0          1
OP-C7            CIRCULAR     4.00       144.00     0          0          1
C7RG             RECT_CLOSED  0.42       0.77       0          0          1
TS1-C7           CIRCULAR     4.00       126.00     0          0          1
TS2-C6           CIRCULAR     3.00       0          0          0          1
IC3-C8           CIRCULAR     1.25       0          0          0          1
OP-C8            CIRCULAR     6.00       144.00     0          0          1
C8RG             RECT_CLOSED  0.63       0.81       0          0          1
TS1-C8           CIRCULAR     6.00       126.00     0          0          1
C9RG             RECT_CLOSED  0.63       0.65       0          0          1
OP1-C9           CIRCULAR     4.00       0          0          0          1
OP-C9            RECT_CLOSED  3.58       3.33       0          0          1
OP-C10           CIRCULAR     5.00       12.00      0          0          1
TS1-C10          CIRCULAR     5.00       126.00     0          0          1
C10RG            RECT_CLOSED  1.00       1.95       0          0          1
IC3-C10          CIRCULAR     4.00       0          0          0          1
C2RG             RECT_CLOSED  1.00       2.22       0          0          1
IC3-C11          CIRCULAR     3.00       0          0          0          1
C11RG            RECT_CLOSED  1.00       1.56       0          0          1
TS1-C11          CIRCULAR     6.00       126.00     0          0          1
IC3-C12          CIRCULAR     0.66       0          0          0          1
C12RG            RECT_CLOSED  0.42       0.50       0          0          1
TS1-C12          CIRCULAR     2.00       126.00     0          0          1
OP-C11           CIRCULAR     6.00       0          0          0          1
OP-C12           CIRCULAR     2.00       0          0          0          1
IC3-C13          CIRCULAR     3.00       0          0          0          1
C13RG            RECT_CLOSED  1.00       2.19       0          0          1
TS1-C13          CIRCULAR     6.00       126.00     0          0          1
OP-C13           CIRCULAR     6.00       0          0          0          1
IC3-C14          CIRCULAR     1.50       0          0          0          1
C14RG            RECT_CLOSED  0.63       0.65       0          0          1
OP-C14           CIRCULAR     3.00       0          0          0          1
TS2-C13          CIRCULAR     6.00       0          0          0          1
TS2-C11          CIRCULAR     6.00       0          0          0          1
TS5-C11          CIRCULAR     6.00       0          0          0          1
TS2-C10          CIRCULAR     5.00       0          0          0          1
TS2-C9           CIRCULAR     3.00       0          0          0          1
TS2-C8           CIRCULAR     4.50       0          0          0          1
TS3-C7           CIRCULAR     2.66       0          0          0          1
TS34-C3          RECT_CLOSED  1.83       2.75       0          0          1
TS33-C3          RECT_CLOSED  1.83       2.75       0          0          1
TS32-C3          RECT_CLOSED  1.83       1.83       0          0          1
TS31-C3          CIRCULAR     3.50       0          0          0          1
TS30-C3          CIRCULAR     4.00       0          0          0          1
TS41-C3          RECT_CLOSED  2.00       3.00       0          0          1
TS40-C3          CIRCULAR     3.00       0          0          0          1
IC1-County       CIRCULAR     8.00       0          0          0          1
IC4-C14          CIRCULAR     1.50       0          0          0          1
IC4-C13          CIRCULAR     3.00       0          0          0          1
IC5-C13          CIRCULAR     3.00       0          0          0          1
IC4-C12          CIRCULAR     3.00       0          0          0          1
IC7-C12          CIRCULAR     3.00       0          0          0          1
IC4-C11          CIRCULAR     4.00       0          0          0          1
IC6-AR           CIRCULAR     4.00       0          0          0          1
IC5-C8           CIRCULAR     4.50       0          0          0          1
IC4-C7           CIRCULAR     4.50       0          0          0          1
IC5-C7           CIRCULAR     6.00       0          0          0          1
IC4-C9           CIRCULAR     4.00       0          0          0          1
IC5-C6           CIRCULAR     6.00       0          0          0          1
IC5-C5           CIRCULAR     6.00       0          0          0          1
IC8-C1           CIRCULAR     3.00       0          0          0          1
IC3-C16          CIRCULAR     1.50       0          0          0          1
C16RG            RECT_CLOSED  0.42       0.50       0          0          1
TS1-C16          RECT_CLOSED  2.50       3.75       0          0          1
OP-C16           CIRCULAR     3.00       0          0          0          1
IC2-C15          CIRCULAR     0.83       0          0          0          1
C15RG            RECT_CLOSED  0.42       0.50       0          0          1
TS1-C15          CIRCULAR     3.00       126.00     0          0          1
OP-C15           CIRCULAR     3.00       0          0          0          1
IC3-C17          CIRCULAR     1.50       0          0          0          1
C17RG            RECT_CLOSED  0.63       0.81       0          0          1
TS1-C17          CIRCULAR     4.00       126.00     0          0          1
OP-C17           CIRCULAR     4.00       0          0          0          1
IC3-C28          CIRCULAR     0.83       0          0          0          1
C28RG            RECT_CLOSED  0.42       0.50       0          0          1
TS1-C28          CIRCULAR     4.50       126.00     0          0          1
OP-C28           CIRCULAR     4.50       0          0          0          1
C19RG            RECT_CLOSED  1.00       1.56       0          0          1
OP-C19           RECT_CLOSED  7.00       9.00       0          0          1
C27RG            RECT_CLOSED  0.42       0.50       0          0          1
TS1-C27          CIRCULAR     3.00       126.00     0          0          1
OP-C27           CIRCULAR     6.00       0          0          0          1
IC22-C18         CIRCULAR     3.00       0          0          0          1
C18RG            RECT_CLOSED  0.63       0.81       0          0          1
TS1-C18          RECT_CLOSED  3.33       5.00       0          0          1
OP-C18           CIRCULAR     3.33       60.00      0          0          1
TS2-C22          CIRCULAR     6.00       126.00     0          0          1
OP-C22           CIRCULAR     6.00       0          0          0          1
IC1-PI           CIRCULAR     2.50       0          0          0          1
FM6-ST           CIRCULAR     0.66       0          0          0          1
IC11-ST          CIRCULAR     1.00       0          0          0          1
IC14-C16         CIRCULAR     1.50       0          0          0          1
IC17-C16         CIRCULAR     1.50       0          0          0          1
IC20-C17         CIRCULAR     3.00       0          0          0          1
IC4-C17          CIRCULAR     2.25       0          0          0          1
IC18-C16         CIRCULAR     1.50       0          0          0          1
IC1-PINE         CIRCULAR     3.50       0          0          0          1
FM5-ST           CIRCULAR     0.66       0          0          0          1
TS1-C22          CIRCULAR     6.00       0          0          0          1
FM1-FE           CIRCULAR     1.33       0          0          0          1
OP-C22A          CIRCULAR     2.50       0          0          0          1
TS2-C22A         CIRCULAR     3.00       36.00      0          0          1
IC1-C22A         CIRCULAR     0.83       0          0          0          1
IC2-C22A         CIRCULAR     0.83       0          0          0          1
IC3-C19          CIRCULAR     2.00       0          0          0          1
IC1-BA           RECT_CLOSED  1.33       2.00       0          0          1
IC1-FE           CIRCULAR     1.75       0          0          0          1
OP-C23           CIRCULAR     4.50       0          0          0          1
IC3-C23          CIRCULAR     1.00       0          0          0          1
C23RG            RECT_CLOSED  0.42       0.77       0          0          1
TS1-C90          CIRCULAR     7.50       126.00     0          0          1
IC4-C23          CIRCULAR     1.00       0          0          0          1
TS1-C60          CIRCULAR     5.00       0          0          0          1
TS2-C60          CIRCULAR     5.00       0          0          0          1
TS4-C11          CIRCULAR     6.00       0          0          0          1
TS2-C5           CIRCULAR     4.00       0          0          0          1
TS10-C3          RECT_CLOSED  2.33       3.50       0          0          1
TS3-C2           CIRCULAR     3.37       0          0          0          1
TS6-C2           RECT_CLOSED  2.66       2.50       0          0          1
TS1a-C19         CIRCULAR     3.00       0          0          0          1
TS7a-C19         CIRCULAR     5.00       0          0          0          1
TS4a-C19         CIRCULAR     6.50       0          0          0          1
TS2a-C19         CIRCULAR     6.50       0          0          0          1
TS3a-C19         CIRCULAR     6.50       0          0          0          1
TS6a-C19         CIRCULAR     5.50       0          0          0          1
TS5a-C19         CIRCULAR     6.50       0          0          0          1
TS2-C28A         CIRCULAR     3.00       0          0          0          1
C16-C16          CIRCULAR     1.50       0          0          0          1
C1-10TH          CIRCULAR     1.00       0          0          0          1
FM3-BA-PS        CIRCULAR     0.67       0          0          0          1
E-SIPH           CIRCULAR     1.33       0          0          0          1
15-SIPH          CIRCULAR     0.50       0          0          0          2
C6RG             RECT_CLOSED  1.00       1.00       0          0          1
C23A-DUMMY       RECT_CLOSED  2.00       3.00       0          0          1
11-TG1A          RECT_CLOSED  5.00       6.00       0          0          1
G1A-C22          CIRCULAR     5.00       0          0          0          1
G1A-C5           RECT_CLOSED  3.00       4.00       0          0          1
27-TG            CIRCULAR     5.00       0          0          0          1
TS2-C90          CIRCULAR     7.00       0          0          0          1
8-TG             CIRCULAR     5.00       0          0          0          1
22-Orif          RECT_CLOSED  1.77       1.77       0          0
1321             RECT_CLOSED  1.79       1.79       0          0
1323             RECT_CLOSED  1.13       1.13       0          0
1325             RECT_CLOSED  1.64       1.64       0          0
TG2-C3           RECT_OPEN    1.00       10.00      0          0
TG1-C3           RECT_OPEN    1.00       10.00      0          0
TG1-C2           RECT_OPEN    1.00       4.00       0          0
TG2-C2           RECT_OPEN    1.00       4.00       0          0
TG1-C1           RECT_OPEN    1.00       4.00       0          0
TG2-C1           RECT_OPEN    1.00       4.00       0          0
TG2-C5           RECT_OPEN    1.00       4.00       0          0
TG1-C5           RECT_OPEN    1.00       4.00       0          0
TG2-C6           RECT_OPEN    1.00       3.00       0          0
TG1-C6           RECT_OPEN    1.00       3.00       0          0
TG2-C7           RECT_OPEN    1.00       4.00       0          0
TG1-C7           RECT_OPEN    1.00       4.00       0          0
TG2-C8           RECT_OPEN    1.00       5.00       0          0
TG1-C8           RECT_OPEN    1.00       5.00       0          0
TG2-C9           RECT_OPEN    1.00       4.00       0          0
TG1-C9           RECT_OPEN    1.00       4.00       0          0
TG2-C10          RECT_OPEN    1.00       5.00       0          0
TG1-C10          RECT_OPEN    1.00       5.00       0          0
TG2-C11          RECT_OPEN    1.00       6.00       0          0
TG1-C11          RECT_OPEN    1.00       6.00       0          0
TG2-C12          RECT_OPEN    1.00       2.00       0          0
TG1-C12          RECT_OPEN    1.00       2.00       0          0
TG2-C13          RECT_OPEN    1.00       6.00       0          0
TG1-C13          RECT_OPEN    1.00       6.00       0          0
TG2-C14          RECT_OPEN    1.00       3.00       0          0
TG1-C14          RECT_OPEN    1.00       3.00       0          0
TG1-C16          RECT_OPEN    1.00       3.00       0          0
TG1-C15          RECT_OPEN    1.00       4.00       0          0
TG2-C17          RECT_OPEN    1.00       4.00       0          0
TG1-C17          RECT_OPEN    1.00       4.00       0          0
TG2-C28          RECT_OPEN    1.00       4.50       0          0
TG1-C28          RECT_OPEN    1.00       4.50       0          0
TG2-C19          RECT_OPEN    1.00       12.00      0          0
TG1-C19          RECT_OPEN    1.00       12.00      0          0
TG2-C27          RECT_OPEN    1.00       5.00       0          0
TG2-C18          RECT_OPEN    1.00       4.00       0          0
TG1-C18          RECT_OPEN    1.00       4.00       0          0
TG2-C22          RECT_OPEN    1.00       5.00       0          0
TG1-C22          RECT_OPEN    1.00       5.00       0          0
IC3-C15          RECT_OPEN    1.00       36.00      0          0
IC9-C15          RECT_OPEN    1.00       36.00      0          0
TG2-C22A         RECT_OPEN    1.00       3.00       0          0
TG1-C22A         RECT_OPEN    1.00       3.00       0          0
TG2-C23          RECT_OPEN    1.00       3.75       0          0
TG1-C23          RECT_OPEN    1.00       3.75       0          0

[LOSSES]
;;Link           Inlet      Outlet     Average    Flap Gate
;;-------------- ---------- ---------- ---------- ----------
OP-WPCF          0          0          0          NO
IC1-WPCF         0          0          0          NO
MAGMETER2        0          0          0          NO
MAGMETER1        0          0          0          NO
IC1-Cam          0          0          0          NO
IC7-C2           0          0          0          NO
OP-C3            0          0          0          NO
C3RG             0          0          0          NO
IC6-C2           0          0          0          NO
IC5-C2           0          0          0          NO
IC3-C2           0          0          0          NO
TS1-C2           0          0          0          NO
OP-C2            0          0          0          NO
TS4-C2           0          0          0          NO
TS1-C3           0          0          0          NO
TS4-C3           0          0          0          NO
TS3-C3           0          0          0          NO
TS2-C3           0          0          0          NO
TS7-C3           0          0          0          NO
TS5-C3           0          0          0          NO
TS8-C3           0          0          0          NO
TS6-C3           0          0          0          NO
C1RG             0          0          0          NO
OP-C1            0          0          0          NO
TS7-C1           0          0          0          NO
TS2-C1           0          0          0          NO
IC3-C5           0          0          0          NO
OP-C5            0          0          0          NO
C5RG             0          0          0          NO
OP-C6            0          0          0          NO
TS1-C6           0          0          0          NO
IC3-C7           0          0          0          NO
OP-C7            0          0          0          NO
C7RG             0          0          0          NO
TS1-C7           0          0          0          NO
TS2-C6           0          0          0          NO
IC3-C8           0          0          0          NO
OP-C8            0          0          0          NO
C8RG             0          0          0          NO
TS1-C8           0          0          0          NO
C9RG             0          0          0          NO
OP1-C9           0          0          0          NO
OP-C9            0          0          0          NO
OP-C10           0          0          0          NO
TS1-C10          0          0          0          NO
C10RG            0          0          0          NO
IC3-C10          0          0          0          NO
C2RG             0          0          0          NO
IC3-C11          0          0          0          NO
C11RG            0          0          0          NO
TS1-C11          0          0          0          NO
IC3-C12          0          0          0          NO
C12RG            0          0          0          NO
TS1-C12          0          0          0          NO
OP-C11           0          0          0          NO
OP-C12           0          0          0          NO
IC3-C13          0          0          0          NO
C13RG            0          0          0          NO
TS1-C13          0          0          0          NO
OP-C13           0          0          0          NO
IC3-C14          0          0          0          NO
C14RG            0          0          0          NO
OP-C14           0          0          0          NO
TS2-C13          0          0          0          NO
TS2-C11          0          0          0          NO
TS5-C11          0          0          0          NO
TS2-C10          0          0          0          NO
TS2-C9           0          0          0          NO
TS2-C8           0          0          0          NO
TS3-C7           0          0          0          NO
TS34-C3          0          0          0          NO
TS33-C3          0          0          0          NO
TS32-C3          0          0          0          NO
TS31-C3          0          0          0          NO
TS30-C3          0          0          0          NO
TS41-C3          0          0          0          NO
TS40-C3          0          0          0          NO
IC1-County       0          0          0          NO
IC4-C14          0          0          0          NO
IC4-C13          0          0          0          NO
IC5-C13          0          0          0          NO
IC4-C12          0          0          0          NO
IC7-C12          0          0          0          NO
IC4-C11          0          0          0          NO
IC6-AR           0          0          0          NO
IC5-C8           0          0          0          NO
IC4-C7           0          0          0          NO
IC5-C7           0          0          0          NO
IC4-C9           0          0          0          NO
IC5-C6           0          0          0          NO
IC5-C5           0          0          0          NO
IC8-C1           0          0          0          NO
IC3-C16          0          0          0          NO
C16RG            0          0          0          NO
TS1-C16          0          0          0          NO
OP-C16           0          0          0          NO
IC2-C15          0          0          0          NO
C15RG            0          0          0          NO
TS1-C15          0          0          0          NO
OP-C15           0          0          0          NO
IC3-C17          0          0          0          NO
C17RG            0          0          0          NO
TS1-C17          0          0          0          NO
OP-C17           0          0          0          NO
IC3-C28          0          0          0          NO
C28RG            0          0          0          NO
TS1-C28          0          0          0          NO
OP-C28           0          0          0          NO
C19RG            0          0          0          NO
OP-C19           0          0          0          NO
C27RG            0          0          0          NO
TS1-C27          0          0          0          NO
OP-C27           0          0          0          NO
IC22-C18         0          0          0          NO
C18RG            0          0          0          NO
TS1-C18          0          0          0          NO
OP-C18           0          0          0          NO
TS2-C22          0          0          0          NO
OP-C22           0          0          0          NO
IC1-PI           0          0          0          NO
FM6-ST           0          0          0          NO
IC11-ST          0          0          0          NO
IC14-C16         0          0          0          NO
IC17-C16         0          0          0          NO
IC20-C17         0          0          0          NO
IC4-C17          0          0          0          NO
IC18-C16         0          0          0          NO
IC1-PINE         0          0          0          NO
FM5-ST           0          0          0          NO
TS1-C22          0          0          0          NO
FM1-FE           0          0          0          NO
OP-C22A          0          0          0          NO
TS2-C22A         0          0          0          NO
IC1-C22A         0          0          0          NO
IC2-C22A         0          0          0          NO
IC3-C19          0          0          0          NO
IC1-BA           0          0          0          NO
IC1-FE           0          0          0          NO
OP-C23           0          0          0          NO
IC3-C23          0          0          0          NO
C23RG            0          0          0          NO
TS1-C90          0          0          0          NO
IC4-C23          0          0          0          NO
TS1-C60          0          0          0          NO
TS2-C60          0          0          0          NO
TS4-C11          0          0          0          NO
TS2-C5           0          0          0          NO
TS10-C3          0          0          0          NO
TS3-C2           0          0          0          NO
TS6-C2           0          0          0          NO
TS1a-C19         0          0          0          NO
TS7a-C19         0          0          0          NO
TS4a-C19         0          0          0          NO
TS2a-C19         0          0          0          NO
TS3a-C19         0          0          0          NO
TS6a-C19         0          0          0          NO
TS5a-C19         0          0          0          NO
TS2-C28A         0          0          0          NO
C16-C16          0          0          0          NO
C1-10TH          0          0          0          NO
FM3-BA-PS        0          0          0          NO
E-SIPH           0          0          0          NO
15-SIPH          0          0          0          NO
C6RG             0          0          0          NO
C23A-DUMMY       0          0          0          NO
11-TG1A          0          0          0          NO
G1A-C22          0          0          0          NO
G1A-C5           0          0          0          NO
27-TG            0          0          0          NO
TS2-C90          0          0          0          NO
8-TG             0          0          0          NO

[COORDINATES]
;;Node           X-Coord            Y-Coord
;;-------------- ------------------ ------------------
WPCF             -397185.00         314761.14         
OF-WPCF          -396913.14         314293.75         
GC-COU-JNC       -395183.81         318030.90         
PSWW-WPCF        -397345.52         315137.08         
IC-WPCF          -397416.09         315311.82         
GT-County        -397412.89         315610.29         
GT-Camden        -397462.73         315472.35         
C3-IC            -397628.04         315874.27         
C2-FE-IC50       -397604.21         316171.05         
C3-TG2           -397710.32         315587.06         
OF-C3            -397539.90         315011.12         
C3-JA-010        -397651.19         316147.54         
C3-TG1           -397896.67         315780.68         
C3-RG            -397692.21         315845.55         
C2-FE-IC40       -397255.91         316522.37         
C2-IC            -395674.97         316448.36         
C2-IC2           -395641.85         315587.40         
C2-RG            -395681.45         315435.01         
C2-JE-009        -395665.99         315743.78         
C2-TG1           -396004.85         315265.53         
C2-TG2           -396049.28         314936.75         
OF-C2            -395843.80         314880.29         
C2-JE-050        -395655.70         317130.85         
C2-JE-055        -395643.51         318026.62         
C2-JE-085        -395615.28         319197.69         
C3-JA-018        -397627.46         316680.37         
C3-EV-060        -398389.95         318843.02         
C3-08-065        -398417.89         319369.15         
C3-08-090        -399169.43         319303.12         
C3-LI-116        -399725.52         319637.75         
C3-08-094        -399174.27         319347.05         
C3-10-124        -399772.26         320037.47         
C1-RG            -393042.55         318312.14         
C1-IC            -393096.52         318482.71         
C1-TG1           -392971.83         318479.19         
C1-TG2           -392903.48         318309.59         
OF-C1            -392798.07         318123.79         
C1-FA-030        -393590.29         318296.01         
C1-FA-050        -393578.32         318942.25         
C5-IC2           -399476.75         313855.92         
C5-TG2           -399481.84         313590.92         
OF-C5            -399480.38         313413.35         
C5-TG1           -399370.38         313648.71         
C5-RG            -399471.00         313710.21         
IC-C5            -399565.08         314772.30         
C6-TG2           -400591.29         313753.83         
OF-C6            -400590.95         313201.16         
C6-TG1           -400650.08         313906.15         
C6-WA-020        -400629.72         314872.69         
C6-IC            -400617.48         314911.14         
C6-RG            -400589.63         314089.19         
C7-IC2           -401360.92         314490.27         
C7-TG2           -401322.65         314230.10         
OF-C7            -401376.46         313842.86         
C7-TG1           -401368.49         314313.00         
C7-DI-010        -401377.67         315019.08         
C7-IC            -401389.57         315004.25         
C7-RG            -401320.99         314385.39         
C5-KA-050        -399730.24         316465.88         
C6-WA-040        -400713.03         315882.84         
C8-IC2           -402792.50         314723.40         
C8-TG2           -402842.62         314232.66         
OF-C8            -402960.67         313548.11         
C8-TG1           -402882.54         314367.27         
C8-02-010        -402766.35         315171.63         
C8-IC            -402756.48         315195.40         
C8-RG            -402823.58         314499.36         
C9-IC            -403484.11         315266.19         
C9-TG2           -403556.95         314657.05         
C9-TG1           -403650.76         314853.67         
C9-RG            -403558.43         315049.55         
OF-C9            -403731.04         313639.25         
OF1-C9           -403558.38         313927.38         
C10-TG2          -405270.93         314106.48         
OF-C10           -405845.39         313568.87         
C10-TG1          -405249.26         314255.18         
C10-AR-008       -405051.85         314518.04         
C10-IC           -405060.20         314375.71         
PS-ARCH          -404990.28         314260.34         
AR-IC            -404931.94         314210.16         
C10-RG           -405134.50         314321.44         
C11-IC2          -406190.10         314533.02         
C11-TG2          -406310.11         314017.66         
C11-TG1          -406336.97         314247.23         
C11-CO-010       -406111.70         314806.40         
C11-IC           -406127.73         314797.85         
C11-RG           -406210.01         314385.73         
OF-C11           -406472.07         313564.62         
C12-IC2          -408506.62         314994.88         
C12-TG2          -408666.01         314743.05         
C12-TG1          -408721.74         314877.19         
C12-DE-010       -408583.09         315189.89         
C12-IC           -408560.94         315164.70         
C12-RG           -408612.86         314963.23         
OF-C12           -408771.43         314363.20         
C13-IC2          -409653.81         316324.44         
C13-TG2          -409921.39         316394.52         
C13-TG1          -409830.67         316446.77         
C13-SE-010       -408919.19         316092.23         
C13-IC           -408928.40         316109.12         
C13-RG           -409782.78         316333.80         
OF-C13           -410072.51         316452.97         
C14-IC2          -409629.10         316718.19         
C14-TG2          -409858.64         316784.32         
C14-TG1          -409788.36         316868.49         
C14-IC           -408820.28         316504.62         
C14-RG           -409734.53         316755.64         
OF-C14           -409949.90         316804.65         
C13-ST-060       -408116.10         316322.38         
C11-CO-020       -405993.69         315335.41         
C11-FR-040       -406701.43         315517.14         
C11-FR-060       -407494.50         315726.17         
C10-AR-010       -405037.30         314636.14         
C9-BE-050        -403492.27         316555.70         
C8-BE-018        -403016.88         315204.43         
C7-02-018        -401630.81         315042.22         
C3-LI-160        -399983.37         322583.96         
C3-ME-210        -397195.14         321624.88         
C3-08-164        -397024.69         320972.74         
C3-08-134        -397036.15         320223.10         
C3-08-095        -397047.61         319380.40         
C3-08-091        -397517.43         319374.49         
C3-EV-085        -398485.68         320286.22         
C3-EV-075        -398453.45         319750.63         
C13-BE-I25       -408998.88         315388.78         
C12-DE-I70       -406944.22         315016.20         
C7-02-I10        -401148.78         314970.97         
C16-IC2          -405755.84         319941.23         
C16-TG1          -405946.64         319952.96         
C16-IC           -405675.34         319881.95         
C16-RG           -405815.84         319902.06         
OF-C16           -406033.80         320249.91         
C16-LI-010       -405650.24         319837.91         
C15-IC2          -407162.89         319804.81         
C15-TG1          -407212.83         319858.23         
C15-RG           -407250.50         319833.75         
OF-C15           -407177.86         319901.90         
C15-ST-010       -407258.97         319787.18         
C17-IC2          -404393.81         321434.65         
C17-TG2          -404472.27         321518.83         
C17-TG1          -404519.34         321434.34         
C17-IC           -404337.41         321433.44         
C17-RG           -404439.80         321350.65         
C17-AD-010       -404439.26         321069.00         
OF-C17           -404481.53         321642.63         
C28-IC2          -406964.49         320372.58         
C28-TG2          -407118.32         320237.30         
C28-TG1          -407146.49         320324.23         
C28-RG           -407076.80         320421.44         
OF-C28           -407141.64         320075.17         
C28-ES-030       -406836.04         321505.82         
C19-TG2          -402392.58         321816.51         
C19-TG1          -402307.60         321902.53         
C19-IC           -402261.20         321716.91         
C19-RG           -402229.23         321817.04         
C19-PA-010       -401818.08         322347.25         
OF-C19           -402679.30         321810.21         
C27-TG2          -402288.94         324713.37         
C27-TG1          -402289.33         324804.89         
C27-RG           -402372.24         324811.30         
C27-BA-020       -402907.01         325463.79         
OF-C27           -402241.32         324662.21         
C18-IC           -402376.37         320751.48         
C18-TG2          -402423.20         321025.50         
C18-TG1          -402473.84         320906.43         
PINE-IC          -402271.59         320759.66         
C18-RG           -402403.84         320780.39         
C18-LI-020       -402309.13         319432.05         
OF-C18           -402548.86         321188.24         
C22-TG2          -404528.66         321906.14         
C22-TG1          -404595.19         321953.73         
C22-IC           -404473.83         322007.16         
C22-RG           -404545.17         322026.86         
C22-FE-080       -405075.09         325055.03         
OF-C22           -404515.41         321804.16         
PI-SP-IC75       -401346.27         317497.89         
C17-ME-I10       -404167.33         321208.24         
C16-BR-I50       -404742.63         320948.37         
C16-BR-I45       -404857.37         320833.58         
C16-BR-I30       -405198.50         320509.74         
ST-PE-I40        -406184.74         319704.52         
ST-10-I30        -406684.59         319634.01         
ST-10-I20        -407099.07         319748.69         
PS-PINE          -402268.02         320684.05         
C15-IC           -407124.28         319837.90         
C15-ST-I20       -407120.32         319873.99         
C15-ST-I30       -407111.11         320088.88         
PS-STATE         -407075.78         320262.79         
ST-ST-F50        -407104.53         319868.41         
C22-FE-010       -404593.85         322020.04         
FE-FE-F10        -404426.36         321911.91         
FE-FE-F20        -404426.36         321784.13         
FE-FE-F60        -404370.78         321572.64         
C22A-TG2         -405021.38         321957.88         
OF-C22A          -405019.03         321905.05         
C22A-RG          -405021.55         322061.75         
C22A-TG1         -405091.18         322015.67         
C22A-RI050       -406348.41         322930.40         
C22A-IC          -404952.96         322119.93         
C19-PI-010       -402332.53         322588.45         
BA-BA-F10        -402374.31         324576.23         
BA-BA-F20        -402355.64         324564.89         
C23-TG2          -409313.91         322832.23         
C23-TG1          -409355.95         322978.65         
C23-RG           -409233.56         323065.31         
OF-C23           -409369.06         322678.74         
C23A-HA010       -408785.36         323182.54         
C23-IC           -409188.81         323152.85         
C23-HA-I20       -409005.01         323334.60         
C24-STOR         -410528.63         323977.55         
C24-RG           -410376.68         324105.09         
OF-C24           -411112.17         323632.34         
C24-27-010       -410236.91         324192.64         
C32-TG1          -412245.03         325951.50         
C32-RG           -412110.37         325947.64         
C32-IC2          -412033.98         326159.33         
C32-IC1          -412165.44         326051.93         
C32-IC           -411880.38         325948.42         
C90-HA-020       -411420.64         326529.57         
G2-TG1           -385415.12         314309.43         
OF-G2            -385417.12         314144.32         
G2-RG            -385420.91         314437.32         
G2-IC            -385447.18         314562.23         
G1-CH-003        -384765.38         314957.87         
G1-TG1           -385002.86         314551.88         
OF-G1            -385016.17         314145.83         
G1-RG            -384827.08         314852.85         
G1-IC            -384876.85         314790.75         
G3-JE-005        -386727.84         314716.16         
G3-TG1           -386917.03         314433.15         
OF-G3            -387171.10         314017.47         
G3-RG            -386904.71         314642.02         
G3-IC            -386985.05         314666.65         
G4-MA-020        -387010.41         315293.21         
G4-TG1           -387365.94         314648.29         
OF-G4            -387647.75         314228.47         
G4-RG            -387284.43         314910.90         
G4-IC            -387395.79         314978.45         
G5-EL-010        -388499.06         315728.50         
G5-TG1           -388671.80         315388.97         
OF-G5            -388874.52         315005.74         
G5-RG            -388619.13         315544.26         
G5-IC            -388598.58         315612.88         
G6-ME-040        -388622.24         316410.58         
G6-TG1           -389122.46         315547.44         
OF-G6            -389416.84         315128.67         
G6-RG            -388950.07         315820.06         
G6-IC            -389015.23         315906.16         
G7-BR-020        -389658.35         316951.00         
G7-IC2           -390283.17         316848.41         
G7-TG1           -390162.96         316526.61         
OF-G7            -390700.16         315385.66         
G7-RG            -390058.86         316962.94         
G7-IC            -390156.14         316825.59         
27TH-IC          -410296.11         324128.53         
BRPS-WW          -410077.12         323957.58         
C60-HA-030       -411288.08         326291.05         
C60-LO-080       -409398.04         327022.65         
C24-27-020       -409988.94         324352.74         
C23-PR-040       -408515.46         323541.10         
C22A-RI010       -405052.02         322089.39         
C22A-RI080       -407167.38         323604.19         
C22A-RI060       -406673.86         323190.97         
C22A-RI110       -407763.50         324106.54         
C22A-RI090       -407362.83         323774.34         
C23-22-050       -407822.25         324022.07         
C23-20-050       -407423.14         323691.17         
C23-19-050       -407227.50         323522.48         
C23A-PR060       -407685.43         322837.59         
C23-PR-060       -407888.50         322991.10         
C23-PR-045       -408288.67         323327.83         
C22-BA-140       -405423.54         327176.64         
C22-BA-130       -404355.74         326868.43         
C22-MA-120       -404081.74         326781.32         
C22-EL-230       -404519.68         329794.57         
C22-BE-160       -404199.80         327941.83         
C11-PE-050       -406263.94         316035.12         
C10-MA-050       -405394.78         316043.10         
C11-PE-030       -406400.39         315437.92         
C9-BE-010        -403547.07         315297.97         
C14-02-010       -409288.93         316642.89         
C15-ST-020       -407357.34         319356.70         
C17-FE-030       -404596.80         320388.91         
C19-PA-040       -401247.92         321807.44         
C5-KA-010        -399534.43         314288.45         
C3-JA-040        -397573.30         317472.60         
C3-WE-020        -397342.58         316448.41         
C3-10-110        -400027.32         320009.38         
C3-LI-155        -399881.17         321439.24         
C2-JE-020        -395676.08         315980.56         
C2-JE-060        -395617.14         318340.43         
C1-FA-070        -393544.81         319893.07         
C1-FA-108        -393509.41         320988.72         
G1-JE-050        -383915.57         316446.75         
G6-ES-010        -388857.90         318523.90         
G4-MA-080        -386043.54         316642.06         
G4-MA-040        -386747.23         315678.84         
G4-MA-070        -386338.71         316226.40         
G6-ES-060        -389011.84         316675.56         
CFA-FE-001       -396110.57         325538.77         
C2-FE-220        -395526.59         323781.17         
C2-FE-180        -395074.49         322472.43         
C2-FE-110        -395886.74         319651.65         
G2-WA-010        -385438.65         314834.13         
CME-ME-010       -393594.27         323005.91         
CME-ME-PS1       -393655.38         322859.32         
C19-CH-110       -400567.67         319992.68         
C19-PA-080       -400676.32         321264.45         
C19-PA-030       -401443.29         321990.42         
C19-PA-051       -401078.98         321651.28         
C19-PA-060       -400893.63         321471.12         
C1-SY-060        -393810.47         318949.10         
C27-BA-090       -403924.33         326606.83         
C28A-ES030       -406877.47         321491.17         
C28A-RG          -407134.97         320437.28         
C28A-OF1         -407143.60         320396.28         
OF-C28A          -407230.88         320070.02         
C9-MI-060        -404042.66         316242.16         
C23A-TG          -409039.64         323162.12         
C23A-TG1         -409132.23         323061.47         
OF-C23A          -409335.93         322655.47         
CFE-OF           -404126.35         329894.86         
C27B-OF          -403786.24         328137.83         
C22-MA-130       -403766.38         327350.54         
CMT-OF           -403571.71         327216.61         
OF-THORN         -401815.78         326073.42         
CFA-FE-010       -396448.93         326212.98         
CFA              -395827.33         325710.40         
OF-CFA           -395042.37         325691.09         
TH-TG1           -401965.72         326240.29         
OF-CME           -393001.26         323087.24         
CME-ME-030       -393154.49         323180.27         
G06-EL-030       -389699.21         316355.75         
G02-WA-I05       -385499.93         314565.91         
GL-PS-WW         -385542.86         314707.93         
IC2-GL-CCM       -385586.70         314687.67         
GL-FM-END        -388953.79         316683.51         
GL-SI1           -391467.10         317158.27         
Pennsauken       -412232.81         327724.20         
FM1-BPS          -409916.57         324100.80         
GL-SI2           -391926.99         317391.12         
BA-FM5           -402119.21         324414.18         
PI-PS            -402267.07         320579.57         
AR-JUNC          -404982.21         314381.57         
CFA-JUNC         -396180.73         325700.37         
BR-JUNC          -410218.13         323857.35         
COU-FA-030       -393662.16         318189.34         
COU-FA-080       -393801.77         322894.44         
COU-04-090       -394266.34         323791.34         
COU-BR-200       -395487.50         327098.33         
GL-RIV           -392276.93         317706.18         
C6-IC2           -400555.73         314198.71         
FAIRVIEW         -392124.78         320476.15         
C22-EL230A       -404255.42         329743.17         
C22-BE160A       -403971.14         328075.21         
C23A-HA10A       -408965.94         323321.56         
OF-C32           -412415.21         325837.68         
1309             -404510.21         322113.68         
GL-Dummy         -385499.59         314730.91         
C90-BE-070       -409177.66         327852.59         
C2-JE-019        -395738.46         315949.45         
1320             -395815.50         317113.19         
1322             -395801.36         318315.14         
1324             -395740.51         319142.35         
1326             -387769.58         314835.89         
C28A-DUMMY       -407208.21         320149.87         
C32-DUMMY        -412102.10         326113.51         

[MAP]
DIMENSIONS -412415.21 313201.16 -383915.57 329894.86
Units      None

[REPORT]
SUBCATCHMENTS ALL
NODES ALL
LINKS ALL
