;; SWMM5 .inp converted from XPSWMM .xp file
;; Generated by XPSWMM Card Reader
;; Source format: XP_CARD | Original title: Broward County NADA Study Model

[TITLE]
;;Project Title/Notes
Broward County NADA Study Model

[OPTIONS]
FLOW_UNITS           CFS
INFILTRATION         HORTON
FLOW_ROUTING         DYNWAVE
LINK_OFFSETS         DEPTH
MIN_SLOPE            0.0
ALLOW_PONDING        NO
SKIP_STEADY_STATE    NO
ROUTING_STEP         01:00:00
VARIABLE_STEP        0.75
INERTIAL_DAMPING     NONE
NORMAL_FLOW_LIMITED  BOTH
MAX_TRIALS           50
START_DATE           01/01/2001
START_TIME           00:00:00
REPORT_START_DATE    01/01/2001
REPORT_START_TIME    00:00:00
END_DATE             01/02/2001
END_TIME             00:00:00
SWEEP_START          01/01
SWEEP_END            12/31
DRY_DAYS             0
REPORT_STEP          01:00:00
WET_STEP             01:00:00
DRY_STEP             01:00:00

[JUNCTIONS]
;;Name           Elev       MaxDepth   InitDepth  SurDepth   Aponded
;;-------------- ---------- ---------- ---------- ---------- ----------
C14-3            14.00      0          0          0          0
C14-1            14.00      0          0          0          0
G56H-1           16.00      0          0          0          0
G56H-2           16.00      0          0          0          0
G56H-3           16.00      0          0          0          0
G56H-4           16.00      0          0          0          0
G56-H            16.00      0          0          0          0
C14-7            14.00      0          0          0          0
C14-8            14.00      0          0          0          0
C14-9            14.00      0          0          0          0
C14-4            14.00      0          0          0          0
C14-5            14.00      0          0          0          0
C14-6            14.00      0          0          0          0
G56H-6           16.00      0          0          0          0
CS34-BLEED       0          0          0          0          0
CS34-WEIR        0          0          0          0          0
PT-TR_GW         0          0          0          0          0
CS50-BLEED       0          0          0          0          0
CS12-WEIR        0          0          0          0          0
CM7-C14_GW       0          0          0          0          0
CS49-WEIR        0          0          0          0          0

[OUTFALLS]
;;Name           Elev       Type       Stage      Gated
;;-------------- ---------- ---------- ---------- -----
C14-2            14.00      FREE                  NO

[STORAGE]
;;Name           Elev       MaxDepth   InitDepth  Shape      Curve/Params
;;-------------- ---------- ---------- ---------- ---------- ----------
PT               17.00      10.00      10.00      FUNCTIONAL 1000.00 0          0
TRCB             17.00      10.00      10.00      FUNCTIONAL 1000.00 0          0
CM8              14.00      10.00      10.00      FUNCTIONAL 1000.00 0          0
CM6              16.00      10.00      10.00      FUNCTIONAL 1000.00 0          0
CM7              16.00      10.00      10.00      FUNCTIONAL 1000.00 0          0
CM2              16.00      10.00      10.00      FUNCTIONAL 1000.00 0          0
CM4              16.00      10.00      10.00      FUNCTIONAL 1000.00 0          0
CM5              16.00      10.00      10.00      FUNCTIONAL 1000.00 0          0

[WEIRS]
;;Name           From             To               Type       CrestHt    Qcoeff     Gated    EndCon   EndCoeff   Surcharge
;;-------------- ---------------- ---------------- ---------- ---------- ---------- -------- -------- ---------- ----------
CS46-WEIR        CM2              G56H-3           TRANSVERSE 11.00      1.840      NO       0        0          YES
CS45-W           CM4              G56H-4           TRANSVERSE 11.00      1.840      NO       0        0          YES
CS12-WEIR        CS12-WEIR        C14-8            TRANSVERSE 9.00       1.840      NO       0        0          YES
CM8-12_GW        CM8              C14-9            TRANSVERSE 9.00       1.840      NO       0        0          YES
CM7-C14_GW       CM7-C14_GW       C14-6            TRANSVERSE 9.00       1.840      NO       0        0          YES
CS49-W           CM7              CS49-WEIR        TRANSVERSE 9.00       1.840      NO       0        0          YES

[PUMPS]
;;Name           From             To               PumpCurve  Status   Startup    Shutoff
;;-------------- ---------------- ---------------- ---------- -------- ---------- ----------
CS-34            CS34-BLEED       CS34-WEIR        PC_CS-34   ON       11.50      9.50      
CS-50            PT-TR_GW         CS50-BLEED       PC_CS-50   ON       11.00      10.00     
CS-7             TRCB             C14-2            PC_CS-7    ON       10.50      9.00      
TR-C14_GW        TRCB             C14-1            PC_TR-C14_GW ON       10.50      9.00      
CS-PT            PT               G56H-1           PC_CS-PT   ON       11.00      9.50      
CS46-P           CM2              G56H-2           PC_CS46-P  ON       12.50      10.50     
CS45-PUMP        CM4              G56-H            PC_CS45-PUMP ON       12.50      10.50     
CS-12PUMP        CM8              C14-7            PC_CS-12PUMP ON       7.00       6.75      
CS49-P           CM7              C14-4            PC_CS49-P  ON       9.50       8.50      

[CURVES]
;;Name           Type       X-Value    Y-Value
;;-------------- ---------- ---------- ----------
;; Synthesized generic pump curves — replace with actual pump data
PC_CS-34         Pump1      0          5
PC_CS-34                    10         10
PC_CS-50         Pump1      0          5
PC_CS-50                    10         10
PC_CS-7          Pump1      0          5
PC_CS-7                     10         10
PC_TR-C14_GW     Pump1      0          5
PC_TR-C14_GW                10         10
PC_CS-PT         Pump1      0          5
PC_CS-PT                    10         10
PC_CS46-P        Pump1      0          5
PC_CS46-P                   10         10
PC_CS45-PUMP     Pump1      0          5
PC_CS45-PUMP                10         10
PC_CS-12PUMP     Pump1      0          5
PC_CS-12PUMP                10         10
PC_CS49-P        Pump1      0          5
PC_CS49-P                   10         10

[XSECTIONS]
;;Link           Shape        Geom1      Geom2      Geom3      Geom4      Barrels
;;-------------- ------------ ---------- ---------- ---------- ---------- ----------
CS46-WEIR        RECT_OPEN    1.00       3.00       0          0
CS45-W           RECT_OPEN    1.00       3.00       0          0
CS12-WEIR        RECT_OPEN    1.00       16.50      0          0
CM8-12_GW        RECT_OPEN    1.00       16.50      0          0
CM7-C14_GW       RECT_OPEN    1.00       20.00      0          0
CS49-W           RECT_OPEN    1.00       20.00      0          0

[COORDINATES]
;;Node           X-Coord            Y-Coord
;;-------------- ------------------ ------------------
PT               -716088.25         758771.23         
TRCB             -700267.49         759030.76         
CM8              -694781.11         770946.31         
CM6              -702041.43         770894.85         
CM7              -700018.18         765257.96         
CM2              -721613.31         766047.62         
CM4              -715023.88         768056.08         
CM5              -708167.35         768523.30         
C14-2            -688789.83         757070.74         
C14-3            -688908.94         759888.42         
C14-1            -688789.83         753640.84         
G56H-1           -725571.67         759301.45         
G56H-2           -727134.85         765482.55         
G56H-3           -726217.76         768352.11         
G56H-4           -725331.95         775719.27         
G56-H            -725546.69         771541.61         
C14-7            -689154.82         770175.97         
C14-8            -689125.10         771224.07         
C14-9            -689236.35         772341.80         
C14-4            -688915.71         764594.67         
C14-5            -689219.57         765676.15         
C14-6            -688924.10         767046.17         
G56H-6           -729203.54         757652.94         

[MAP]
DIMENSIONS -729203.54 753640.84 -688789.83 775719.27
Units      None

[REPORT]
SUBCATCHMENTS ALL
NODES ALL
LINKS ALL
