;; SWMM5 .inp converted from XPSWMM .xp file
;; Generated by XPSWMM Card Reader
;; Source format: XP_CARD | Original title: Broward County NADA Study Model

[TITLE]
;;Project Title/Notes
Broward County NADA Study Model

[OPTIONS]
FLOW_UNITS           CFS
INFILTRATION         HORTON
FLOW_ROUTING         DYNWAVE
LINK_OFFSETS         DEPTH
MIN_SLOPE            0.0
ALLOW_PONDING        NO
SKIP_STEADY_STATE    NO
ROUTING_STEP         01:00:00
VARIABLE_STEP        0.75
INERTIAL_DAMPING     NONE
NORMAL_FLOW_LIMITED  BOTH
MAX_TRIALS           50
START_DATE           01/01/2001
START_TIME           00:00:00
REPORT_START_DATE    01/01/2001
REPORT_START_TIME    00:00:00
END_DATE             01/02/2001
END_TIME             00:00:00
SWEEP_START          01/01
SWEEP_END            12/31
DRY_DAYS             0
REPORT_STEP          01:00:00
WET_STEP             01:00:00
DRY_STEP             01:00:00

[JUNCTIONS]
;;Name           Elev       MaxDepth   InitDepth  SurDepth   Aponded
;;-------------- ---------- ---------- ---------- ---------- ----------
PT               0          0          0          0          0
TRCB             0          0          0          0          0
CM9-STG          0          0          0          0          0
CM8              0          0          0          0          0
CM6              0          0          0          0          0
CM7              0          0          0          0          0
CM2              0          0          0          0          0
CM4              0          0          0          0          0
CM5              0          0          0          0          0
CM2-STG          0          0          0          0          0
CM10-STG         0          0          0          0          0
CM4-STG          0          0          0          0          0
TOC14-STG        0          0          0          0          0
CM7-STG          0          0          0          0          0
CS46-WEIR        0          0          0          0          0
CS34-BLEED       0          0          0          0          0
CS34-WEIR        0          0          0          0          0
CS12-WEIR        0          0          0          0          0
CM8-12_GW        0          0          0          0          0
CM7-10_GW        0          0          0          0          0
CS49-WEIR        0          0          0          0          0
CS45-WEIR        0          0          0          0          0
PT-TR_GW         0          0          0          0          0

[OUTFALLS]
;;Name           Elev       Type       Stage      Gated
;;-------------- ---------- ---------- ---------- -----
PT-STG           0          FREE                  NO

[CONDUITS]
;;Name           From             To               Length     Roughness  InOffset   OutOffset  InitFlow   MaxFlow
;;-------------- ---------------- ---------------- ---------- ---------- ---------- ---------- ---------- ----------
CM5-CM7_GW       CM5              CM7              100.00     0.0130     0          0          0          0

[PUMPS]
;;Name           From             To               PumpCurve  Status   Startup    Shutoff
;;-------------- ---------------- ---------------- ---------- -------- ---------- ----------
CS-PT            PT               PT-STG           PC_CS-PT   ON       11.00      9.50      
CS-46            CS46-WEIR        CM2-STG          PC_CS-46   ON       12.50      10.50     
CS-34            CS34-BLEED       CS34-WEIR        PC_CS-34   ON       11.50      9.50      
CS-12            CS12-WEIR        CM8-12_GW        PC_CS-12   ON       10.00      8.00      
CS-49            CM7-10_GW        CS49-WEIR        PC_CS-49   ON       9.50       8.50      
CS-7             TRCB             TOC14-STG        PC_CS-7    ON       10.50      9.00      
CS-45            CS45-WEIR        CM4-STG          PC_CS-45   ON       12.50      10.50     
CS-50            PT-TR_GW         TRCB             PC_CS-50   ON       11.00      10.00     

[CURVES]
;;Name           Type       X-Value    Y-Value
;;-------------- ---------- ---------- ----------
;; Synthesized generic pump curves — replace with actual pump data
PC_CS-PT         Pump1      0          5
PC_CS-PT                    10         10
PC_CS-46         Pump1      0          5
PC_CS-46                    10         10
PC_CS-34         Pump1      0          5
PC_CS-34                    10         10
PC_CS-12         Pump1      0          5
PC_CS-12                    10         10
PC_CS-49         Pump1      0          5
PC_CS-49                    10         10
PC_CS-7          Pump1      0          5
PC_CS-7                     10         10
PC_CS-45         Pump1      0          5
PC_CS-45                    10         10
PC_CS-50         Pump1      0          5
PC_CS-50                    10         10

[XSECTIONS]
;;Link           Shape        Geom1      Geom2      Geom3      Geom4      Barrels
;;-------------- ------------ ---------- ---------- ---------- ---------- ----------
CM5-CM7_GW       CIRCULAR     1.00       0          0          0          1

[LOSSES]
;;Link           Inlet      Outlet     Average    Flap Gate
;;-------------- ---------- ---------- ---------- ----------
CM5-CM7_GW       0          0          0          NO

[COORDINATES]
;;Node           X-Coord            Y-Coord
;;-------------- ------------------ ------------------
PT               -715985.72         758696.86         
TRCB             -705657.20         759727.61         
CM9-STG          -689207.70         770257.39         
CM8              -695913.62         771532.77         
CM6              -702247.77         771085.25         
CM7              -699851.04         765263.45         
CM2              -721789.65         766321.95         
CM4              -714893.64         768276.92         
CM5              -708246.00         768612.79         
PT-STG           -725853.24         759132.83         
CM2-STG          -725266.85         766384.12         
CM10-STG         -688942.01         767033.40         
CM4-STG          -724937.49         771880.16         
TOC14-STG        -695044.11         756808.25         
CM7-STG          -688872.37         760782.93         

[MAP]
DIMENSIONS -725853.24 756808.25 -688872.37 771880.16
Units      None

[REPORT]
SUBCATCHMENTS ALL
NODES ALL
LINKS ALL
