;; SWMM5 .inp converted from XPSWMM .xp file
;; Generated by XPSWMM Card Reader
;; Source format: XP_CARD | Original title: City of White Rock - Evaluation of existing conditions
;; Links parsed from source: 53 | Routable in this .inp: 53

[TITLE]
;;Project Title/Notes
City of White Rock - Evaluation of existing conditions

[OPTIONS]
FLOW_UNITS           CMS
INFILTRATION         HORTON
FLOW_ROUTING         DYNWAVE
LINK_OFFSETS         DEPTH
MIN_SLOPE            0.0
ALLOW_PONDING        NO
SKIP_STEADY_STATE    NO
ROUTING_STEP         00:00:30
VARIABLE_STEP        0.75
INERTIAL_DAMPING     PARTIAL
NORMAL_FLOW_LIMITED  BOTH
MAX_TRIALS           100
HEAD_TOLERANCE       .0001
START_DATE           01/01/2001
START_TIME           00:00:00
REPORT_START_DATE    01/01/2001
REPORT_START_TIME    00:00:00
END_DATE             01/02/2001
END_TIME             00:00:00
SWEEP_START          01/01
SWEEP_END            12/31
DRY_DAYS             0
REPORT_STEP          00:15:00
WET_STEP             00:05:00
DRY_STEP             01:00:00

[JUNCTIONS]
;;Name           Elev       MaxDepth   InitDepth  SurDepth   Aponded
;;-------------- ---------- ---------- ---------- ---------- ----------
32               87.02      0          0          0          0
34               86.36      0          0          0          0
36               85.33      0          0          0          0
39               80.95      0          0          0          0
40               80.81      0          0          0          0
41               79.78      0          0          0          0
42               78.74      0          0          0          0
49               78.46      0          0          0          0
50               78.79      0          0          0          0
63               83.18      0          0          0          0
65               80.90      0          0          0          0
67               77.67      0          0          0          0
70               73.89      0          0          0          0
72               74.71      0          0          0          0
75               74.72      0          0          0          0
92               71.48      0          0          0          0
93               73.36      0          0          0          0
97               73.40      0          0          0          0
106              79.65      0          0          0          0
107              82.22      0          0          0          0
109              81.41      0          0          0          0
114              69.54      0          0          0          0
117              69.22      0          0          0          0
122              70.44      0          0          0          0
125              71.31      0          0          0          0
128              71.58      0          0          0          0
167              68.87      0          0          0          0
175              64.92      0          0          0          0
184              78.71      0          0          0          0
187              76.29      0          0          0          0
2993             65.24      0          0          0          0
3083             76.64      0          0          0          0
3087             78.75      0          0          0          0
3088             79.01      0          0          0          0
3400             72.27      0          0          0          0
3401             73.89      0          0          0          0
3402             76.98      0          0          0          0
3414             72.29      0          0          0          0
3422             71.95      0          0          0          0
3804             78.96      0          0          0          0
3822             80.71      0          0          0          0
4013             72.69      0          0          0          0
4037             73.80      0          0          0          0
4286             80.12      0          0          0          0
4321             82.00      0          0          0          0
4322             80.28      0          0          0          0
4502             73.50      0          0          0          0
3877             75.92      0          0          0          0
10014            77.80      0          0          0          0
10049            78.70      0          0          0          0
10063            81.68      0          0          0          0
N2               72.00      0          0          0          0
Stilling         9.00       0          0          0          0
Node_6802        81.05      0          0          0          0
Node_11891190    79.71      0          0          0          0
Node_830         77.48      0          0          0          0
Node_1075269     76.77      0          0          0          0
Node_861         77.75      0          0          0          0
Node_1090959     76.15      0          0          0          0
Node_873         72.40      0          0          0          0
Node_1100247     72.16      0          0          0          0
Node_875         72.27      0          0          0          0
Node_1225247     72.00      0          0          0          0
Node_891         74.69      0          0          0          0
Node_1384241     73.82      0          0          0          0
Node_914         72.14      0          0          0          0
Node_1095245     70.62      0          0          0          0
Node_7003        79.62      0          0          0          0
Node_11761482    78.00      0          0          0          0
Node_214         77.10      0          0          0          0
Node_1447238     77.00      0          0          0          0
HW_020           79.71      0          0          0          0
Node_1190993     76.32      0          0          0          0
Node_292         79.02      0          0          0          0
Node_1077248     77.63      0          0          0          0
HW_2             71.13      0          0          0          0
Node_2724999     70.94      0          0          0          0
HW_14            78.95      0          0          0          0
Node_1496250     78.85      0          0          0          0
HW_D2            78.00      0          0          0          0
Node_14821447    77.10      0          0          0          0

[OUTFALLS]
;;Name           Elev       Type       Stage      Gated
;;-------------- ---------- ---------- ---------- -----
4002             78.49      FREE                  NO

[CONDUITS]
;;Name           From             To               Length     Roughness  InOffset   OutOffset  InitFlow   MaxFlow
;;-------------- ---------------- ---------------- ---------- ---------- ---------- ---------- ---------- ----------
770              32               34               98.60      0.0130     86.09      85.22      0          0
777              34               36               92.60      0.0130     85.19      83.72      0          0
778              36               63               92.30      0.0130     83.67      82.35      0          0
779              107              109              93.90      0.0130     81.41      80.31      0          0
780              63               107              91.50      0.0130     82.33      81.42      0          0
6802             Node_6802        Node_11891190    70.50      0.0130     81.05      79.71      0          0
6811             65               4286             27.00      0.0130     80.24      79.66      0          0
817              39               40               12.00      0.0130     80.29      80.17      0          0
824              40               41               43.50      0.0130     79.98      78.85      0          0
830              Node_830         Node_1075269     85.60      0.0130     77.48      76.77      0          0
843              41               42               45.00      0.0130     78.74      77.67      0          0
845              42               50               12.70      0.0130     77.64      77.50      0          0
860              49               3083             38.50      0.0130     77.71      76.12      0          0
861              Node_861         Node_1090959     118.50     0.0130     77.75      76.15      0          0
6862             3087             4002             60.40      0.0130     78.00      77.76      0          0
863              3088             3087             37.30      0.0110     78.30      78.01      0          0
873              Node_873         Node_1100247     14.40      0.0130     72.40      72.16      0          0
874              187              97               54.00      0.0130     74.06      71.92      0          0
875              Node_875         Node_1225247     42.20      0.0130     72.27      72.00      0          0
883              3402             3401             67.00      0.0130     75.73      72.57      0          0
884              3083             75               44.00      0.0130     76.07      73.85      0          0
885              72               70               88.90      0.0130     73.84      72.89      0          0
886              50               72               95.50      0.0130     77.20      74.00      0          0
887              75               72               14.70      0.0130     73.83      73.85      0          0
891              Node_891         Node_1384241     101.90     0.0130     74.69      73.82      0          0
906              3401             3400             50.00      0.0130     72.50      71.52      0          0
907              67               3400             132.50     0.0130     76.98      71.48      0          0
914              Node_914         Node_1095245     168.70     0.0130     72.14      70.62      0          0
928              92               114              55.00      0.0130     69.60      67.30      0          0
929              122              114              98.70      0.0130     68.60      68.09      0          0
930              117              167              26.70      0.0130     66.82      66.23      0          0
931              114              117              19.80      0.0130     67.27      66.89      0          0
932              125              122              110.40     0.0130     69.41      68.64      0          0
933              128              125              68.60      0.0130     70.08      69.44      0          0
004              184              187              60.50      0.0130     75.78      74.51      0          0
042              70               93               12.50      0.0130     72.72      72.34      0          0
043              93               3414             40.50      0.0130     72.31      71.43      0          0
045              97               3422             58.60      0.0130     71.90      70.74      0          0
046              3422             92               13.00      0.0130     70.63      69.66      0          0
053              109              106              101.00     0.0130     78.80      77.29      0          0
055              106              184              56.00      0.0130     77.26      75.82      0          0
073              167              2993             89.30      0.0130     66.23      62.25      0          0
074              2993             175              9.60       0.0130     62.25      61.87      0          0
7003             Node_7003        Node_11761482    76.00      0.0130     79.62      78.00      0          0
214              Node_214         Node_1447238     12.00      0.0130     77.10      77.00      0          0
020              HW_020           Node_1190993     133.00     0.0130     79.71      76.32      0          0
292              Node_292         Node_1077248     92.70      0.0130     79.02      77.63      0          0
P1               3414             N2               10.00      0.0130     71.39      71.13      0          0
2                HW_2             Node_2724999     101.00     0.0130     71.13      70.94      0          0
P3               3400             N2               5.00       0.0130     71.13      71.13      0          0
P7               175              Stilling         188.00     0.0110     61.70      7.50       0          0
14               HW_14            Node_1496250     11.20      0.0130     78.95      78.85      0          0
D2               HW_D2            Node_14821447    18.00      0.0200     78.00      77.10      0          0

[XSECTIONS]
;;Link           Shape        Geom1      Geom2      Geom3      Geom4      Barrels
;;-------------- ------------ ---------- ---------- ---------- ---------- ----------
770              CIRCULAR     0.25       0          0          0          1
777              CIRCULAR     0.25       0          0          0          1
778              CIRCULAR     0.25       0          0          0          1
779              CIRCULAR     0.38       0          0          0          1
780              CIRCULAR     0.30       0          0          0          1
6802             CIRCULAR     0.20       0          0          0          1
6811             CIRCULAR     0.25       0          0          0          1
817              CIRCULAR     0.45       0          0          0          1
824              CIRCULAR     0.38       0          0          0          1
830              CIRCULAR     0.30       0          0          0          1
843              CIRCULAR     0.45       0          0          0          1
845              CIRCULAR     0.53       0          0          0          1
860              CIRCULAR     0.25       0          0          0          1
861              CIRCULAR     0.20       0          0          0          1
6862             CIRCULAR     0.30       0          0          0          1
863              CIRCULAR     0.20       0          0          0          1
873              CIRCULAR     0.75       0          0          0          1
874              CIRCULAR     1.05       0          0          0          1
875              CIRCULAR     0.90       0          0          0          1
883              CIRCULAR     0.25       0          0          0          1
884              CIRCULAR     0.57       0          0          0          1
885              CIRCULAR     0.60       0          0          0          1
886              CIRCULAR     0.45       0          0          0          1
887              CIRCULAR     0.60       0          0          0          1
891              CIRCULAR     0.75       0          0          0          1
906              CIRCULAR     0.53       0          0          0          1
907              CIRCULAR     0.60       0          0          0          1
914              CIRCULAR     0.30       0          0          0          1
928              CIRCULAR     1.20       0          0          0          1
929              CIRCULAR     0.38       0          0          0          1
930              CIRCULAR     1.35       0          0          0          1
931              CIRCULAR     1.35       0          0          0          1
932              CIRCULAR     0.38       0          0          0          1
933              CIRCULAR     0.38       0          0          0          1
004              CIRCULAR     1.05       0          0          0          1
042              CIRCULAR     0.60       0          0          0          1
043              CIRCULAR     0.75       0          0          0          1
045              CIRCULAR     1.05       0          0          0          1
046              CIRCULAR     1.20       0          0          0          1
053              CIRCULAR     1.05       0          0          0          1
055              CIRCULAR     0.90       0          0          0          1
073              CIRCULAR     1.35       0          0          0          1
074              CIRCULAR     1.35       0          0          0          1
7003             CIRCULAR     0.38       0          0          0          1
214              CIRCULAR     0.30       0          0          0          1
020              CIRCULAR     0.20       0          0          0          1
292              CIRCULAR     0.53       0          0          0          1
P1               CIRCULAR     0.90       0          0          0          1
2                CIRCULAR     0.87       0          0          0          1
P3               CIRCULAR     1.05       0          0          0          1
P7               CIRCULAR     0.80       0          0          0          1
14               CIRCULAR     1.05       0          0          0          1
D2               TRAPEZOIDAL  0.70       0.50       1          1          1

[LOSSES]
;;Link           Inlet      Outlet     Average    Flap Gate
;;-------------- ---------- ---------- ---------- ----------
770              0          0          0          NO
777              0          0          0          NO
778              0          0          0          NO
779              0          0          0          NO
780              0          0          0          NO
6802             0          0          0          NO
6811             0          0          0          NO
817              0          0          0          NO
824              0          0          0          NO
830              0          0          0          NO
843              0          0          0          NO
845              0          0          0          NO
860              0          0          0          NO
861              0          0          0          NO
6862             0          0          0          NO
863              0          0          0          NO
873              0          0          0          NO
874              0          0          0          NO
875              0          0          0          NO
883              0          0          0          NO
884              0          0          0          NO
885              0          0          0          NO
886              0          0          0          NO
887              0          0          0          NO
891              0          0          0          NO
906              0          0          0          NO
907              0          0          0          NO
914              0          0          0          NO
928              0          0          0          NO
929              0          0          0          NO
930              0          0          0          NO
931              0          0          0          NO
932              0          0          0          NO
933              0          0          0          NO
004              0          0          0          NO
042              0          0          0          NO
043              0          0          0          NO
045              0          0          0          NO
046              0          0          0          NO
053              0          0          0          NO
055              0          0          0          NO
073              0          0          0          NO
074              0          0          0          NO
7003             0          0          0          NO
214              0          0          0          NO
020              0          0          0          NO
292              0          0          0          NO
P1               0          0          0          NO
2                0          0          0          NO
P3               0          0          0          NO
P7               0          0          0          NO
14               0          0          0          NO
D2               0          0          0          NO

[INFLOWS]
;;Node           Constituent  Time Series      Type     Mfactor  Sfactor  Baseline Pattern
;;-------------- ------------ ---------------- -------- -------- -------- -------- --------
;; SYNTHETIC TEST INFLOWS — the source .xp carried no constant inflows
;; and RUNF hydrology is not converted; 0.03 CMS is applied at each
;; headwater node so the network runs wet for QA. Replace with real
;; hydrology or inflow hydrographs before using results.
32               FLOW         ""               FLOW     1.0      1.0      0.03
39               FLOW         ""               FLOW     1.0      1.0      0.03
49               FLOW         ""               FLOW     1.0      1.0      0.03
65               FLOW         ""               FLOW     1.0      1.0      0.03
67               FLOW         ""               FLOW     1.0      1.0      0.03
128              FLOW         ""               FLOW     1.0      1.0      0.03
3088             FLOW         ""               FLOW     1.0      1.0      0.03
3402             FLOW         ""               FLOW     1.0      1.0      0.03
Node_6802        FLOW         ""               FLOW     1.0      1.0      0.03
Node_830         FLOW         ""               FLOW     1.0      1.0      0.03
Node_861         FLOW         ""               FLOW     1.0      1.0      0.03
Node_873         FLOW         ""               FLOW     1.0      1.0      0.03
Node_875         FLOW         ""               FLOW     1.0      1.0      0.03
Node_891         FLOW         ""               FLOW     1.0      1.0      0.03
Node_914         FLOW         ""               FLOW     1.0      1.0      0.03
Node_7003        FLOW         ""               FLOW     1.0      1.0      0.03
Node_214         FLOW         ""               FLOW     1.0      1.0      0.03
HW_020           FLOW         ""               FLOW     1.0      1.0      0.03
Node_292         FLOW         ""               FLOW     1.0      1.0      0.03
HW_2             FLOW         ""               FLOW     1.0      1.0      0.03
HW_14            FLOW         ""               FLOW     1.0      1.0      0.03
HW_D2            FLOW         ""               FLOW     1.0      1.0      0.03

[COORDINATES]
;;Node           X-Coord            Y-Coord
;;-------------- ------------------ ------------------
32               -5430434.38        511633.91         
34               -5430434.38        511732.50         
36               -5430433.88        511825.09         
39               -5430343.38        511878.88         
40               -5430331.38        511878.84         
41               -5430287.88        511878.56         
42               -5430242.88        511878.59         
49               -5430229.88        511878.53         
50               -5430241.74        511891.28         
63               -5430433.88        511917.44         
65               -5430364.88        511983.09         
67               -5430229.88        511982.41         
70               -5430149.38        511981.97         
72               -5430147.38        511893.06         
75               -5430147.38        511878.34         
92               -5430091.38        512091.88         
93               -5430136.95        511982.13         
97               -5430163.38        512095.56         
106              -5430333.38        512100.00         
107              -5430433.88        512008.94         
109              -5430433.51        512103.31         
114              -5430036.38        512089.81         
117              -5430027.88        512107.75         
122              -5430029.64        511993.07         
125              -5430023.74        511879.77         
128              -5430020.88        511812.44         
167              -5430028.38        512134.47         
175              -5429999.38        512227.50         
184              -5430276.25        512098.59         
187              -5430215.75        512097.38         
2993             -5430006.88        512221.13         
3083             -5430191.38        511878.53         
3087             -5430186.38        511699.78         
3088             -5430185.38        511662.50         
3400             -5430099.88        511992.45         
3401             -5430149.38        511990.61         
3402             -5430216.88        511992.09         
3414             -5430096.29        511982.23         
3422             -5430104.17        512092.81         
3804             -5430278.38        512012.91         
3822             -5430334.88        512007.19         
4002             -5430187.88        511760.13         
4013             -5430083.38        511923.38         
4037             -5430171.88        512106.81         
4286             -5430337.88        511982.91         
4321             -5430420.38        511993.28         
4322             -5430349.38        511993.00         
4502             -5430159.88        512053.41         
3877             -5430141.28        511776.69         
10014            -5430241.93        511982.59         
10049            -5430261.96        511982.58         
10063            -5430458.22        512103.87         
N2               -5430096.82        511992.62         
Stilling         -5429842.42        512289.26         

[MAP]
DIMENSIONS -5430458.22 511633.91 -5429842.42 512289.26
Units      None

[REPORT]
SUBCATCHMENTS ALL
NODES ALL
LINKS ALL
