;; SWMM5 .inp converted from XPSWMM .xp file
;; Generated by XPSWMM Card Reader
;; Source format: XP_CARD | Original title: (none)
;; Links parsed from source: 5 | Routable in this .inp: 5

[TITLE]
;;Project Title/Notes
Converted from XPSWMM .xp file

[OPTIONS]
FLOW_UNITS           CMS
INFILTRATION         HORTON
FLOW_ROUTING         DYNWAVE
LINK_OFFSETS         DEPTH
MIN_SLOPE            0.0
ALLOW_PONDING        NO
SKIP_STEADY_STATE    NO
ROUTING_STEP         00:00:30
VARIABLE_STEP        0.75
INERTIAL_DAMPING     PARTIAL
NORMAL_FLOW_LIMITED  BOTH
MAX_TRIALS           50
HEAD_TOLERANCE       .001
START_DATE           01/01/2001
START_TIME           00:00:00
REPORT_START_DATE    01/01/2001
REPORT_START_TIME    00:00:00
END_DATE             01/02/2001
END_TIME             00:00:00
SWEEP_START          01/01
SWEEP_END            12/31
DRY_DAYS             0
REPORT_STEP          00:15:00
WET_STEP             00:05:00
DRY_STEP             01:00:00

[JUNCTIONS]
;;Name           Elev       MaxDepth   InitDepth  SurDepth   Aponded
;;-------------- ---------- ---------- ---------- ---------- ----------
Inlet1           110.00     0          0          0          0
Inlet2           110.00     0          0          0          0
Mid              110.00     0          0          0          0
Inlet3           110.00     0          0          0          0

[OUTFALLS]
;;Name           Elev       Type       Stage      Gated
;;-------------- ---------- ---------- ---------- -----
Outfal           110.00     FREE                  NO

[STORAGE]
;;Name           Elev       MaxDepth   InitDepth  Shape      Curve/Params
;;-------------- ---------- ---------- ---------- ---------- ----------
Conflu           110.00     10.00      1.00       FUNCTIONAL 100.00 0          0

[CONDUITS]
;;Name           From             To               Length     Roughness  InOffset   OutOffset  InitFlow   MaxFlow
;;-------------- ---------------- ---------------- ---------- ---------- ---------- ---------- ---------- ----------
205              Inlet1           Conflu           50.00      0.0140     100.00     99.00      0          0
MIDCON           Conflu           Mid              50.00      0.0140     99.00      98.00      0          0
207              Inlet2           Conflu           50.00      0.0140     100.00     99.00      0          0
209              Inlet3           Conflu           50.00      0.0140     100.00     99.00      0          0
ENDCON           Mid              Outfal           50.00      0.0140     98.00      97.00      0          0

[XSECTIONS]
;;Link           Shape        Geom1      Geom2      Geom3      Geom4      Barrels
;;-------------- ------------ ---------- ---------- ---------- ---------- ----------
205              CIRCULAR     3.00       0          0          0          1
MIDCON           CIRCULAR     3.00       0          0          0          1
207              CIRCULAR     3.00       0          0          0          1
209              CIRCULAR     3.00       0          0          0          1
ENDCON           CIRCULAR     3.00       0          0          0          1

[LOSSES]
;;Link           Inlet      Outlet     Average    Flap Gate
;;-------------- ---------- ---------- ---------- ----------
205              0          0          0          NO
MIDCON           0          0          0          NO
207              0          0          0          NO
209              0          0          0          NO
ENDCON           0          0          0          NO

[INFLOWS]
;;Node           Constituent  Time Series      Type     Mfactor  Sfactor  Baseline Pattern
;;-------------- ------------ ---------------- -------- -------- -------- -------- --------
;; SYNTHETIC TEST INFLOWS — the source .xp carried no constant inflows
;; and RUNF hydrology is not converted; 0.03 CMS is applied at each
;; headwater node so the network runs wet for QA. Replace with real
;; hydrology or inflow hydrographs before using results.
Inlet1           FLOW         ""               FLOW     1.0      1.0      0.03
Inlet2           FLOW         ""               FLOW     1.0      1.0      0.03
Inlet3           FLOW         ""               FLOW     1.0      1.0      0.03

[COORDINATES]
;;Node           X-Coord            Y-Coord
;;-------------- ------------------ ------------------
Inlet1           37.64              79.12             
Inlet2           37.64              119.12            
Conflu           57.64              99.12             
Mid              77.64              99.12             
Inlet3           37.64              99.12             
Outfal           97.64              99.12             

[MAP]
DIMENSIONS 37.64 79.12 97.64 119.12
Units      None

[REPORT]
SUBCATCHMENTS ALL
NODES ALL
LINKS ALL
