;; SWMM5 .inp converted from XPSWMM .xp file
;; Generated by XPSWMM Card Reader
;; Source format: XP_CARD | Original title: COAST TRUNK SEWER - Ultimate Dry Weather Flows
;; Links parsed from source: 130 | Routable in this .inp: 130

[TITLE]
;;Project Title/Notes
COAST TRUNK SEWER - Ultimate Dry Weather Flows

[OPTIONS]
FLOW_UNITS           CFS
INFILTRATION         HORTON
FLOW_ROUTING         DYNWAVE
LINK_OFFSETS         DEPTH
MIN_SLOPE            0.0
ALLOW_PONDING        NO
SKIP_STEADY_STATE    NO
ROUTING_STEP         00:00:02
VARIABLE_STEP        0.75
INERTIAL_DAMPING     PARTIAL
NORMAL_FLOW_LIMITED  BOTH
MAX_TRIALS           100
HEAD_TOLERANCE       0.0033
START_DATE           01/01/2001
START_TIME           00:00:00
REPORT_START_DATE    01/01/2001
REPORT_START_TIME    00:00:00
END_DATE             01/02/2001
END_TIME             00:00:00
SWEEP_START          01/01
SWEEP_END            12/31
DRY_DAYS             0
REPORT_STEP          00:15:00
WET_STEP             00:05:00
DRY_STEP             01:00:00

[JUNCTIONS]
;;Name           Elev       MaxDepth   InitDepth  SurDepth   Aponded
;;-------------- ---------- ---------- ---------- ---------- ----------
CND00068         2.60       0          0          0          0
CND01255         2.50       0          0          0          0
CND01400         2.50       0          0          0          0
CND01648         2.50       0          0          0          0
CND02032         2.50       0          0          0          0
CND02738         4.00       0          0          0          0
CND03719         4.50       0          0          0          0
CND04060         4.50       0          0          0          0
CND04379         2.85       0          0          0          0
CND04641         2.50       0          0          0          0
CND04896         2.75       0          0          0          0
CND05161         3.00       0          0          0          0
CND05387         4.50       0          0          0          0
CND06455         4.50       0          0          0          0
CND06580         4.50       0          0          0          0
CND06715         6.00       0          0          0          0
CND07050         6.00       0          0          0          0
CND07500         6.00       0          0          0          0
CND07913         6.50       0          0          0          0
CND08036         6.50       0          0          0          0
CND08633         6.00       0          0          0          0
CND09303         6.50       0          0          0          0
CND09364         6.00       0          0          0          0
CND10396         6.00       0          0          0          0
CND10609         16.50      0          0          0          0
CND10710         18.00      0          0          0          0
CND10987         33.50      0          0          0          0
CND11338         33.50      0          0          0          0
CND11999         35.50      0          0          0          0
CND13319         35.50      0          0          0          0
CND13625         35.25      0          0          0          0
CND13983         36.50      0          0          0          0
CND14639         38.50      0          0          0          0
CND15298         51.00      0          0          0          0
CND15634         51.00      0          0          0          0
CND15958         49.50      0          0          0          0
CND16519         48.50      0          0          0          0
CND16927         50.00      0          0          0          0
CND17100         50.00      0          0          0          0
CND17276         55.50      0          0          0          0
CND17612         65.00      0          0          0          0
CND17940         60.00      0          0          0          0
CND18574         66.00      0          0          0          0
CND18660         66.00      0          0          0          0
CND19253         66.00      0          0          0          0
CND19917         65.00      0          0          0          0
CND20212         62.50      0          0          0          0
CND20720         62.50      0          0          0          0
CND20955         65.00      0          0          0          0
CND21617         64.50      0          0          0          0
CND22252         62.50      0          0          0          0
CCL01729         10.00      0          0          0          0
CCL02203         8.00       0          0          0          0
CCL02532         8.50       0          0          0          0
CCL03220         6.00       0          0          0          0
CCL04087         9.00       0          0          0          0
CCL05174         9.00       0          0          0          0
CCL06446         9.00       0          0          0          0
CCL07606         7.00       0          0          0          0
CCL08622         7.50       0          0          0          0
CCL09401         7.50       0          0          0          0
CCL09666         8.00       0          0          0          0
CCL10079         9.00       0          0          0          0
CCL11236         7.50       0          0          0          0
CCL12323         8.00       0          0          0          0
CCL13053         13.00      0          0          0          0
CCL13777         13.50      0          0          0          0
CCL14804         13.50      0          0          0          0
CCL15604         13.50      0          0          0          0
CCL16898         26.00      0          0          0          0
CCL17186         28.00      0          0          0          0
CCL17340         28.00      0          0          0          0
CCL17417         28.00      0          0          0          0
CCU17933         29.20      0          0          0          0
CCU18253         28.80      0          0          0          0
CCU18575         27.50      0          0          0          0
CCU18888         28.00      0          0          0          0
CCU19217         28.50      0          0          0          0
CCU19529         29.10      0          0          0          0
CCU19854         31.00      0          0          0          0
CCU20177         35.10      0          0          0          0
CCU20499         36.90      0          0          0          0
CCU20844         30.00      0          0          0          0
CCU21168         30.00      0          0          0          0
CCU21347         38.80      0          0          0          0
CCU21495         28.90      0          0          0          0
CCU21819         28.70      0          0          0          0
CCU22137         28.00      0          0          0          0
CCU22451         27.60      0          0          0          0
CCU22964         27.50      0          0          0          0
CCU23788         29.50      0          0          0          0
CCU23954         30.10      0          0          0          0
CCU24280         30.80      0          0          0          0
CCU24606         31.10      0          0          0          0
CCU24925         30.50      0          0          0          0
CCU25252         31.00      0          0          0          0
CCU25499         32.40      0          0          0          0
CNI1102          8.00       0          0          0          0
CNI1148          7.90       0          0          0          0
CNI2735          7.10       0          0          0          0
CNI3334          3.00       0          0          0          0
CNI3362          2.70       0          0          0          0
CAI0875          3.70       0          0          0          0
CAI1245          14.50      0          0          0          0
CAI1355          14.80      0          0          0          0
CAI1835          3.10       0          0          0          0
CAI2041          3.10       0          0          0          0
CAI2995          18.50      0          0          0          0
CAI3477          29.10      0          0          0          0
CAI4168          33.00      0          0          0          0
CLA0315          33.80      0          0          0          0
CLA0638          36.70      0          0          0          0
CLA0817          36.80      0          0          0          0
CLA1165          37.80      0          0          0          0
CLA1515          38.80      0          0          0          0
CLA1665          40.00      0          0          0          0
CLA2215          40.60      0          0          0          0
CLA2565          40.50      0          0          0          0
CLA2915          40.00      0          0          0          0
CLA3265          39.60      0          0          0          0
CLA3615          40.00      0          0          0          0
CLA3965          41.00      0          0          0          0
CLA4278          41.60      0          0          0          0
CLA4591          40.00      0          0          0          0
CLA4960          36.00      0          0          0          0
CLA5223          37.40      0          0          0          0
CLA5408          38.70      0          0          0          0
CLA5743          39.50      0          0          0          0
CLA6093          39.60      0          0          0          0

[OUTFALLS]
;;Name           Elev       Type       Stage      Gated
;;-------------- ---------- ---------- ---------- -----
CND00253         2.50       FREE                  NO

[STORAGE]
;;Name           Elev       MaxDepth   InitDepth  Shape      Curve/Params
;;-------------- ---------- ---------- ---------- ---------- ----------
CAI2700          20.10      10.00      0          FUNCTIONAL 100.00 0          0

[CONDUITS]
;;Name           From             To               Length     Roughness  InOffset   OutOffset  InitFlow   MaxFlow
;;-------------- ---------------- ---------------- ---------- ---------- ---------- ---------- ---------- ----------
201              CND00068         CNI3362          41.00      0.0130     0          0          0          0
202              CCL01729         CND00068         185.10     0.0130     0          0          0          0
203              CND01255         CND00253         1001.90    0.0130     0          0          0          0
204              CND01400         CND01255         145.00     0.0130     0          0          0          0
205              CND01648         CND01400         248.90     0.0130     0          0          0          0
206              CND02032         CND01648         383.10     0.0130     0          0          0          0
207              CND02738         CND02032         706.90     0.0130     0          0          0          0
208              CND03719         CND02738         980.10     0.0134     0          0          0          0
209              CND04060         CND03719         341.60     0.0130     0          0          0          0
210              CND04379         CND04060         318.40     0.0142     0          0          0          0
211              CND04641         CND04379         262.00     0.0130     0          0          0          0
212              CND04896         CND04641         255.00     0.0130     0          0          0          0
213              CND05161         CND04896         265.00     0.0130     0          0          0          0
214              CND05387         CND05161         226.00     0.0130     0          0          0          0
215              CND06455         CND05387         1068.00    0.0130     0          0          0          0
216              CND06580         CND06455         125.00     0.0130     0          0          0          0
217              CND06715         CND06580         135.00     0.0130     0          0          0          0
218              CND07050         CND06715         335.00     0.0130     0          0          0          0
219              CND07500         CND07050         450.00     0.0130     0          0          0          0
220              CND07913         CND07500         414.00     0.0130     0          0          0          0
221              CND08036         CND07913         122.10     0.0130     0          0          0          0
222              CND08633         CND08036         597.60     0.0130     0          0          0          0
223              CND09303         CND08633         669.80     0.0130     0          0          0          0
224              CND09364         CND09303         60.50      0.0130     0          0          0          0
225              CND10396         CND09364         1032.40    0.0133     1.75       0          0          0
226              CND10609         CND10396         213.00     0.0130     2.25       1.75       0          0
227              CND10710         CND10609         101.40     0.0130     8.16       3.56       0          0
228              CND10987         CND10710         276.40     0.0130     20.50      8.16       0          0
229              CND11338         CND10987         350.90     0.0130     21.81      20.50      0          0
230              CND11999         CND11338         661.70     0.0130     23.54      21.81      0          0
231              CND13319         CND11999         1319.30    0.0132     26.70      23.54      0          0
232              CND13625         CND13319         306.00     0.0130     27.70      26.70      0          0
233              CND13983         CND13625         358.00     0.0130     28.00      27.70      0          0
234              CND14639         CND13983         656.00     0.0130     36.00      28.30      0          0
235              CND15298         CND14639         659.00     0.0130     37.58      36.00      0          0
236              CND15634         CND15298         336.00     0.0130     38.30      37.58      0          0
237              CND15958         CND15634         324.00     0.0130     39.17      38.30      0          0
238              CND16519         CND15958         561.50     0.0130     40.51      39.17      0          0
239              CND16927         CND16519         408.40     0.0130     41.49      40.51      0          0
240              CND17100         CND16927         172.10     0.0130     41.90      41.49      0          0
241              CND17276         CND17100         176.20     0.0130     42.34      41.90      0          0
242              CND17612         CND17276         335.80     0.0136     44.16      42.60      0          0
243              CND17940         CND17612         328.00     0.0130     45.66      44.16      0          0
244              CND18574         CND17940         634.00     0.0130     48.56      45.66      0          0
245              CND18660         CND18574         120.00     0.0130     50.00      48.56      0          0
246              CND19253         CND18660         593.70     0.0130     50.06      50.00      0          0
247              CND19917         CND19253         664.10     0.0130     51.54      50.06      0          0
248              CND20212         CND19917         295.00     0.0139     52.90      51.54      0          0
249              CND20720         CND20212         507.20     0.0130     53.40      52.90      0          0
250              CND20955         CND20720         235.00     0.0130     53.82      53.40      0          0
251              CND21617         CND20955         662.00     0.0134     55.28      53.82      0          0
252              CND22252         CND21617         635.50     0.0130     56.66      55.28      0          0
254              CCL02203         CCL01729         474.00     0.0130     0          0          0          0
255              CCL02532         CCL02203         328.80     0.0130     0          0          0          0
256              CCL03220         CCL02532         687.80     0.0130     0          0          0          0
257              CCL04087         CCL03220         867.20     0.0130     0          0          0          0
258              CCL05174         CCL04087         1087.00    0.0142     0          0          0          0
259              CCL06446         CCL05174         1272.00    0.0130     0          0          0          0
260              CCL07606         CCL06446         1160.00    0.0130     0          0          0          0
261              CCL08622         CCL07606         1016.00    0.0130     0          0          0          0
262              CCL09401         CCL08622         779.10     0.0130     0          0          0          0
263              CCL09666         CCL09401         265.30     0.0210     0          0          0          0
264              CCL10079         CCL09666         412.40     0.0130     0          0          0          0
265              CCL11236         CCL10079         1157.20    0.0130     0          0          0          0
266              CCL12323         CCL11236         1086.80    0.0130     0          0          0          0
267              CCL13053         CCL12323         730.00     0.0130     0          0          0          0
268              CCL13777         CCL13053         724.50     0.0130     0          0          0          0
269              CCL14804         CCL13777         1026.70    0.0130     0          0          0          0
270              CCL15604         CCL14804         800.50     0.0130     0          0          0          0
271              CCL16898         CCL15604         1293.30    0.0130     0          0          0          0
272              CCL17186         CCL16898         288.80     0.0130     0          0          0          0
273              CCL17340         CCL17186         153.20     0.0130     0          0          0          0
274              CCL17417         CCL17340         77.90      0.0130     0.08       0          0          0
275              CCU17933         CCL17417         515.20     0.0130     0.66       0.08       0          0
276              CCU18253         CCU17933         320.50     0.0130     1.18       0.66       0          0
277              CCU18575         CCU18253         321.80     0.0130     1.72       1.18       0          0
278              CCU18888         CCU18575         313.20     0.0130     2.22       1.72       0          0
279              CCU19217         CCU18888         329.00     0.0130     2.75       2.22       0          0
280              CCU19529         CCU19217         312.00     0.0130     3.21       2.75       0          0
281              CCU19854         CCU19529         324.50     0.0130     3.80       3.21       0          0
282              CCU20177         CCU19854         323.00     0.0130     4.24       3.81       0          0
283              CCU20499         CCU20177         322.00     0.0130     4.67       4.24       0          0
284              CCU20844         CCU20499         345.00     0.0130     5.12       4.67       0          0
285              CCU21168         CCU20844         324.00     0.0130     5.55       5.12       0          0
286              CCU21347         CCU21168         179.00     0.0130     5.78       5.55       0          0
287              CCU21495         CCU21347         148.00     0.0130     5.97       5.78       0          0
288              CCU21819         CCU21495         324.50     0.0130     6.40       5.97       0          0
289              CCU22137         CCU21819         318.00     0.0130     6.76       6.40       0          0
290              CCU22451         CCU22137         313.50     0.0130     7.10       6.76       0          0
291              CCU22964         CCU22451         513.50     0.0130     7.66       7.10       0          0
292              CCU23788         CCU22964         823.50     0.0139     8.65       7.76       0          0
293              CCU23954         CCU23788         166.00     0.0170     8.92       8.75       0          0
294              CCU24280         CCU23954         326.00     0.0130     9.25       8.92       0          0
295              CCU24606         CCU24280         326.00     0.0130     9.58       9.25       0          0
296              CCU24925         CCU24606         319.50     0.0130     9.91       9.58       0          0
297              CCU25252         CCU24925         327.00     0.0130     10.24      9.91       0          0
298              CCU25499         CCU25252         247.40     0.0130     10.50      10.24      0          0
299              CNI1102          CCL10079         111.90     0.0130     0          0          0          0
300              CNI1148          CNI1102          46.00      0.0130     0          0          0          0
301              CNI2735          CNI1148          1586.20    0.0134     0          0          0          0
302              CNI3334          CNI2735          599.00     0.0130     0          0          0          0
303              CNI3362          CNI3334          28.00      0.0130     0          0          0          0
304              CAI0875          CND04060         868.40     0.0130     0          0          0          0
305              CAI1245          CAI0875          370.00     0.0130     0          0          0          0
306              CAI1355          CAI1245          110.00     0.0130     0          0          0          0
307              CAI1835          CAI1355          480.20     0.0130     0          0          0          0
308              CAI2041          CAI1835          206.50     0.0130     0          0          0          0
309              CAI2700          CAI2041          658.40     0.0130     0          0          0          0
310              CAI2995          CAI2700          295.00     0.0130     9.13       0          0          0
311              CAI3477          CAI2995          482.00     0.0130     9.90       9.13       0          0
312              CAI4168          CAI3477          691.00     0.0130     11.01      9.90       0          0
313              CLA0817          CCL17340         315.00     0.0136     14.23      13.60      0          0
314              CLA0638          CLA0315          323.20     0.0130     14.88      14.23      0          0
315              CLA0817          CLA0638          179.00     0.0130     15.50      14.88      0          0
316              CLA1165          CLA0817          348.00     0.0130     16.20      15.50      0          0
317              CLA1515          CLA1165          350.00     0.0130     16.90      16.20      0          0
318              CLA1665          CLA1515          150.00     0.0130     17.60      16.90      0          0
319              CLA2215          CLA1665          550.00     0.0130     18.30      17.60      0          0
320              CLA2565          CLA2215          350.00     0.0130     19.00      18.30      0          0
321              CLA2915          CLA2565          350.00     0.0130     19.70      19.00      0          0
322              CLA3265          CLA2915          350.00     0.0130     20.40      19.70      0          0
323              CLA3615          CLA3265          350.00     0.0130     21.10      20.40      0          0
324              CLA3965          CLA3615          350.00     0.0130     21.80      21.10      0          0
325              CLA4278          CLA3965          313.00     0.0130     22.43      21.80      0          0
326              CLA4591          CLA4278          313.00     0.0130     23.05      22.43      0          0
327              CLA4960          CLA4591          368.80     0.0130     23.79      23.05      0          0
328              CLA5223          CLA4960          263.50     0.0130     24.32      23.79      0          0
329              CLA5408          CLA5223          185.50     0.0130     24.69      24.32      0          0
330              CLA5743          CLA5408          335.00     0.0130     25.36      24.69      0          0
331              CLA6093          CLA5743          349.20     0.0130     26.06      25.36      0          0

[XSECTIONS]
;;Link           Shape        Geom1      Geom2      Geom3      Geom4      Barrels
;;-------------- ------------ ---------- ---------- ---------- ---------- ----------
201              CIRCULAR     3.00       0          0          0          1
202              CIRCULAR     3.00       0          0          0          1
203              CIRCULAR     3.00       0          0          0          1
204              CIRCULAR     2.75       0          0          0          1
205              CIRCULAR     3.00       0          0          0          1
206              CIRCULAR     3.00       0          0          0          1
207              CIRCULAR     2.75       0          0          0          1
208              CIRCULAR     2.75       0          0          0          1
209              CIRCULAR     2.75       0          0          0          1
210              CIRCULAR     2.75       0          0          0          1
211              CIRCULAR     2.75       0          0          0          1
212              CIRCULAR     2.75       0          0          0          1
213              CIRCULAR     2.75       0          0          0          1
214              CIRCULAR     2.75       0          0          0          1
215              CIRCULAR     2.75       0          0          0          1
216              CIRCULAR     2.75       0          0          0          1
217              CIRCULAR     2.75       0          0          0          1
218              CIRCULAR     2.50       0          0          0          1
219              CIRCULAR     2.50       0          0          0          1
220              CIRCULAR     2.50       0          0          0          1
221              CIRCULAR     2.50       0          0          0          1
222              CIRCULAR     2.50       0          0          0          1
223              CIRCULAR     2.50       0          0          0          1
224              CIRCULAR     2.50       0          0          0          1
225              CIRCULAR     2.00       0          0          0          1
226              CIRCULAR     2.00       0          0          0          1
227              CIRCULAR     1.25       0          0          0          1
228              CIRCULAR     1.25       0          0          0          1
229              CIRCULAR     2.00       0          0          0          1
230              CIRCULAR     2.00       0          0          0          1
231              CIRCULAR     2.00       0          0          0          1
232              CIRCULAR     2.00       0          0          0          1
233              CIRCULAR     2.00       0          0          0          1
234              CIRCULAR     1.50       0          0          0          1
235              CIRCULAR     2.00       0          0          0          1
236              CIRCULAR     2.00       0          0          0          1
237              CIRCULAR     2.00       0          0          0          1
238              CIRCULAR     2.00       0          0          0          1
239              CIRCULAR     2.00       0          0          0          1
240              CIRCULAR     2.00       0          0          0          1
241              CIRCULAR     2.00       0          0          0          1
242              CIRCULAR     1.75       0          0          0          1
243              CIRCULAR     1.75       0          0          0          1
244              CIRCULAR     1.75       0          0          0          1
245              CIRCULAR     2.00       0          0          0          1
246              CIRCULAR     2.00       0          0          0          1
247              CIRCULAR     2.00       0          0          0          1
248              CIRCULAR     2.00       0          0          0          1
249              CIRCULAR     2.00       0          0          0          1
250              CIRCULAR     2.00       0          0          0          1
251              CIRCULAR     2.00       0          0          0          1
252              CIRCULAR     2.00       0          0          0          1
254              CIRCULAR     7.00       0          0          0          1
255              CIRCULAR     7.00       0          0          0          1
256              CIRCULAR     7.00       0          0          0          1
257              CIRCULAR     7.00       0          0          0          1
258              CIRCULAR     7.00       0          0          0          1
259              CIRCULAR     7.00       0          0          0          1
260              CIRCULAR     7.00       0          0          0          1
261              CIRCULAR     7.00       0          0          0          1
262              CIRCULAR     7.00       0          0          0          1
263              CIRCULAR     7.00       0          0          0          1
264              CIRCULAR     7.00       0          0          0          1
265              CIRCULAR     4.50       0          0          0          1
266              CIRCULAR     4.50       0          0          0          1
267              CIRCULAR     4.50       0          0          0          1
268              CIRCULAR     4.50       0          0          0          1
269              CIRCULAR     4.50       0          0          0          1
270              CIRCULAR     4.50       0          0          0          1
271              CIRCULAR     4.50       0          0          0          1
272              CIRCULAR     6.00       0          0          0          1
273              CIRCULAR     4.50       0          0          0          1
274              CIRCULAR     4.50       0          0          0          1
275              CIRCULAR     4.50       0          0          0          1
276              CIRCULAR     4.50       0          0          0          1
277              CIRCULAR     4.50       0          0          0          1
278              CIRCULAR     4.50       0          0          0          1
279              CIRCULAR     4.50       0          0          0          1
280              CIRCULAR     4.50       0          0          0          1
281              CIRCULAR     4.50       0          0          0          1
282              CIRCULAR     4.50       0          0          0          1
283              CIRCULAR     4.50       0          0          0          1
284              CIRCULAR     4.50       0          0          0          1
285              CIRCULAR     4.50       0          0          0          1
286              CIRCULAR     4.50       0          0          0          1
287              CIRCULAR     4.50       0          0          0          1
288              CIRCULAR     4.50       0          0          0          1
289              CIRCULAR     4.50       0          0          0          1
290              CIRCULAR     4.50       0          0          0          1
291              CIRCULAR     4.50       0          0          0          1
292              CIRCULAR     4.50       0          0          0          1
293              CIRCULAR     4.50       0          0          0          1
294              CIRCULAR     4.50       0          0          0          1
295              CIRCULAR     4.50       0          0          0          1
296              CIRCULAR     4.50       0          0          0          1
297              CIRCULAR     4.50       0          0          0          1
298              CIRCULAR     4.50       0          0          0          1
299              CIRCULAR     4.00       0          0          0          1
300              CIRCULAR     4.00       0          0          0          1
301              CIRCULAR     4.00       0          0          0          1
302              CIRCULAR     4.00       0          0          0          1
303              CIRCULAR     4.00       0          0          0          1
304              CIRCULAR     1.50       0          0          0          1
305              CIRCULAR     1.50       0          0          0          1
306              CIRCULAR     1.50       0          0          0          1
307              CIRCULAR     1.50       0          0          0          1
308              CIRCULAR     1.50       0          0          0          1
309              CIRCULAR     1.50       0          0          0          1
310              CIRCULAR     1.50       0          0          0          1
311              CIRCULAR     1.50       0          0          0          1
312              CIRCULAR     1.50       0          0          0          1
313              CIRCULAR     1.50       0          0          0          1
314              CIRCULAR     1.50       0          0          0          1
315              CIRCULAR     1.50       0          0          0          1
316              CIRCULAR     1.25       0          0          0          1
317              CIRCULAR     1.25       0          0          0          1
318              CIRCULAR     1.25       0          0          0          1
319              CIRCULAR     1.25       0          0          0          1
320              CIRCULAR     1.25       0          0          0          1
321              CIRCULAR     1.25       0          0          0          1
322              CIRCULAR     1.25       0          0          0          1
323              CIRCULAR     1.25       0          0          0          1
324              CIRCULAR     1.25       0          0          0          1
325              CIRCULAR     1.25       0          0          0          1
326              CIRCULAR     1.25       0          0          0          1
327              CIRCULAR     1.25       0          0          0          1
328              CIRCULAR     1.25       0          0          0          1
329              CIRCULAR     1.25       0          0          0          1
330              CIRCULAR     1.25       0          0          0          1
331              CIRCULAR     1.25       0          0          0          1

[LOSSES]
;;Link           Inlet      Outlet     Average    Flap Gate
;;-------------- ---------- ---------- ---------- ----------
201              0          0          0          NO
202              0          0          0          NO
203              0          0          0          NO
204              0          0          0          NO
205              0          0          0          NO
206              0          0          0          NO
207              0          0          0          NO
208              0          0          0          NO
209              0          0          0          NO
210              0          0          0          NO
211              0          0          0          NO
212              0          0          0          NO
213              0          0          0          NO
214              0          0          0          NO
215              0          0          0          NO
216              0          0          0          NO
217              0          0          0          NO
218              0          0          0          NO
219              0          0          0          NO
220              0          0          0          NO
221              0          0          0          NO
222              0          0          0          NO
223              0          0          0          NO
224              0          0          0          NO
225              0          0          0          NO
226              0          0          0          NO
227              0          0          0          NO
228              0          0          0          NO
229              0          0          0          NO
230              0          0          0          NO
231              0          0          0          NO
232              0          0          0          NO
233              0          0          0          NO
234              0          0          0          NO
235              0          0          0          NO
236              0          0          0          NO
237              0          0          0          NO
238              0          0          0          NO
239              0          0          0          NO
240              0          0          0          NO
241              0          0          0          NO
242              0          0          0          NO
243              0          0          0          NO
244              0          0          0          NO
245              0          0          0          NO
246              0          0          0          NO
247              0          0          0          NO
248              0          0          0          NO
249              0          0          0          NO
250              0          0          0          NO
251              0          0          0          NO
252              0          0          0          NO
254              0          0          0          NO
255              0          0          0          NO
256              0          0          0          NO
257              0          0          0          NO
258              0          0          0          NO
259              0          0          0          NO
260              0          0          0          NO
261              0          0          0          NO
262              0          0          0          NO
263              0          0          0          NO
264              0          0          0          NO
265              0          0          0          NO
266              0          0          0          NO
267              0          0          0          NO
268              0          0          0          NO
269              0          0          0          NO
270              0          0          0          NO
271              0          0          0          NO
272              0          0          0          NO
273              0          0          0          NO
274              0          0          0          NO
275              0          0          0          NO
276              0          0          0          NO
277              0          0          0          NO
278              0          0          0          NO
279              0          0          0          NO
280              0          0          0          NO
281              0          0          0          NO
282              0          0          0          NO
283              0          0          0          NO
284              0          0          0          NO
285              0          0          0          NO
286              0          0          0          NO
287              0          0          0          NO
288              0          0          0          NO
289              0          0          0          NO
290              0          0          0          NO
291              0          0          0          NO
292              0          0          0          NO
293              0          0          0          NO
294              0          0          0          NO
295              0          0          0          NO
296              0          0          0          NO
297              0          0          0          NO
298              0          0          0          NO
299              0          0          0          NO
300              0          0          0          NO
301              0          0          0          NO
302              0          0          0          NO
303              0          0          0          NO
304              0          0          0          NO
305              0          0          0          NO
306              0          0          0          NO
307              0          0          0          NO
308              0          0          0          NO
309              0          0          0          NO
310              0          0          0          NO
311              0          0          0          NO
312              0          0          0          NO
313              0          0          0          NO
314              0          0          0          NO
315              0          0          0          NO
316              0          0          0          NO
317              0          0          0          NO
318              0          0          0          NO
319              0          0          0          NO
320              0          0          0          NO
321              0          0          0          NO
322              0          0          0          NO
323              0          0          0          NO
324              0          0          0          NO
325              0          0          0          NO
326              0          0          0          NO
327              0          0          0          NO
328              0          0          0          NO
329              0          0          0          NO
330              0          0          0          NO
331              0          0          0          NO

[INFLOWS]
;;Node           Constituent  Time Series      Type     Mfactor  Sfactor  Baseline Pattern
;;-------------- ------------ ---------------- -------- -------- -------- -------- --------
;; SYNTHETIC TEST INFLOWS — the source .xp carried no constant inflows
;; and RUNF hydrology is not converted; 1.00 CFS is applied at each
;; headwater node so the network runs wet for QA. Replace with real
;; hydrology or inflow hydrographs before using results.
CND22252         FLOW         ""               FLOW     1.0      1.0      1.00
CCU25499         FLOW         ""               FLOW     1.0      1.0      1.00
CAI4168          FLOW         ""               FLOW     1.0      1.0      1.00
CLA6093          FLOW         ""               FLOW     1.0      1.0      1.00

[COORDINATES]
;;Node           X-Coord            Y-Coord
;;-------------- ------------------ ------------------
CND00068         -2184743.46        6035514.79        
CND00253         -2185048.92        6035527.39        
CND01255         -2185354.38        6035540.00        
CND01400         -2185659.84        6035552.60        
CND01648         -2185965.30        6035565.21        
CND02032         -2186362.05        6035551.29        
CND02738         -2186758.80        6035537.36        
CND03719         -2186758.80        6034916.64        
CND04060         -2187073.14        6034295.93        
CND04379         -2187387.47        6034295.93        
CND04641         -2187701.80        6034295.93        
CND04896         -2188016.14        6034295.93        
CND05161         -2188330.47        6034295.93        
CND05387         -2188644.80        6034295.93        
CND06455         -2188959.13        6034295.93        
CND06580         -2189273.47        6034295.93        
CND06715         -2189587.80        6034295.93        
CND07050         -2189960.53        6034295.93        
CND07500         -2190333.27        6034295.93        
CND07913         -2190706.00        6034295.93        
CND08036         -2191078.73        6034295.93        
CND08633         -2191451.47        6034295.93        
CND09303         -2191824.20        6034295.93        
CND09364         -2192196.94        6034296.13        
CND10396         -2192196.94        6033960.35        
CND10609         -2192196.94        6033624.57        
CND10710         -2192196.94        6033288.79        
CND10987         -2192196.94        6032715.30        
CND11338         -2192196.94        6032141.81        
CND11999         -2192196.94        6031568.32        
CND13319         -2192731.32        6031568.32        
CND13625         -2193265.70        6031568.32        
CND13983         -2194334.47        6031568.32        
CND14639         -2194868.85        6031568.32        
CND15298         -2195223.33        6031568.32        
CND15634         -2195577.81        6031568.32        
CND15958         -2195932.29        6031568.32        
CND16519         -2196286.77        6031568.32        
CND16927         -2196641.25        6031568.32        
CND17100         -2196995.72        6031568.32        
CND17276         -2197350.20        6031568.32        
CND17612         -2197350.20        6031136.54        
CND17940         -2197350.20        6030704.75        
CND18574         -2197350.20        6030272.96        
CND18660         -2197350.20        6029813.96        
CND19253         -2197350.20        6029354.96        
CND19917         -2197350.20        6028895.96        
CND20212         -2197709.89        6028895.96        
CND20720         -2198069.57        6028895.96        
CND20955         -2198429.25        6028895.96        
CND21617         -2198429.25        6028294.42        
CND22252         -2198429.25        6027692.88        
CCL01729         -2180182.09        6042264.91        
CCL02203         -2179951.09        6041644.91        
CCL02532         -2179720.09        6041024.91        
CCL03220         -2179254.09        6040631.91        
CCL04087         -2178788.09        6040238.91        
CCL05174         -2179260.41        6039503.29        
CCL06446         -2179732.73        6038767.66        
CCL07606         -2180205.05        6038032.04        
CCL08622         -2180677.36        6037296.41        
CCL09401         -2181149.68        6036560.79        
CCL09666         -2181622.00        6035825.16        
CCL10079         -2182094.32        6035089.54        
CCL11236         -2182679.60        6034309.36        
CCL12323         -2183264.88        6033529.19        
CCL13053         -2183850.16        6032749.02        
CCL13777         -2184197.68        6032279.04        
CCL14804         -2184545.20        6031809.06        
CCL15604         -2184892.72        6031339.08        
CCL16898         -2185240.24        6030869.09        
CCL17186         -2185587.76        6030399.11        
CCL17340         -2185935.28        6029929.13        
CCL17417         -2186282.80        6029459.15        
CCU17933         -2186648.86        6029227.23        
CCU18253         -2187014.93        6028995.32        
CCU18575         -2187380.99        6028763.40        
CCU18888         -2187587.31        6028536.55        
CCU19217         -2187793.64        6028309.70        
CCU19529         -2187999.96        6028082.85        
CCU19854         -2188206.28        6027856.01        
CCU20177         -2188356.12        6027686.13        
CCU20499         -2188505.95        6027516.24        
CCU20844         -2188655.79        6027346.36        
CCU21168         -2188805.62        6027176.48        
CCU21347         -2188955.45        6027006.60        
CCU21495         -2189105.29        6026836.72        
CCU21819         -2189255.12        6026666.83        
CCU22137         -2189584.57        6026297.37        
CCU22451         -2189914.02        6025927.90        
CCU22964         -2190243.47        6025558.43        
CCU23788         -2191063.23        6026103.50        
CCU23954         -2191209.20        6025949.82        
CCU24280         -2191355.18        6025796.13        
CCU24606         -2191501.15        6025642.44        
CCU24925         -2191647.13        6025488.75        
CCU25252         -2191793.10        6025335.06        
CCU25499         -2191939.08        6025181.38        
CNI1102          -2182206.20        6035089.54        
CNI1148          -2182206.20        6035043.54        
CNI2735          -2183846.66        6035491.87        
CNI3334          -2184142.33        6035497.02        
CNI3362          -2184438.00        6035502.18        
CAI0875          -2186935.09        6033738.42        
CAI1245          -2186797.05        6033180.91        
CAI1355          -2186797.05        6032917.43        
CAI1835          -2186797.05        6032653.95        
CAI2041          -2186797.05        6032390.47        
CAI2700          -2186797.05        6031863.51        
CAI2995          -2186797.05        6031600.03        
CAI3477          -2186797.05        6030805.23        
CAI4168          -2186781.87        6030199.14        
CLA0315          -2186222.41        6029956.08        
CLA0638          -2186509.73        6029983.25        
CLA0817          -2186812.22        6029997.84        
CLA1165          -2187134.42        6030010.42        
CLA1515          -2187471.79        6030010.42        
CLA1665          -2187809.16        6030010.42        
CLA2215          -2188146.53        6030010.42        
CLA2565          -2188483.91        6030010.42        
CLA2915          -2188821.28        6030010.42        
CLA3265          -2189158.65        6030010.42        
CLA3615          -2189496.02        6030010.42        
CLA3965          -2189833.39        6030010.42        
CLA4278          -2190170.77        6030010.42        
CLA4591          -2190508.14        6030010.42        
CLA4960          -2190845.51        6030010.42        
CLA5223          -2191182.88        6030010.42        
CLA5408          -2191520.26        6030010.42        
CLA5743          -2191857.63        6030010.42        
CLA6093          -2192195.00        6030010.42        

[MAP]
DIMENSIONS -2198429.25 6025181.38 -2178788.09 6042264.91
Units      None

[REPORT]
SUBCATCHMENTS ALL
NODES ALL
LINKS ALL
