;; SWMM5 .inp converted from XPSWMM .xp file
;; Generated by XPSWMM Card Reader
;; Source format: XP_CARD | Original title: (none)
;; Links parsed from source: 102 | Routable in this .inp: 102

[TITLE]
;;Project Title/Notes
Converted from XPSWMM .xp file

[OPTIONS]
FLOW_UNITS           CMS
INFILTRATION         HORTON
FLOW_ROUTING         DYNWAVE
LINK_OFFSETS         DEPTH
MIN_SLOPE            0.0
ALLOW_PONDING        NO
SKIP_STEADY_STATE    NO
ROUTING_STEP         00:02:00
VARIABLE_STEP        0.75
INERTIAL_DAMPING     PARTIAL
NORMAL_FLOW_LIMITED  BOTH
MAX_TRIALS           50
HEAD_TOLERANCE       .001
START_DATE           01/01/2001
START_TIME           00:00:00
REPORT_START_DATE    01/01/2001
REPORT_START_TIME    00:00:00
END_DATE             01/02/2001
END_TIME             00:00:00
SWEEP_START          01/01
SWEEP_END            12/31
DRY_DAYS             0
REPORT_STEP          00:15:00
WET_STEP             00:05:00
DRY_STEP             01:00:00

[JUNCTIONS]
;;Name           Elev       MaxDepth   InitDepth  SurDepth   Aponded
;;-------------- ---------- ---------- ---------- ---------- ----------
pond             50.00      0          0          0          0
ne1              45.50      0          0          0          0
pond_2           45.50      0          0          0          0
ne2              43.20      0          0          0          0
pond_3           43.70      0          0          0          0
ne3              42.70      0          0          0          0
pond_4           43.20      0          0          0          0
nb1              41.50      0          0          0          0
pond_5           41.70      0          0          0          0
nb2              41.50      0          0          0          0
pond_6           41.50      0          0          0          0
n                40.00      0          0          0          0
n_2              38.70      0          0          0          0
n_3              38.50      0          0          0          0
n_4              38.50      0          0          0          0
n_5              39.00      0          0          0          0
n_6              39.00      0          0          0          0
n_7              37.50      0          0          0          0
pond_7           47.50      0          0          0          0
pond_8           45.50      0          0          0          0
nd1              42.70      0          0          0          0
pond_9           47.00      0          0          0          0
pond_10          45.00      0          0          0          0
pond_11          43.50      0          0          0          0
pond_12          43.00      0          0          0          0
nf1              42.50      0          0          0          0
n_8              43.50      0          0          0          0
pond_13          45.00      0          0          0          0
n_9              41.00      0          0          0          0
pond_14          40.50      0          0          0          0
pond_15          39.50      0          0          0          0
pond_16          37.50      0          0          0          0
n_10             37.50      0          0          0          0
nh1              39.60      0          0          0          0
pond_17          44.50      0          0          0          0
pond_18          43.50      0          0          0          0
n_11             42.00      0          0          0          0
n_12             42.00      0          0          0          0
n_13             41.00      0          0          0          0
npa4             40.70      0          0          0          0
n_14             40.50      0          0          0          0
n_15             40.30      0          0          0          0
npa7             39.50      0          0          0          0
n_16             39.50      0          0          0          0
n_17             39.50      0          0          0          0
n_18             39.50      0          0          0          0
pond_19          39.50      0          0          0          0
n_19             41.00      0          0          0          0
n_20             40.30      0          0          0          0
n_21             39.60      0          0          0          0
n_22             39.50      0          0          0          0
n_23             44.00      0          0          0          0
n_24             43.60      0          0          0          0
n_25             41.50      0          0          0          0
n_26             39.50      0          0          0          0
pond_20          39.50      0          0          0          0
n_27             41.20      0          0          0          0
n_28             44.50      0          0          0          0
n_29             43.76      0          0          0          0
n_30             42.40      0          0          0          0
n_31             40.40      0          0          0          0
n_32             39.50      0          0          0          0
n_33             43.40      0          0          0          0
n_34             44.25      0          0          0          0
n_35             42.88      0          0          0          0
n_36             42.30      0          0          0          0
n_37             42.85      0          0          0          0
n_38             42.40      0          0          0          0
n_39             43.20      0          0          0          0
n_40             43.20      0          0          0          0
n_41             42.30      0          0          0          0
n_42             42.60      0          0          0          0
n_43             42.20      0          0          0          0
n_44             41.50      0          0          0          0
n_45             39.62      0          0          0          0
n_46             42.10      0          0          0          0
n_47             40.30      0          0          0          0
n_48             42.00      0          0          0          0
chan_IIa-        38.95      0          0          0          0
chan_IId12       44.30      0          0          0          0
chanIIf12        43.20      0          0          0          0
chanIIf23        41.40      0          0          0          0
chanIIf34        40.60      0          0          0          0
chanIIg          40.20      0          0          0          0
chanIV           39.00      0          0          0          0
chanIIc          42.30      0          0          0          0
CHMEchan_1       35.35      0          0          0          0
pump(sml)        34.85      0          0          0          0
chan_p13         37.10      0          0          0          0
chan_u18         37.62      0          0          0          0

[OUTFALLS]
;;Name           Elev       Type       Stage      Gated
;;-------------- ---------- ---------- ---------- -----
outfall          37.00      FREE                  NO

[CONDUITS]
;;Name           From             To               Length     Roughness  InOffset   OutOffset  InitFlow   MaxFlow
;;-------------- ---------------- ---------------- ---------- ---------- ---------- ---------- ---------- ----------
e1               pond             ne1              900.00     0.0140     46.50      43.60      0          0
e2               ne1              pond             200.00     0.0140     43.60      43.25      0          0
e3               pond             ne2              500.00     0.0140     43.25      42.50      0          0
e4               ne2              pond             240.00     0.0140     42.50      42.00      0          0
e5               pond             ne3              180.00     0.0140     42.00      41.60      0          0
e6               ne3              pond             400.00     0.0140     41.60      41.00      0          0
b1               pond             nb1              180.00     0.0140     41.00      40.50      0          0
b2               nb1              pond             50.00      0.0140     40.50      39.80      0          0
b3               pond             nb2              170.00     0.0140     39.80      39.40      0          0
b4               nb2              pond             440.00     0.0140     39.40      38.95      0          0
m1               chan_IIa-        n                200.00     0.0140     38.95      38.70      0          0
m2               n                n                770.00     0.0140     38.70      37.70      0          0
m3               n                n                486.00     0.0140     37.70      37.07      0          0
m4               n                n                215.00     0.0140     37.07      36.79      0          0
m5               n                n                320.00     0.0140     36.79      36.44      0          0
m6               n                n                200.00     0.0140     36.44      36.10      0          0
m7               n                n                200.00     0.0140     36.11      35.60      0          0
d1               chan_IId12       pond             600.00     0.0140     44.30      42.50      0          0
243.1            pond             nd1              300.00     0.0140     42.50      41.50      0          0
d3               nd1              pond             100.00     0.0140     41.50      41.00      0          0
f1               chanIIf12        pond             800.00     0.0140     43.20      41.40      0          0
f2               chanIIf23        pond             300.00     0.0140     41.40      40.60      0          0
f3               chanIIf34        pond             250.00     0.0140     40.60      39.93      0          0
f5               nf1              pond             70.00      0.0140     39.30      38.95      0          0
257.1            pond             nf1              250.00     0.0140     39.93      39.30      0          0
c2               n                n                1200.00    0.0200     40.90      39.70      0          0
c3               n                n                1000.00    0.0200     39.70      38.70      0          0
c1               chanIIc          n                100.00     0.0140     42.30      42.00      0          0
chan_IIe12       pond             pond             900.00     0.0200     49.50      45.00      0          0
chan_IIe23       pond             pond             800.00     0.0200     45.00      43.20      0          0
chan_IIf4a       pond             pond             400.00     0.0200     42.50      41.00      0          0
chan_IId23       pond             pond             600.00     0.0140     45.00      42.70      0          0
chan_IIed3       pond             pond             300.00     0.0200     43.20      42.70      0          0
chan_IId3a       pond             pond             200.00     0.0200     42.70      41.00      0          0
m8               n                pond             100.00     0.0140     35.60      35.35      0          0
m10              n                outfall          40.00      0.0140     36.70      35.00      0          0
chanIIba         pond             pond             100.00     0.0140     41.20      41.00      0          0
h2               nh1              n                100.00     0.0140     38.20      36.70      0          0
pa1              pond             pond             170.00     0.0140     41.50      41.00      0          0
pa2              pond             n                240.00     0.0140     41.00      40.50      0          0
pa3              n                n                50.00      0.0140     40.50      40.40      0          0
pa4              n                n                300.00     0.0140     40.40      39.70      0          0
pa5              n                npa4             100.00     0.0140     39.70      39.50      0          0
pa6              npa4             n                300.00     0.0140     39.50      39.04      0          0
pa7              n                n                110.00     0.0140     39.04      38.80      0          0
pa8              n                npa7             260.00     0.0140     38.80      38.32      0          0
pa9              npa7             n                90.00      0.0140     38.32      38.14      0          0
pa10             n                n                90.00      0.0200     38.14      37.96      0          0
pa11             n                n                200.00     0.0200     37.96      37.56      0          0
pa12             n                pond             170.00     0.0200     37.56      37.10      0          0
pa13             chan_p13         n                30.00      0.0140     37.10      36.70      0          0
pg1              n                n                130.00     0.0140     39.40      39.04      0          0
pb4              n                n                110.00     0.0200     38.80      38.40      0          0
pb5              n                n                85.00      0.0160     38.40      38.20      0          0
pb6              n                n                140.00     0.0160     38.20      38.00      0          0
pc1              n                n                250.00     0.0150     43.50      43.00      0          0
pc2              n                n                450.00     0.0150     43.00      41.00      0          0
pc3              n                n                50.00      0.0140     39.50      38.70      0          0
pc4              n                pond             90.00      0.0140     38.70      38.50      0          0
pc5              pond             n                75.00      0.0160     38.50      38.40      0          0
pd1              n                n                50.00      0.0140     39.70      38.70      0          0
pe1              n                n                150.00     0.0150     40.00      39.00      0          0
350.1            n                n                114.00     0.0140     38.18      37.98      0          0
352.1            n                n                188.00     0.0140     37.98      37.62      0          0
u18              chan_u18         n                123.00     0.0140     37.62      37.40      0          0
u19              n                n                133.00     0.0140     37.40      37.19      0          0
u17a             n                n                118.00     0.0140     39.38      39.14      0          0
u11              n                n                206.00     0.0140     39.90      38.88      0          0
u13              n                n                105.00     0.0140     38.88      38.68      0          0
u12              n                n                182.00     0.0140     40.87      38.88      0          0
q1               n                n                230.00     0.0140     41.00      38.81      0          0
u20              n                n                35.00      0.0140     41.66      41.36      0          0
u21a             n                n                20.00      0.0140     40.90      40.13      0          0
pb1-1            n                n                50.00      0.0150     42.70      42.00      0          0
pb1              n                n                200.00     0.0160     42.00      41.70      0          0
u21              n                n                25.00      0.0140     38.84      38.44      0          0
pb2              n                n                180.00     0.0140     41.70      41.00      0          0
u22              n                n                105.00     0.0140     39.60      38.19      0          0
u23              n                n                170.00     0.0140     38.19      37.66      0          0
pb3              n                n                90.00      0.0150     41.00      39.80      0          0
chan_x10         n                n                400.00     0.0140     43.75      41.50      0          0
x5               n                n                300.00     0.0140     42.70      41.80      0          0
x8               n                n                125.00     0.0140     42.90      42.38      0          0
x1               n                n                100.00     0.0140     42.58      42.12      0          0
x2               n                n                190.00     0.0140     42.12      41.60      0          0
x9               n                pond             450.00     0.0140     41.60      40.00      0          0
x3               n                n                50.00      0.0200     41.90      41.60      0          0
chan_pe2         n                n                123.00     0.0140     41.80      39.80      0          0
chan_u19         n                n                133.00     0.0140     39.80      39.00      0          0
chan_x11         n                n                10.00      0.0140     39.90      39.80      0          0
x4               n                n                300.00     0.0150     44.00      41.60      0          0
chan_u17         n                n                188.00     0.0140     43.26      41.80      0          0
u10              n                n                288.00     0.0140     39.58      38.88      0          0
x6               n                n                130.00     0.0140     41.80      41.50      0          0
x7               n                pond             300.00     0.0140     41.50      41.20      0          0
h1               npa7             nh1              30.00      0.0140     38.32      38.20      0          0
u15              n                n                136.00     0.0140     38.81      38.57      0          0
u14              n                n                450.00     0.0140     39.77      38.81      0          0
ph1              n                pond             130.00     0.0140     37.19      37.10      0          0

[PUMPS]
;;Name           From             To               PumpCurve  Status   Startup    Shutoff
;;-------------- ---------------- ---------------- ---------- -------- ---------- ----------
pump             chanIIg          n                PC_pump    ON       38.10      38.00     
pump_IV          chanIV           n                PC_pump_IV ON       38.10      38.00     
pump(big)        CHMEchan_1       pump(sml)        PC_pump_big_ ON       31.50      31.40     

[CURVES]
;;Name           Type       X-Value    Y-Value
;;-------------- ---------- ---------- ----------
;; Synthesized generic pump curves — replace with actual pump data
PC_pump          Pump1      0          5
PC_pump                     10         10
PC_pump_IV       Pump1      0          5
PC_pump_IV                  10         10
PC_pump_big_     Pump1      0          5
PC_pump_big_                10         10

[XSECTIONS]
;;Link           Shape        Geom1      Geom2      Geom3      Geom4      Barrels
;;-------------- ------------ ---------- ---------- ---------- ---------- ----------
e1               CIRCULAR     1.05       0.60       0          0          1
e2               RECT_CLOSED  1.00       1.50       0          0          1
e3               RECT_CLOSED  0.60       2.40       0          0          1
e4               RECT_CLOSED  0.70       3.00       0          0          1
e5               RECT_CLOSED  0.90       1.30       0          0          1
e6               TRAPEZOIDAL  1.10       2.50       1          1          1
b1               RECT_CLOSED  0.60       3.00       0          0          1
b2               RECT_CLOSED  0.70       3.00       0          0          1
b3               RECT_CLOSED  0.90       3.00       0          0          1
b4               RECT_CLOSED  1.20       3.00       0          0          1
m1               RECT_CLOSED  0.60       2.10       0          0          1
m2               TRAPEZOIDAL  1.00       2.50       1          1          1
m3               TRAPEZOIDAL  1.00       3.00       1          1          1
m4               TRAPEZOIDAL  1.00       3.00       1          1          1
m5               RECT_CLOSED  1.50       3.00       0          0          1
m6               RECT_CLOSED  1.50       3.00       0          0          1
m7               RECT_CLOSED  1.50       2.50       0          0          1
d1               RECT_CLOSED  0.60       1.20       0          0          1
243.1            RECT_CLOSED  0.90       1.80       0          0          1
d3               RECT_CLOSED  1.00       1.50       0          0          1
f1               CIRCULAR     0.90       0          0          0          1
f2               RECT_CLOSED  0.60       1.50       0          0          1
f3               RECT_CLOSED  0.60       1.50       0          0          1
f5               RECT_CLOSED  1.00       1.50       0          0          1
257.1            CIRCULAR     0.70       0.90       0          0          1
c2               TRAPEZOIDAL  1.30       1.00       1          1          1
c3               TRAPEZOIDAL  1.30       1.50       1          1          1
c1               CIRCULAR     0.60       0.90       0          0          1
chan_IIe12       TRAPEZOIDAL  0.50       10.00      1          1          1
chan_IIe23       TRAPEZOIDAL  0.50       10.00      1          1          1
chan_IIf4a       TRAPEZOIDAL  0.50       10.00      1          1          1
chan_IId23       TRAPEZOIDAL  0.50       10.00      1          1          1
chan_IIed3       TRAPEZOIDAL  0.50       10.00      1          1          1
chan_IId3a       TRAPEZOIDAL  0.50       10.00      1          1          1
m8               RECT_CLOSED  1.50       3.00       0          0          1
m10              TRAPEZOIDAL  0.50       10.00      1          1          1
chanIIba         TRAPEZOIDAL  0.50       20.00      1          1          1
h2               TRAPEZOIDAL  0.50       3.00       1          1          1
pa1              CIRCULAR     0.38       0          0          0          1
pa2              CIRCULAR     0.38       0          0          0          1
pa3              TRAPEZOIDAL  0.90       2.00       1          1          1
pa4              TRAPEZOIDAL  0.90       2.00       1          1          1
pa5              RECT_CLOSED  0.90       3.20       0          0          1
pa6              RECT_CLOSED  0.90       3.80       0          0          1
pa7              RECT_CLOSED  0.90       3.60       0          0          1
pa8              RECT_CLOSED  0.90       3.80       0          0          1
pa9              RECT_CLOSED  0.90       4.00       0          0          1
pa10             TRAPEZOIDAL  1.00       5.00       1          1          1
pa11             TRAPEZOIDAL  1.00       8.00       1          1          1
pa12             TRAPEZOIDAL  1.00       8.00       1          1          1
pa13             CIRCULAR     0.75       0          0          0          1
pg1              RECT_CLOSED  0.90       1.20       0          0          1
pb4              TRAPEZOIDAL  1.00       3.00       1          1          1
pb5              RECT_CLOSED  0.90       4.00       0          0          1
pb6              RECT_CLOSED  0.90       5.00       0          0          1
pc1              TRAPEZOIDAL  0.30       5.00       1          1          1
pc2              TRAPEZOIDAL  0.50       3.00       1          1          1
pc3              RECT_CLOSED  0.60       1.05       0          0          1
pc4              TRAPEZOIDAL  0.50       5.00       1          1          1
pc5              RECT_CLOSED  0.90       4.00       0          0          1
pd1              RECT_CLOSED  0.60       1.20       0          0          1
pe1              TRAPEZOIDAL  0.30       4.00       1          1          1
350.1            TRAPEZOIDAL  1.30       10.00      2          2          1
352.1            TRAPEZOIDAL  1.30       10.00      2          2          1
u18              TRAPEZOIDAL  1.50       10.00      2          2          1
u19              TRAPEZOIDAL  1.50       10.00      2          2          1
u17a             CIRCULAR     0.45       0          0          0          1
u11              CIRCULAR     0.90       0          0          0          1
u13              TRAPEZOIDAL  0.90       0.90       2          2          1
u12              TRAPEZOIDAL  0.90       0.90       2          2          1
q1               CIRCULAR     0.70       0          0          0          1
u20              CIRCULAR     0.35       0          0          0          1
u21a             CIRCULAR     0.45       0          0          0          1
pb1-1            TRAPEZOIDAL  0.50       5.00       1          1          1
pb1              TRAPEZOIDAL  0.50       2.00       1          1          1
u21              CIRCULAR     0.60       0          0          0          1
pb2              TRAPEZOIDAL  0.50       2.00       1          1          1
u22              CIRCULAR     0.60       0          0          0          1
u23              CIRCULAR     0.90       0          0          0          1
pb3              TRAPEZOIDAL  0.50       2.00       1          1          1
chan_x10         TRAPEZOIDAL  0.50       2.00       1          1          1
x5               TRAPEZOIDAL  0.50       5.00       1          1          1
x8               TRAPEZOIDAL  0.50       2.00       1          1          1
x1               TRAPEZOIDAL  0.30       3.00       1          1          1
x2               TRAPEZOIDAL  0.50       2.00       1          1          1
x9               TRAPEZOIDAL  0.50       3.00       1          1          1
x3               TRAPEZOIDAL  0.50       2.00       1          1          1
chan_pe2         TRAPEZOIDAL  0.50       3.00       1          1          1
chan_u19         TRAPEZOIDAL  0.50       5.00       1          1          1
chan_x11         TRAPEZOIDAL  0.50       10.00      1          1          1
x4               TRAPEZOIDAL  0.50       5.00       1          1          1
chan_u17         TRAPEZOIDAL  0.50       5.00       1          1          1
u10              CIRCULAR     0.90       0          0          0          1
x6               TRAPEZOIDAL  0.50       3.00       1          1          1
x7               TRAPEZOIDAL  0.50       3.00       1          1          1
h1               CIRCULAR     0.75       0          0          0          1
u15              TRAPEZOIDAL  1.00       1.10       2          2          1
u14              TRAPEZOIDAL  0.90       0.90       2          2          1
ph1              TRAPEZOIDAL  1.00       10.00      1          1          1

[LOSSES]
;;Link           Inlet      Outlet     Average    Flap Gate
;;-------------- ---------- ---------- ---------- ----------
e1               0          0          0          NO
e2               0          0          0          NO
e3               0          0          0          NO
e4               0          0          0          NO
e5               0          0          0          NO
e6               0          0          0          NO
b1               0          0          0          NO
b2               0          0          0          NO
b3               0          0          0          NO
b4               0          0          0          NO
m1               0          0          0          NO
m2               0          0          0          NO
m3               0          0          0          NO
m4               0          0          0          NO
m5               0          0          0          NO
m6               0          0          0          NO
m7               0          0          0          NO
d1               0          0          0          NO
243.1            0          0          0          NO
d3               0          0          0          NO
f1               0          0          0          NO
f2               0          0          0          NO
f3               0          0          0          NO
f5               0          0          0          NO
257.1            0          0          0          NO
c2               0          0          0          NO
c3               0          0          0          NO
c1               0          0          0          NO
chan_IIe12       0          0          0          NO
chan_IIe23       0          0          0          NO
chan_IIf4a       0          0          0          NO
chan_IId23       0          0          0          NO
chan_IIed3       0          0          0          NO
chan_IId3a       0          0          0          NO
m8               0          0          0          NO
m10              0          0          0          NO
chanIIba         0          0          0          NO
h2               0          0          0          NO
pa1              0          0          0          NO
pa2              0          0          0          NO
pa3              0          0          0          NO
pa4              0          0          0          NO
pa5              0          0          0          NO
pa6              0          0          0          NO
pa7              0          0          0          NO
pa8              0          0          0          NO
pa9              0          0          0          NO
pa10             0          0          0          NO
pa11             0          0          0          NO
pa12             0          0          0          NO
pa13             0          0          0          NO
pg1              0          0          0          NO
pb4              0          0          0          NO
pb5              0          0          0          NO
pb6              0          0          0          NO
pc1              0          0          0          NO
pc2              0          0          0          NO
pc3              0          0          0          NO
pc4              0          0          0          NO
pc5              0          0          0          NO
pd1              0          0          0          NO
pe1              0          0          0          NO
350.1            0          0          0          NO
352.1            0          0          0          NO
u18              0          0          0          NO
u19              0          0          0          NO
u17a             0          0          0          NO
u11              0          0          0          NO
u13              0          0          0          NO
u12              0          0          0          NO
q1               0          0          0          NO
u20              0          0          0          NO
u21a             0          0          0          NO
pb1-1            0          0          0          NO
pb1              0          0          0          NO
u21              0          0          0          NO
pb2              0          0          0          NO
u22              0          0          0          NO
u23              0          0          0          NO
pb3              0          0          0          NO
chan_x10         0          0          0          NO
x5               0          0          0          NO
x8               0          0          0          NO
x1               0          0          0          NO
x2               0          0          0          NO
x9               0          0          0          NO
x3               0          0          0          NO
chan_pe2         0          0          0          NO
chan_u19         0          0          0          NO
chan_x11         0          0          0          NO
x4               0          0          0          NO
chan_u17         0          0          0          NO
u10              0          0          0          NO
x6               0          0          0          NO
x7               0          0          0          NO
h1               0          0          0          NO
u15              0          0          0          NO
u14              0          0          0          NO
ph1              0          0          0          NO

[INFLOWS]
;;Node           Constituent  Time Series      Type     Mfactor  Sfactor  Baseline Pattern
;;-------------- ------------ ---------------- -------- -------- -------- -------- --------
;; SYNTHETIC TEST INFLOWS — the source .xp carried no constant inflows
;; and RUNF hydrology is not converted; 0.03 CMS is applied at each
;; headwater node so the network runs wet for QA. Replace with real
;; hydrology or inflow hydrographs before using results.
chan_IIa-        FLOW         ""               FLOW     1.0      1.0      0.03
chan_IId12       FLOW         ""               FLOW     1.0      1.0      0.03
chanIIf12        FLOW         ""               FLOW     1.0      1.0      0.03
chanIIf23        FLOW         ""               FLOW     1.0      1.0      0.03
chanIIf34        FLOW         ""               FLOW     1.0      1.0      0.03
chanIIg          FLOW         ""               FLOW     1.0      1.0      0.03
chanIV           FLOW         ""               FLOW     1.0      1.0      0.03
chanIIc          FLOW         ""               FLOW     1.0      1.0      0.03
CHMEchan_1       FLOW         ""               FLOW     1.0      1.0      0.03
chan_p13         FLOW         ""               FLOW     1.0      1.0      0.03
chan_u18         FLOW         ""               FLOW     1.0      1.0      0.03

[COORDINATES]
;;Node           X-Coord            Y-Coord
;;-------------- ------------------ ------------------
pond             33.28              49.75             
ne1              46.77              59.83             
pond_2           46.95              64.37             
ne2              50.62              74.75             
pond_3           50.12              80.27             
ne3              49.52              84.15             
pond_4           48.22              94.63             
nb1              51.10              95.62             
pond_5           52.77              97.73             
nb2              52.23              101.72            
pond_6           50.55              112.81            
n                53.45              113.58            
n_2              65.59              112.42            
n_3              68.67              99.39             
n_4              67.45              93.72             
n_5              68.40              86.55             
n_6              72.48              86.52             
n_7              76.98              86.42             
pond_7           33.69              69.90             
pond_8           45.08              82.09             
nd1              46.49              87.25             
pond_9           27.21              96.96             
pond_10          38.00              106.29            
pond_11          41.12              109.68            
pond_12          45.29              110.78            
nf1              48.43              111.92            
n_8              25.99              129.35            
pond_13          22.95              124.87            
n_9              47.58              136.77            
pond_14          55.28              104.53            
pond_15          63.08              109.43            
pond_16          82.14              86.25             
n_10             84.29              86.01             
outfall          83.70              77.32             
nh1              72.71              72.96             
pond_17          56.10              54.29             
pond_18          59.22              54.97             
n_11             62.54              56.31             
n_12             63.83              56.78             
n_13             68.61              58.07             
npa4             70.26              58.49             
n_14             70.59              63.37             
n_15             70.60              66.23             
npa7             71.41              73.18             
n_16             71.08              74.89             
n_17             70.72              76.71             
n_18             70.72              83.47             
pond_19          71.89              85.64             
n_19             68.41              62.92             
n_20             67.11              79.38             
n_21             68.85              80.07             
n_22             68.53              82.49             
n_23             63.30              74.41             
n_24             64.52              67.47             
n_25             68.71              74.41             
n_26             68.53              75.68             
pond_20          69.10              77.52             
n_27             67.35              75.23             
n_28             60.88              86.05             
n_29             62.52              86.08             
n_30             65.73              86.10             
n_31             67.79              86.14             
n_32             70.25              86.05             
n_33             59.73              83.14             
n_34             60.97              73.52             
n_35             58.91              86.07             
n_36             56.25              85.98             
n_37             60.03              88.25             
n_38             59.87              92.70             
n_39             57.41              78.24             
n_40             62.21              84.86             
n_41             65.61              86.60             
n_42             62.74              84.46             
n_43             65.42              85.44             
n_44             66.71              81.27             
n_45             68.25              81.94             
n_46             57.68              92.71             
n_47             67.82              86.43             
n_48             55.44              90.16             

[MAP]
DIMENSIONS 22.95 49.75 84.29 136.77
Units      None

[REPORT]
SUBCATCHMENTS ALL
NODES ALL
LINKS ALL
