;; SWMM5 .inp converted from XPSWMM .xp file
;; Generated by XPSWMM Card Reader
;; Source format: XP_CARD | Original title: Broward County NADA Study Model

[TITLE]
;;Project Title/Notes
Broward County NADA Study Model

[OPTIONS]
FLOW_UNITS           CFS
INFILTRATION         HORTON
FLOW_ROUTING         DYNWAVE
LINK_OFFSETS         DEPTH
MIN_SLOPE            0.0
ALLOW_PONDING        NO
SKIP_STEADY_STATE    NO
ROUTING_STEP         01:00:00
VARIABLE_STEP        0.75
INERTIAL_DAMPING     NONE
NORMAL_FLOW_LIMITED  BOTH
MAX_TRIALS           50
START_DATE           01/01/2001
START_TIME           00:00:00
REPORT_START_DATE    01/01/2001
REPORT_START_TIME    00:00:00
END_DATE             01/02/2001
END_TIME             00:00:00
SWEEP_START          01/01
SWEEP_END            12/31
DRY_DAYS             0
REPORT_STEP          01:00:00
WET_STEP             01:00:00
DRY_STEP             01:00:00

[JUNCTIONS]
;;Name           Elev       MaxDepth   InitDepth  SurDepth   Aponded
;;-------------- ---------- ---------- ---------- ---------- ----------
PT-STG           0          0          0          0          0
CM2-STG          0          0          0          0          0
CM10-STG         14.00      0          0          0          0
CM4-STG          0          0          0          0          0
TOC14            0          0          0          0          0
D2-3             16.00      0          0          0          0
D2-1STG          0          0          0          0          0
D2-2STG          0          0          0          0          0
D2-3_STG         0          0          0          0          0
CS-W_STG         0          0          0          0          0
CS-E_STG         12.00      0          0          0          0
NS-N_STG         0          0          0          0          0
D2-6_STG         0          0          0          0          0
D2-7_STG         0          0          0          0          0
D2-5_STG         0          0          0          0          0
S-W_STG          12.00      0          0          0          0
S2_STG           14.00      0          0          0          0
451              0          0          0          0          0
456              0          0          0          0          0
475              0          0          0          0          0
482              14.00      0          0          0          0
491              0          0          0          0          0
493              0          0          0          0          0
495              0          0          0          0          0
S39-T            0          0          0          0          0
G56-H            0          0          0          0          0
S37B-H           0          0          0          0          0
505              0          0          0          0          0
506              0          0          0          0          0
507              0          0          0          0          0
PT-HC_GW         0          0          0          0          0
CS46-WEIR        0          0          0          0          0
CS34-BLEED       0          0          0          0          0
CS34-WEIR        0          0          0          0          0
CS11-WEIR        0          0          0          0          0
CM8-9_GW         0          0          0          0          0
CM7-10_GW        0          0          0          0          0
CS49-WEIR        0          0          0          0          0
TR-C14_GW        0          0          0          0          0
CM6-7_GW         0          0          0          0          0
CS45-WEIR        0          0          0          0          0
CM4-HC_GW        0          0          0          0          0
PT-TR_GW         0          0          0          0          0
D2-HC_GW         0          0          0          0          0
CS1-WEIR         0          0          0          0          0
D23-HC_GW        0          0          0          0          0
D25-HC_GW        0          0          0          0          0
CS3-WEIR         0          0          0          0          0
D210-11_GW       0          0          0          0          0
CS57-PIPE        0          0          0          0          0
D211-12_GW       0          0          0          0          0
D25-10_GW        0          0          0          0          0
CS35-PUMP        0          0          0          0          0
CS9-WEIR         0          0          0          0          0
CS52-BLEED       0          0          0          0          0
CS8-WEIR         0          0          0          0          0
CS12-WEIR        0          0          0          0          0
D31-C14_GW       0          0          0          0          0
CSW-C14GW        0          0          0          0          0
CSE-C14GW        0          0          0          0          0
CS36_RECH        0          0          0          0          0
D29-D23GW        0          0          0          0          0
D31-3_GW         0          0          0          0          0
CS40_PIPE        0          0          0          0          0
NSW-HC_GW        0          0          0          0          0
NS-PUMP1b        0          0          0          0          0

[OUTFALLS]
;;Name           Elev       Type       Stage      Gated
;;-------------- ---------- ---------- ---------- -----
CM9-STG          15.00      FREE                  NO

[STORAGE]
;;Name           Elev       MaxDepth   InitDepth  Shape      Curve/Params
;;-------------- ---------- ---------- ---------- ---------- ----------
PT               17.00      10.00      10.00      FUNCTIONAL 1000.00 0          0
TRCB             15.00      10.00      10.00      FUNCTIONAL 1000.00 0          0
CM8              15.00      10.00      10.00      FUNCTIONAL 1000.00 0          0
CM6              16.00      10.00      10.00      FUNCTIONAL 1000.00 0          0
CM7              16.00      10.00      10.00      FUNCTIONAL 1000.00 0          0
CM2              16.00      10.00      10.00      FUNCTIONAL 1000.00 0          0
CM4              16.00      10.00      10.00      FUNCTIONAL 1000.00 0          0
CM5              16.00      10.00      10.00      FUNCTIONAL 1000.00 0          0
D2-1             16.00      10.00      10.00      FUNCTIONAL 1000.00 0          0
D2-2             16.00      10.00      10.00      FUNCTIONAL 1000.00 0          0
D2-4             16.00      10.00      10.00      FUNCTIONAL 1000.00 0          0
D2-5             16.00      10.00      10.00      FUNCTIONAL 1000.00 0          0
D2-6             15.00      10.00      10.00      FUNCTIONAL 1000.00 0          0
D2-7             14.00      10.00      10.00      FUNCTIONAL 1000.00 0          0
D2-8             15.50      10.00      10.00      FUNCTIONAL 1000.00 0          0
D2-12            16.00      10.00      10.00      FUNCTIONAL 1000.00 0          0
D2-11            16.00      10.00      10.00      FUNCTIONAL 1000.00 0          0
D2-10            16.00      10.00      10.00      FUNCTIONAL 1000.00 0          0
D2-14            16.00      10.00      10.00      FUNCTIONAL 1000.00 0          0
D2-15            16.00      10.00      10.00      FUNCTIONAL 1000.00 0          0
D2-13            16.00      10.00      10.00      FUNCTIONAL 1000.00 0          0
D3-2             15.00      10.00      10.00      FUNCTIONAL 1000.00 0          0
D3-1             16.00      10.00      10.00      FUNCTIONAL 1000.00 0          0
D3-3             16.00      10.00      10.00      FUNCTIONAL 1000.00 0          0
D3-4             14.00      10.00      10.00      FUNCTIONAL 1000.00 0          0
D3-7             14.00      10.00      10.00      FUNCTIONAL 1000.00 0          0
D3-6             13.50      10.00      10.00      FUNCTIONAL 1000.00 0          0
D3-5_STG         13.50      10.00      10.00      FUNCTIONAL 1000.00 0          0
NSID-N           13.00      10.00      10.00      FUNCTIONAL 1000.00 0          0
NSID-W           13.00      10.00      10.00      FUNCTIONAL 1000.00 0          0
CH               17.00      10.00      10.00      FUNCTIONAL 1000.00 0          0
NSID-E           17.00      10.00      10.00      FUNCTIONAL 1000.00 0          0
SDD-W            12.00      10.00      10.00      FUNCTIONAL 1000.00 0          0
SDD-E            14.00      10.00      10.00      FUNCTIONAL 1000.00 0          0
CSID-W           12.00      10.00      10.00      FUNCTIONAL 1000.00 0          0
CSID-E           12.00      10.00      10.00      FUNCTIONAL 1000.00 0          0
BC-1             16.00      10.00      10.00      FUNCTIONAL 1000.00 0          0
D3-6_STG         13.50      10.00      10.00      FUNCTIONAL 1000.00 0          0
D2-9             16.00      10.00      10.00      FUNCTIONAL 1000.00 0          0
CM1              16.00      10.00      10.00      FUNCTIONAL 1000.00 0          0

[CONDUITS]
;;Name           From             To               Length     Roughness  InOffset   OutOffset  InitFlow   MaxFlow
;;-------------- ---------------- ---------------- ---------- ---------- ---------- ---------- ---------- ----------
403              D2-6             D2-6_STG         100.00     0.0130     0          0          0          0
423              NSID-N           NS-N_STG         100.00     0.0130     0          0          0          0
434              D3-6             D3-6_STG         100.00     0.0130     0          0          0          0
494              CSID-W           493              100.00     0.0130     0          0          0          0

[PUMPS]
;;Name           From             To               PumpCurve  Status   Startup    Shutoff
;;-------------- ---------------- ---------------- ---------- -------- ---------- ----------
CS-PT            PT-HC_GW         PT-STG           PC_CS-PT   ON       11.00      9.50      
CS-46            CS46-WEIR        CM2-STG          PC_CS-46   ON       12.50      10.50     
CS34-PUMP        CS34-BLEED       CS34-WEIR        PC_CS34-PUMP ON       11.50      9.50      
CS11-PUMP        CS11-WEIR        CM8-9_GW         PC_CS11-PUMP ON       10.50      8.99      
CS49-PUMP        CM7-10_GW        CS49-WEIR        PC_CS49-PUMP ON       9.50       8.50      
CS-7             TR-C14_GW        TOC14            PC_CS-7    ON       10.50      9.00      
CS-45            CS45-WEIR        CM4-HC_GW        PC_CS-45   ON       12.50      10.50     
CS-50            PT-TR_GW         TRCB             PC_CS-50   ON       11.00      10.00     
CS-1             CS1-WEIR         D23-HC_GW        PC_CS-1    ON       11.00      10.00     
CS2-PUMP         D25-HC_GW        D2-5_STG         PC_CS2-PUMP ON       10.01      9.50      
CS3-PUMP         CS3-WEIR         D2-7             PC_CS3-PUMP ON       9.00       8.00      
CS4-PUMP         D2-12            D2-8             PC_CS4-PUMP ON       9.00       8.50      
CS36-FC2         D210-11_GW       CS57-PIPE        PC_CS36-FC2 ON       11.01      9.50      
CS36-FC1         D25-10_GW        D2-5             PC_CS36-FC1 ON       11.01      9.50      
D10-14_GW        CS35-PUMP        D2-14            PC_D10-14_GW ON       11.00      9.00      
CS9-PUMP         CS9-WEIR         D3-5_STG         PC_CS9-PUMP ON       9.01       7.49      
CS52-PUMP        CS52-BLEED       D2-12            PC_CS52-PUMP ON       11.00      9.50      
CS8-PUMP         CS8-WEIR         D3-4             PC_CS8-PUMP ON       10.50      9.00      
CS38-PUMP        D2-3             D3-1             PC_CS38-PUMP ON       11.01      9.50      
CS12-PUMP        CS12-WEIR        D31-C14_GW       PC_CS12-PUMP ON       10.00      8.00      
SDDE-PUMP        SDD-E            S2_STG           PC_SDDE-PUMP ON       7.75       7.25      
SDDW-PUMP        SDD-W            S-W_STG          PC_SDDW-PUMP ON       7.75       7.25      
CSID-W           CSW-C14GW        CS-W_STG         PC_CSID-W  ON       7.25       6.50      
CSID-E           CSE-C14GW        CS-E_STG         PC_CSID-E  ON       7.25       6.50      
D25-11_GW        CS36_RECH        D2-11            PC_D25-11_GW ON       27.00      26.00     
CS2-RECH         451              D2-5             PC_CS2-RECH ON       6.75       4.00      
NS-PUMP1a        NSW-HC_GW        NS-PUMP1b        PC_NS-PUMP1a ON       7.70       7.00      
FP1-PUMP         CM1              G56-H            PC_FP1-PUMP ON       1.00       0         

[CURVES]
;;Name           Type       X-Value    Y-Value
;;-------------- ---------- ---------- ----------
;; Synthesized generic pump curves — replace with actual pump data
PC_CS-PT         Pump1      0          5
PC_CS-PT                    10         10
PC_CS-46         Pump1      0          5
PC_CS-46                    10         10
PC_CS34-PUMP     Pump1      0          5
PC_CS34-PUMP                10         10
PC_CS11-PUMP     Pump1      0          5
PC_CS11-PUMP                10         10
PC_CS49-PUMP     Pump1      0          5
PC_CS49-PUMP                10         10
PC_CS-7          Pump1      0          5
PC_CS-7                     10         10
PC_CS-45         Pump1      0          5
PC_CS-45                    10         10
PC_CS-50         Pump1      0          5
PC_CS-50                    10         10
PC_CS-1          Pump1      0          5
PC_CS-1                     10         10
PC_CS2-PUMP      Pump1      0          5
PC_CS2-PUMP                 10         10
PC_CS3-PUMP      Pump1      0          5
PC_CS3-PUMP                 10         10
PC_CS4-PUMP      Pump1      0          5
PC_CS4-PUMP                 10         10
PC_CS36-FC2      Pump1      0          5
PC_CS36-FC2                 10         10
PC_CS36-FC1      Pump1      0          5
PC_CS36-FC1                 10         10
PC_D10-14_GW     Pump1      0          5
PC_D10-14_GW                10         10
PC_CS9-PUMP      Pump1      0          5
PC_CS9-PUMP                 10         10
PC_CS52-PUMP     Pump1      0          5
PC_CS52-PUMP                10         10
PC_CS8-PUMP      Pump1      0          5
PC_CS8-PUMP                 10         10
PC_CS38-PUMP     Pump1      0          5
PC_CS38-PUMP                10         10
PC_CS12-PUMP     Pump1      0          5
PC_CS12-PUMP                10         10
PC_SDDE-PUMP     Pump1      0          5
PC_SDDE-PUMP                10         10
PC_SDDW-PUMP     Pump1      0          5
PC_SDDW-PUMP                10         10
PC_CSID-W        Pump1      0          5
PC_CSID-W                   10         10
PC_CSID-E        Pump1      0          5
PC_CSID-E                   10         10
PC_D25-11_GW     Pump1      0          5
PC_D25-11_GW                10         10
PC_CS2-RECH      Pump1      0          5
PC_CS2-RECH                 10         10
PC_NS-PUMP1a     Pump1      0          5
PC_NS-PUMP1a                10         10
PC_FP1-PUMP      Pump1      0          5
PC_FP1-PUMP                 10         10

[XSECTIONS]
;;Link           Shape        Geom1      Geom2      Geom3      Geom4      Barrels
;;-------------- ------------ ---------- ---------- ---------- ---------- ----------
403              CIRCULAR     1.00       0          0          0          1
423              CIRCULAR     1.00       0          0          0          1
434              CIRCULAR     1.00       0          0          0          1
494              CIRCULAR     1.00       0          0          0          1

[LOSSES]
;;Link           Inlet      Outlet     Average    Flap Gate
;;-------------- ---------- ---------- ---------- ----------
403              0          0          0          NO
423              0          0          0          NO
434              0          0          0          NO
494              0          0          0          NO

[COORDINATES]
;;Node           X-Coord            Y-Coord
;;-------------- ------------------ ------------------
PT               -715819.63         758613.45         
TRCB             -705657.20         759727.61         
CM9-STG          -688790.65         770173.98         
CM8              -695747.53         771532.77         
CM6              -702165.08         771001.84         
CM7              -699767.48         765215.92         
CM2              -721544.45         766160.31         
CM4              -714874.46         768315.29         
CM5              -710164.44         767194.82         
PT-STG           -725853.24         759132.83         
CM2-STG          -725016.62         766550.06         
CM10-STG         -688536.59         765627.78         
CM4-STG          -724771.55         771880.16         
TOC14            -694961.43         756808.25         
D2-1             -722530.42         773805.46         
D2-2             -721066.30         776033.91         
D2-3             -713055.15         776664.81         
D2-4             -723041.89         780673.88         
D2-5             -719035.89         784116.22         
D2-6             -723702.17         787853.56         
D2-7             -723372.03         790412.15         
D2-8             -718090.08         790414.51         
D2-12            -713881.24         788847.38         
D2-11            -712018.21         783727.68         
D2-10            -712913.58         780649.85         
D2-14            -707607.83         781603.37         
D2-15            -707731.49         775388.84         
D2-13            -708020.51         787855.47         
D3-2             -704347.83         783891.72         
D3-1             -700138.11         777162.07         
D3-3             -702080.71         786118.86         
D3-4             -695136.39         784967.31         
D3-7             -689037.44         775308.23         
D3-6             -691926.16         781086.56         
D3-5_STG         -689367.58         785913.11         
NSID-N           -729769.38         736410.44         
NSID-W           -716504.99         737428.12         
CH               -722754.77         753377.52         
NSID-E           -714224.64         748321.88         
SDD-W            -703480.20         737837.45         
SDD-E            -704792.60         748483.02         
CSID-W           -693659.70         734781.90         
CSID-E           -693411.80         745596.32         
BC-1             -716502.52         773740.94         
D2-1STG          -733278.87         773575.87         
D2-2STG          -726469.71         775151.20         
D2-3_STG         -730552.59         778527.10         
CS-W_STG         -687964.63         735153.13         
CS-E_STG         -688129.55         745964.93         
NS-N_STG         -733523.85         736391.00         
D2-6_STG         -726013.16         787810.36         
D2-7_STG         -726178.23         790946.70         
D2-5_STG         -724752.74         784085.81         
S-W_STG          -687634.34         740352.84         
S2_STG           -688137.40         750911.78         
D3-6_STG         -688046.87         780547.28         
D2-9             -718735.33         775791.38         
451              -725494.18         783144.31         
456              -725435.68         780478.68         
475              -716721.67         729783.18         
482              -688408.70         754182.04         
491              -702982.56         728875.60         
493              -693557.19         729793.11         
495              -723505.79         748477.02         
CM1              -721946.39         763358.40         
S39-T            -729757.26         753547.63         
G56-H            -729256.80         763390.04         
S37B-H           -687551.65         761054.55         
505              -694891.76         790248.15         
506              -707486.71         791499.31         
507              -722000.10         792750.46         

[MAP]
DIMENSIONS -733523.85 728875.60 -687551.65 792750.46
Units      None

[REPORT]
SUBCATCHMENTS ALL
NODES ALL
LINKS ALL
