;; SWMM5 .inp converted from XPSWMM .xp file
;; Generated by XPSWMM Card Reader
;; Source format: XP_CARD | Original title: (none)

[TITLE]
;;Project Title/Notes
Converted from XPSWMM .xp file

[OPTIONS]
FLOW_UNITS           CMS
INFILTRATION         HORTON
FLOW_ROUTING         DYNWAVE
LINK_OFFSETS         DEPTH
MIN_SLOPE            0.0
ALLOW_PONDING        NO
SKIP_STEADY_STATE    NO
ROUTING_STEP         00:01:00
VARIABLE_STEP        0.75
INERTIAL_DAMPING     PARTIAL
NORMAL_FLOW_LIMITED  BOTH
START_DATE           01/01/2001
START_TIME           00:00:00
REPORT_START_DATE    01/01/2001
REPORT_START_TIME    00:00:00
END_DATE             01/02/2001
END_TIME             00:00:00
SWEEP_START          01/01
SWEEP_END            12/31
DRY_DAYS             0
REPORT_STEP          00:15:00
WET_STEP             00:05:00
DRY_STEP             01:00:00

[JUNCTIONS]
;;Name           Elev       MaxDepth   InitDepth  SurDepth   Aponded
;;-------------- ---------- ---------- ---------- ---------- ----------
201              15.00      0          0          0          0
202              15.00      0          0          0          0
204              15.00      0          0          0          0
Watershd1        15.00      0          0          0          0
207              15.00      0          0          0          0

[OUTFALLS]
;;Name           Elev       Type       Stage      Gated
;;-------------- ---------- ---------- ---------- -----
210              15.00      FREE                  NO

[CONDUITS]
;;Name           From             To               Length     Roughness  InOffset   OutOffset  InitFlow   MaxFlow
;;-------------- ---------------- ---------------- ---------- ---------- ---------- ---------- ---------- ----------
203              201              202              50.00      0.0140     10.00      10.00      0          0
205              202              204              50.00      0.0140     10.00      10.00      0          0
208              Watershd1        207              50.00      0.0140     10.00      10.00      0          0
209              207              204              50.00      0.0140     10.00      10.00      0          0
211              204              210              50.00      0.0140     10.00      10.00      0          0

[XSECTIONS]
;;Link           Shape        Geom1      Geom2      Geom3      Geom4      Barrels
;;-------------- ------------ ---------- ---------- ---------- ---------- ----------
203              TRAPEZOIDAL  2.00       1.00       1          1          1
205              TRAPEZOIDAL  2.00       1.00       1          1          1
208              TRAPEZOIDAL  2.00       1.00       1          1          1
209              TRAPEZOIDAL  2.00       1.00       1          1          1
211              TRAPEZOIDAL  2.00       1.00       1          1          1

[LOSSES]
;;Link           Inlet      Outlet     Average    Flap Gate
;;-------------- ---------- ---------- ---------- ----------
203              0          0          0          NO
205              0          0          0          NO
208              0          0          0          NO
209              0          0          0          NO
211              0          0          0          NO

[COORDINATES]
;;Node           X-Coord            Y-Coord
;;-------------- ------------------ ------------------
201              9.48               18.85             
202              26.05              43.59             
204              38.83              67.94             
Watershd1        5.22               97.39             
207              20.37              84.82             
210              65.34              65.97             

[MAP]
DIMENSIONS 5.22 18.85 65.34 97.39
Units      None

[REPORT]
SUBCATCHMENTS ALL
NODES ALL
LINKS ALL
