;; SWMM5 .inp converted from XPSWMM .xp file
;; Generated by XPSWMM Card Reader
;; Source format: XP_CARD | Original title: (none)

[TITLE]
;;Project Title/Notes
Converted from XPSWMM .xp file

[OPTIONS]
FLOW_UNITS           CMS
INFILTRATION         HORTON
FLOW_ROUTING         DYNWAVE
LINK_OFFSETS         DEPTH
MIN_SLOPE            0.0
ALLOW_PONDING        NO
SKIP_STEADY_STATE    NO
ROUTING_STEP         00:00:30
VARIABLE_STEP        0.75
INERTIAL_DAMPING     PARTIAL
NORMAL_FLOW_LIMITED  BOTH
MAX_TRIALS           50
START_DATE           01/01/2001
START_TIME           00:00:00
REPORT_START_DATE    01/01/2001
REPORT_START_TIME    00:00:00
END_DATE             01/02/2001
END_TIME             00:00:00
SWEEP_START          01/01
SWEEP_END            12/31
DRY_DAYS             0
REPORT_STEP          00:15:00
WET_STEP             00:05:00
DRY_STEP             01:00:00

[JUNCTIONS]
;;Name           Elev       MaxDepth   InitDepth  SurDepth   Aponded
;;-------------- ---------- ---------- ---------- ---------- ----------
201              10.00      0          0          0          0
202              10.00      0          0          0          0
202a             10.00      0          0          0          0
204a             10.00      0          0          0          0
201a             10.00      0          0          0          0

[OUTFALLS]
;;Name           Elev       Type       Stage      Gated
;;-------------- ---------- ---------- ---------- -----
204              10.00      FREE                  NO

[CONDUITS]
;;Name           From             To               Length     Roughness  InOffset   OutOffset  InitFlow   MaxFlow
;;-------------- ---------------- ---------------- ---------- ---------- ---------- ---------- ---------- ----------
203              201              202              100.00     0.0140     0          0          0          0
205              202              204              100.00     0.0140     0          0          0          0
205a             202a             204a             100.00     0.0140     0          0          0          0
203a             201a             202a             100.00     0.0140     0          0          0          0
219              202              202a             100.00     0.0140     0          0          0          0

[XSECTIONS]
;;Link           Shape        Geom1      Geom2      Geom3      Geom4      Barrels
;;-------------- ------------ ---------- ---------- ---------- ---------- ----------
203              CIRCULAR     3.00       0          0          0          1
205              CIRCULAR     3.00       0          0          0          1
205a             CIRCULAR     3.00       0          0          0          1
203a             CIRCULAR     3.00       0          0          0          1
219              CIRCULAR     3.00       0          0          0          1

[LOSSES]
;;Link           Inlet      Outlet     Average    Flap Gate
;;-------------- ---------- ---------- ---------- ----------
203              0          0          0          NO
205              0          0          0          NO
205a             0          0          0          NO
203a             0          0          0          NO
219              0          0          0          NO

[COORDINATES]
;;Node           X-Coord            Y-Coord
;;-------------- ------------------ ------------------
201              15.16              21.60             
202              21.31              53.01             
204              22.26              89.93             
202a             39.07              54.20             
204a             45.02              100.90            
201a             34.60              13.72             

[MAP]
DIMENSIONS 15.16 13.72 45.02 100.90
Units      None

[REPORT]
SUBCATCHMENTS ALL
NODES ALL
LINKS ALL
