;; SWMM5 .inp converted from XPSWMM .xp file
;; Generated by XPSWMM Card Reader
;; Source format: XP_CARD | Original title: LONGFIELDS/DAVIDSON HEIGHTS - UPDATE MODELLING - JULY 01,1979 - LDJLYF7.XP
;; Links parsed from source: 50 | Routable in this .inp: 50

[TITLE]
;;Project Title/Notes
LONGFIELDS/DAVIDSON HEIGHTS - UPDATE MODELLING - JULY 01,1979 - LDJLYF7.XP

[OPTIONS]
FLOW_UNITS           CMS
INFILTRATION         HORTON
FLOW_ROUTING         DYNWAVE
LINK_OFFSETS         DEPTH
MIN_SLOPE            0.0
ALLOW_PONDING        NO
SKIP_STEADY_STATE    NO
ROUTING_STEP         00:01:00
VARIABLE_STEP        0.75
INERTIAL_DAMPING     PARTIAL
NORMAL_FLOW_LIMITED  BOTH
MAX_TRIALS           100
HEAD_TOLERANCE       0.0033
START_DATE           01/01/2001
START_TIME           00:00:00
REPORT_START_DATE    01/01/2001
REPORT_START_TIME    00:00:00
END_DATE             01/02/2001
END_TIME             00:00:00
SWEEP_START          01/01
SWEEP_END            12/31
DRY_DAYS             0
REPORT_STEP          00:15:00
WET_STEP             00:05:00
DRY_STEP             01:00:00

[JUNCTIONS]
;;Name           Elev       MaxDepth   InitDepth  SurDepth   Aponded
;;-------------- ---------- ---------- ---------- ---------- ----------
109              92.60      0          0          0          0
111              92.75      0          0          0          0
113              92.20      0          0          0          0
115              92.00      0          0          0          0
119              91.59      0          0          0          0
121              91.25      0          0          0          0
123              91.15      0          0          0          0
127              90.45      0          0          0          0
59               92.70      0          0          0          0
61               92.85      0          0          0          0
463              92.50      0          0          0          0
63               92.15      0          0          0          0
65               91.73      0          0          0          0
2305             91.60      0          0          0          0
67               91.25      0          0          0          0
69               91.17      0          0          0          0
71               90.91      0          0          0          0
73               90.77      0          0          0          0
75               91.04      0          0          0          0
275              90.80      0          0          0          0
79               90.71      0          0          0          0
81               90.29      0          0          0          0
85               89.70      0          0          0          0
89               89.00      0          0          0          0
888              89.00      0          0          0          0
9059             93.00      0          0          0          0
8061             96.00      0          0          0          0
9061             93.00      0          0          0          0
9069             91.30      0          0          0          0
471              91.50      0          0          0          0
371              91.20      0          0          0          0
271              91.00      0          0          0          0
171              90.90      0          0          0          0
9081             90.00      0          0          0          0
8081             90.00      0          0          0          0
2123             90.98      0          0          0          0
2127             90.31      0          0          0          0
9063             93.00      0          0          0          0
9065             92.00      0          0          0          0
472              91.30      0          0          0          0
9171             91.80      0          0          0          0
9079             91.00      0          0          0          0
3127             89.70      0          0          0          0
473              91.50      0          0          0          0
474              91.90      0          0          0          0
475              93.00      0          0          0          0
476              93.00      0          0          0          0
477              93.20      0          0          0          0
9109.1           93.30      0          0          0          0

[OUTFALLS]
;;Name           Elev       Type       Stage      Gated
;;-------------- ---------- ---------- ---------- -----
789              88.00      FREE                  NO

[STORAGE]
;;Name           Elev       MaxDepth   InitDepth  Shape      Curve/Params
;;-------------- ---------- ---------- ---------- ---------- ----------
9109             94.00      10.00      0          FUNCTIONAL 100.00 0          0

[CONDUITS]
;;Name           From             To               Length     Roughness  InOffset   OutOffset  InitFlow   MaxFlow
;;-------------- ---------------- ---------------- ---------- ---------- ---------- ---------- ---------- ----------
338              109              111              183.00     0.0130     85.29      85.06      0          0
340              111              113              138.00     0.0130     85.06      84.88      0          0
342              113              115              134.00     0.0130     84.88      84.74      0          0
344              115              119              196.00     0.0130     84.74      84.55      0          0
346              119              121              216.00     0.0130     84.55      84.33      0          0
348              121              123              139.00     0.0130     84.33      84.19      0          0
382              9109             9109.1           50.00      0.0130     89.31      89.21      0          0
406              59               61               62.00      0.0130     86.78      86.71      0          0
408              61               463              151.00     0.0130     86.71      86.47      0          0
410              463              63               163.20     0.0130     86.47      86.28      0          0
412              63               65               131.00     0.0130     86.20      86.08      0          0
414              65               2305             79.50      0.0130     86.08      85.99      0          0
422              67               69               89.00      0.0130     85.81      85.72      0          0
424              69               71               90.70      0.0130     85.72      85.59      0          0
426              71               73               97.30      0.0130     85.40      85.27      0          0
428              73               75               77.00      0.0130     85.18      85.08      0          0
430              75               275              151.00     0.0130     85.08      84.89      0          0
432              275              79               152.00     0.0130     84.89      84.71      0          0
434              79               81               60.30      0.0130     84.71      84.60      0          0
436              81               85               243.30     0.0130     84.45      84.20      0          0
438              85               89               187.00     0.0130     83.90      83.63      0          0
440              89               888              102.40     0.0130     83.63      83.48      0          0
454              9059             59               200.00     0.0130     88.74      88.24      0          0
456              8061             9061             200.00     0.0130     89.32      88.92      0          0
457              9061             61               300.00     0.0130     88.77      88.17      0          0
460              9069             69               200.00     0.0130     87.73      87.33      0          0
462              471              371              52.00      0.0130     86.97      86.87      0          0
463              371              271              95.00      0.0130     86.87      86.68      0          0
465              271              171              88.00      0.0130     86.68      86.49      0          0
467              171              71               114.00     0.0130     86.34      86.12      0          0
470              9081             81               200.00     0.0130     86.54      86.14      0          0
472              8081             81               150.00     0.0130     86.82      86.52      0          0
350              123              2123             156.00     0.0130     84.19      84.04      0          0
480              2123             127              137.00     0.0130     84.04      83.90      0          0
352              127              2127             107.00     0.0130     83.90      83.77      0          0
483              2127             789              215.00     0.0130     83.77      83.50      0          0
488              9063             63               200.00     0.0130     88.29      87.89      0          0
490              9065             65               200.00     0.0130     88.09      87.69      0          0
416              2305             67               168.80     0.0130     85.99      85.81      0          0
493              472              471              30.50      0.0130     87.40      87.29      0          0
495              9171             171              200.00     0.0130     87.28      86.88      0          0
497              9079             79               150.00     0.0130     86.93      86.63      0          0
352_2            127              3127             57.00      0.0130     85.12      84.84      0          0
505              3127             85               100.00     0.0043     84.23      84.22      0          0
531              473              472              78.00      0.0130     88.09      87.93      0          0
534              474              473              33.50      0.0130     88.19      88.12      0          0
535              475              474              165.00     0.0130     89.17      88.81      0          0
536              476              475              59.00      0.0130     89.44      89.32      0          0
537              477              476              79.00      0.0130     89.90      89.71      0          0

[WEIRS]
;;Name           From             To               Type       CrestHt    Qcoeff     Gated    EndCon   EndCoeff   Surcharge
;;-------------- ---------------- ---------------- ---------- ---------- ---------- -------- -------- ---------- ----------
543              9109.1           109              TRANSVERSE 89.30      1.840      NO       0        0          YES

[XSECTIONS]
;;Link           Shape        Geom1      Geom2      Geom3      Geom4      Barrels
;;-------------- ------------ ---------- ---------- ---------- ---------- ----------
338              CIRCULAR     2.74       0          0          0          1
340              CIRCULAR     2.74       0          0          0          1
342              CIRCULAR     2.74       0          0          0          1
344              CIRCULAR     2.74       0          0          0          1
346              CIRCULAR     2.74       0          0          0          1
348              CIRCULAR     2.74       0          0          0          1
382              CIRCULAR     0.90       0          0          0          1
406              CIRCULAR     2.29       0          0          0          1
408              CIRCULAR     2.29       0          0          0          1
410              CIRCULAR     2.29       0          0          0          1
412              CIRCULAR     2.44       0          0          0          1
414              CIRCULAR     2.44       0          0          0          1
422              CIRCULAR     2.44       0          0          0          1
424              CIRCULAR     2.44       0          0          0          1
426              CIRCULAR     2.59       0          0          0          1
428              CIRCULAR     2.59       0          0          0          1
430              CIRCULAR     2.59       0          0          0          1
432              CIRCULAR     2.59       0          0          0          1
434              CIRCULAR     2.59       0          0          0          1
436              CIRCULAR     2.74       0          0          0          1
438              RECT_CLOSED  3.00       3.00       0          0          1
440              RECT_CLOSED  3.00       3.00       0          0          1
454              CIRCULAR     0.82       0          0          0          1
456              CIRCULAR     0.68       0          0          0          1
457              CIRCULAR     0.82       0          0          0          1
460              CIRCULAR     0.82       0          0          0          1
462              CIRCULAR     1.07       0          0          0          1
463              CIRCULAR     1.07       0          0          0          1
465              CIRCULAR     1.07       0          0          0          1
467              CIRCULAR     1.22       0          0          0          1
470              CIRCULAR     1.05       0          0          0          1
472              CIRCULAR     0.68       0          0          0          1
350              CIRCULAR     2.74       0          0          0          1
480              CIRCULAR     2.74       0          0          0          1
352              CIRCULAR     2.74       0          0          0          1
483              CIRCULAR     2.74       0          0          0          1
488              CIRCULAR     0.75       0          0          0          1
490              CIRCULAR     0.82       0          0          0          1
416              CIRCULAR     2.44       0          0          0          1
493              CIRCULAR     0.75       0          0          0          1
495              CIRCULAR     0.68       0          0          0          1
497              CIRCULAR     0.68       0          0          0          1
352_2            CIRCULAR     1.52       0          0          0          1
505              CIRCULAR     2.74       0          0          0          1
531              CIRCULAR     0.75       0          0          0          1
534              CIRCULAR     0.68       0          0          0          1
535              CIRCULAR     0.68       0          0          0          1
536              CIRCULAR     0.53       0          0          0          1
537              CIRCULAR     0.53       0          0          0          1
543              RECT_OPEN    1.00       0.90       0          0

[LOSSES]
;;Link           Inlet      Outlet     Average    Flap Gate
;;-------------- ---------- ---------- ---------- ----------
338              0          0          0          NO
340              0          0          0          NO
342              0          0          0          NO
344              0          0          0          NO
346              0          0          0          NO
348              0          0          0          NO
382              0          0          0          NO
406              0          0          0          NO
408              0          0          0          NO
410              0          0          0          NO
412              0          0          0          NO
414              0          0          0          NO
422              0          0          0          NO
424              0          0          0          NO
426              0          0          0          NO
428              0          0          0          NO
430              0          0          0          NO
432              0          0          0          NO
434              0          0          0          NO
436              0          0          0          NO
438              0          0          0          NO
440              0          0          0          NO
454              0          0          0          NO
456              0          0          0          NO
457              0          0          0          NO
460              0          0          0          NO
462              0          0          0          NO
463              0          0          0          NO
465              0          0          0          NO
467              0          0          0          NO
470              0          0          0          NO
472              0          0          0          NO
350              0          0          0          NO
480              0          0          0          NO
352              0          0          0          NO
483              0          0          0          NO
488              0          0          0          NO
490              0          0          0          NO
416              0          0          0          NO
493              0          0          0          NO
495              0          0          0          NO
497              0          0          0          NO
352_2            0          0          0          NO
505              0          0          0          NO
531              0          0          0          NO
534              0          0          0          NO
535              0          0          0          NO
536              0          0          0          NO
537              0          0          0          NO

[INFLOWS]
;;Node           Constituent  Time Series      Type     Mfactor  Sfactor  Baseline Pattern
;;-------------- ------------ ---------------- -------- -------- -------- -------- --------
;; SYNTHETIC TEST INFLOWS — the source .xp carried no constant inflows
;; and RUNF hydrology is not converted; 0.03 CMS is applied at each
;; headwater node so the network runs wet for QA. Replace with real
;; hydrology or inflow hydrographs before using results.
9109             FLOW         ""               FLOW     1.0      1.0      0.03
9059             FLOW         ""               FLOW     1.0      1.0      0.03
8061             FLOW         ""               FLOW     1.0      1.0      0.03
9069             FLOW         ""               FLOW     1.0      1.0      0.03
9081             FLOW         ""               FLOW     1.0      1.0      0.03
8081             FLOW         ""               FLOW     1.0      1.0      0.03
9063             FLOW         ""               FLOW     1.0      1.0      0.03
9065             FLOW         ""               FLOW     1.0      1.0      0.03
9171             FLOW         ""               FLOW     1.0      1.0      0.03
9079             FLOW         ""               FLOW     1.0      1.0      0.03
477              FLOW         ""               FLOW     1.0      1.0      0.03

[COORDINATES]
;;Node           X-Coord            Y-Coord
;;-------------- ------------------ ------------------
109              516.86             7071.19           
111              664.96             7480.02           
113              918.42             7961.42           
115              1198.42            8681.42           
119              1358.20            9313.72           
121              1473.21            10151.48          
123              1581.58            10741.34          
127              1649.79            11878.01          
789              805.02             12544.16          
9109             374.18             6418.19           
59               1899.71            6599.22           
61               2249.42            6488.01           
463              2198.42            7075.42           
63               2198.42            7712.42           
65               2198.42            8459.42           
2305             2198.42            9069.42           
67               2398.42            9429.42           
69               2558.42            9706.42           
71               2668.54            10143.78          
73               2597.14            10566.55          
75               2572.86            10838.66          
275              2578.42            11367.42          
79               2491.77            12021.45          
81               2471.77            12354.45          
85               2039.10            12624.32          
89               1546.11            12845.70          
888              1075.03            12839.57          
9059             1013.40            6334.10           
8061             3449.42            6202.56           
9061             2723.92            6358.95           
9069             2023.16            10022.30          
471              3583.72            8597.49           
371              3629.05            8965.80           
271              3445.28            9289.05           
171              3147.93            9669.29           
9081             3418.42            12392.42          
8081             1978.94            12017.20          
2123             1644.10            11415.35          
2127             1263.72            12189.06          
9063             2729.93            7722.59           
9065             1938.42            8459.42           
472              3532.42            8269.46           
9171             3390.87            10253.17          
9079             3058.42            12059.42          
3127             1780.58            12306.60          
473              3528.11            8043.96           
474              3836.81            7723.84           
475              3830.40            7401.99           
476              3841.23            7094.56           
477              3848.63            6570.57           
9109.1           489.47             6899.24           

[MAP]
DIMENSIONS 374.18 6202.56 3848.63 12845.70
Units      None

[REPORT]
SUBCATCHMENTS ALL
NODES ALL
LINKS ALL
