;; SWMM5 .inp converted from XPSWMM .xp file
;; Generated by XPSWMM Card Reader
;; Source format: XP_CARD | Original title: DID Tidal Outlet Example
;; Links parsed from source: 8 | Routable in this .inp: 8

[TITLE]
;;Project Title/Notes
DID Tidal Outlet Example

[OPTIONS]
FLOW_UNITS           CMS
INFILTRATION         HORTON
FLOW_ROUTING         DYNWAVE
LINK_OFFSETS         DEPTH
MIN_SLOPE            0.0
ALLOW_PONDING        NO
SKIP_STEADY_STATE    NO
ROUTING_STEP         00:00:10
VARIABLE_STEP        0.75
INERTIAL_DAMPING     PARTIAL
NORMAL_FLOW_LIMITED  BOTH
START_DATE           01/01/2001
START_TIME           00:00:00
REPORT_START_DATE    01/01/2001
REPORT_START_TIME    00:00:00
END_DATE             01/02/2001
END_TIME             00:00:00
SWEEP_START          01/01
SWEEP_END            12/31
DRY_DAYS             0
REPORT_STEP          00:15:00
WET_STEP             00:05:00
DRY_STEP             01:00:00

[JUNCTIONS]
;;Name           Elev       MaxDepth   InitDepth  SurDepth   Aponded
;;-------------- ---------- ---------- ---------- ---------- ----------
Inlet1           25.00      0          0          0          0
Confl            25.00      0          0          0          0
Orif-i           25.00      0          0          0          0
Mid              25.00      0          0          0          0
Inlet3           25.00      0          0          0          0
Inlet2           25.00      0          0          0          0
Inlet4           25.00      0          0          0          0
Orif-o           25.00      0          0          0          0

[OUTFALLS]
;;Name           Elev       Type       Stage      Gated
;;-------------- ---------- ---------- ---------- -----
Outlet           25.00      FREE                  NO

[CONDUITS]
;;Name           From             To               Length     Roughness  InOffset   OutOffset  InitFlow   MaxFlow
;;-------------- ---------------- ---------------- ---------- ---------- ---------- ---------- ---------- ----------
Creek1           Inlet1           Confl            100.00     0.0130     4.00       3.00       0          0
Upper            Confl            Orif-i           1000.00    0.0130     3.00       2.00       0          0
Tidal2           Orif-o           Mid              1000.00    0.0130     2.00       1.00       0          0
Tidal1           Mid              Outlet           1000.00    0.0130     1.00       0          0          0
Creek3           Inlet3           Orif-i           100.00     0.0130     3.00       2.00       0          0
Creek2           Inlet2           Confl            100.00     0.0130     4.00       3.00       0          0
Creek4           Inlet4           Orif-i           100.00     0.0130     3.00       2.00       0          0
154.1            Orif-i           Orif-o           100.00     0.0130     3.00       2.00       0          0

[XSECTIONS]
;;Link           Shape        Geom1      Geom2      Geom3      Geom4      Barrels
;;-------------- ------------ ---------- ---------- ---------- ---------- ----------
Creek1           TRAPEZOIDAL  20.00      10.00      2          2          1
Upper            TRAPEZOIDAL  20.00      10.00      2          2          1
Tidal2           TRAPEZOIDAL  20.00      10.00      2          2          1
Tidal1           TRAPEZOIDAL  20.00      10.00      2          2          1
Creek3           TRAPEZOIDAL  20.00      10.00      2          2          1
Creek2           TRAPEZOIDAL  20.00      10.00      2          2          1
Creek4           TRAPEZOIDAL  20.00      10.00      2          2          1
154.1            TRAPEZOIDAL  20.00      10.00      2          2          1

[LOSSES]
;;Link           Inlet      Outlet     Average    Flap Gate
;;-------------- ---------- ---------- ---------- ----------
Creek1           0          0          0          NO
Upper            0          0          0          NO
Tidal2           0          0          0          NO
Tidal1           0          0          0          NO
Creek3           0          0          0          NO
Creek2           0          0          0          NO
Creek4           0          0          0          NO
154.1            0          0          0          NO

[INFLOWS]
;;Node           Constituent  Time Series      Type     Mfactor  Sfactor  Baseline Pattern
;;-------------- ------------ ---------------- -------- -------- -------- -------- --------
;; SYNTHETIC TEST INFLOWS — the source .xp carried no constant inflows
;; and RUNF hydrology is not converted; 0.03 CMS is applied at each
;; headwater node so the network runs wet for QA. Replace with real
;; hydrology or inflow hydrographs before using results.
Inlet1           FLOW         ""               FLOW     1.0      1.0      0.03
Inlet3           FLOW         ""               FLOW     1.0      1.0      0.03
Inlet2           FLOW         ""               FLOW     1.0      1.0      0.03
Inlet4           FLOW         ""               FLOW     1.0      1.0      0.03

[COORDINATES]
;;Node           X-Coord            Y-Coord
;;-------------- ------------------ ------------------
Inlet1           8.24               217.59            
Confl            44.94              184.22            
Orif-i           41.97              137.97            
Mid              50.85              48.11             
Outlet           22.81              11.98             
Inlet3           2.29               161.53            
Inlet2           90.07              207.80            
Inlet4           84.12              148.18            
Orif-o           59.79              92.19             

[MAP]
DIMENSIONS 2.29 11.98 90.07 217.59
Units      None

[REPORT]
SUBCATCHMENTS ALL
NODES ALL
LINKS ALL
