;; SWMM5 .inp converted from XPSWMM .xp file
;; Generated by XPSWMM Card Reader
;; Source format: XP_CARD | Original title: storm evaluation - East Red Deer

[TITLE]
;;Project Title/Notes
storm evaluation - East Red Deer

[OPTIONS]
FLOW_UNITS           CMS
INFILTRATION         HORTON
FLOW_ROUTING         DYNWAVE
LINK_OFFSETS         DEPTH
MIN_SLOPE            0.0
ALLOW_PONDING        NO
SKIP_STEADY_STATE    NO
ROUTING_STEP         00:00:15
VARIABLE_STEP        0.75
INERTIAL_DAMPING     PARTIAL
NORMAL_FLOW_LIMITED  BOTH
MAX_TRIALS           50
HEAD_TOLERANCE       .001
START_DATE           01/01/2001
START_TIME           00:00:00
REPORT_START_DATE    01/01/2001
REPORT_START_TIME    00:00:00
END_DATE             01/02/2001
END_TIME             00:00:00
SWEEP_START          01/01
SWEEP_END            12/31
DRY_DAYS             0
REPORT_STEP          00:15:00
WET_STEP             00:05:00
DRY_STEP             01:00:00

[JUNCTIONS]
;;Name           Elev       MaxDepth   InitDepth  SurDepth   Aponded
;;-------------- ---------- ---------- ---------- ---------- ----------
n3               858.04     0          0          0          0
n2               858.00     0          0          0          0
n8               858.00     0          0          0          0
n5               857.82     0          0          0          0
n4               857.66     0          0          0          0
n9               857.62     0          0          0          0
n10              857.53     0          0          0          0
n11              857.61     0          0          0          0
n12              857.73     0          0          0          0
n18              857.49     0          0          0          0
n20              857.50     0          0          0          0
n13              857.65     0          0          0          0
n21              857.91     0          0          0          0
n17b             857.86     0          0          0          0
n17a             858.07     0          0          0          0
n16              857.82     0          0          0          0
n15              857.63     0          0          0          0
n14              857.80     0          0          0          0
n19              857.25     0          0          0          0

[OUTFALLS]
;;Name           Elev       Type       Stage      Gated
;;-------------- ---------- ---------- ---------- -----
n1-OUTFALL       858.00     FREE                  NO

[STORAGE]
;;Name           Elev       MaxDepth   InitDepth  Shape      Curve/Params
;;-------------- ---------- ---------- ---------- ---------- ----------
n7               859.00     10.00      0          FUNCTIONAL 1000.00 0          0
n6               858.60     10.00      0          FUNCTIONAL 1000.00 0          0
n26              858.08     1.00       0          FUNCTIONAL 1000.00 0          0
n30              858.70     1.00       0          FUNCTIONAL 1000.00 0          0
n31              858.80     1.00       0          FUNCTIONAL 1000.00 0          0
n32              858.64     1.00       0          FUNCTIONAL 1000.00 0          0
n33              858.33     10.00      0          FUNCTIONAL 1000.00 0          0
n34              858.80     10.00      0          FUNCTIONAL 1000.00 0          0
n35              858.66     10.00      0          FUNCTIONAL 1000.00 0          0
n27              858.42     10.00      0          FUNCTIONAL 1000.00 0          0
n28              857.57     10.00      0          FUNCTIONAL 1000.00 0          0
n29              858.28     10.00      0          FUNCTIONAL 1000.00 0          0
n22              858.34     10.00      0          FUNCTIONAL 1000.00 0          0

[CONDUITS]
;;Name           From             To               Length     Roughness  InOffset   OutOffset  InitFlow   MaxFlow
;;-------------- ---------------- ---------------- ---------- ---------- ---------- ---------- ---------- ----------
548              n3               n2               76.17      0.0130     854.92     854.84     0          0
549              n2               n1-OUTFALL       30.00      0.0130     854.84     854.84     0          0
555              n8               n3               60.99      0.0130     854.99     854.92     0          0
565              n7               n5               52.39      0.0130     856.19     855.97     0          0
567              n5               n4               78.03      0.0130     855.50     855.28     0          0
568              n4               n3               63.70      0.0130     855.25     855.08     0          0
566              n6               n5               39.62      0.0130     855.70     855.56     0          0
584              n35              n34              36.58      0.0130     857.95     857.28     0          0
583              n34              n33              66.05      0.0130     857.28     856.95     0          0
582              n33              n32              58.52      0.0130     856.90     856.63     0          0
581              n32              n31              58.53      0.0130     856.63     856.62     0          0
580              n31              n30              30.00      0.0130     856.62     856.41     0          0
579              n30              n26              90.53      0.0130     856.41     856.16     0          0
588              n22              n29              108.51     0.0130     857.21     856.85     0          0
587              n29              n28              68.67      0.0130     856.85     856.62     0          0
586              n28              n27              62.18      0.0130     856.62     856.44     0          0
585              n27              n26              70.86      0.0130     856.44     856.22     0          0
578              n26              n21              104.25     0.0130     856.04     855.64     0          0
577              n21              n13              30.00      0.0130     855.64     855.59     0          0
589              n17b             n17a             30.00      0.0130     856.13     856.10     0          0
590              n17a             n16              30.00      0.0130     856.10     856.05     0          0
592              n16              n15              30.00      0.0130     856.05     856.03     0          0
593              n15              n14              30.00      0.0130     856.03     856.00     0          0
594              n14              n13              30.00      0.0130     856.00     855.96     0          0
575              n13              n20              30.00      0.0130     855.59     855.55     0          0
574              n20              n18              30.00      0.0130     855.55     855.50     0          0
573              n18              n12              30.00      0.0130     855.50     855.48     0          0
572              n12              n11              30.42      0.0130     855.48     855.44     0          0
571              n11              n10              43.42      0.0130     855.44     855.39     0          0
570              n10              n9               59.30      0.0130     855.39     855.32     0          0
569              n9               n8               152.40     0.0130     855.29     854.99     0          0
595              n19              n18              51.21      0.0130     856.11     855.85     0          0

[XSECTIONS]
;;Link           Shape        Geom1      Geom2      Geom3      Geom4      Barrels
;;-------------- ------------ ---------- ---------- ---------- ---------- ----------
548              CIRCULAR     0.75       0          0          0          1
549              CIRCULAR     0.75       0          0          0          1
555              CIRCULAR     0.75       0          0          0          1
565              CIRCULAR     0.20       0          0          0          1
567              CIRCULAR     0.38       0          0          0          1
568              CIRCULAR     0.38       0          0          0          1
566              CIRCULAR     0.20       0          0          0          1
584              CIRCULAR     0.25       0          0          0          1
583              CIRCULAR     0.20       0          0          0          1
582              CIRCULAR     0.30       0          0          0          1
581              CIRCULAR     0.30       0          0          0          1
580              CIRCULAR     0.34       0          0          0          1
579              CIRCULAR     0.38       0          0          0          1
588              CIRCULAR     0.25       0          0          0          1
587              CIRCULAR     0.25       0          0          0          1
586              CIRCULAR     0.38       0          0          0          1
585              CIRCULAR     0.38       0          0          0          1
578              CIRCULAR     0.60       0          0          0          1
577              CIRCULAR     0.81       0          0          0          1
589              CIRCULAR     0.40       0          0          0          1
590              CIRCULAR     0.38       0          0          0          1
592              CIRCULAR     0.42       0          0          0          1
593              CIRCULAR     0.40       0          0          0          1
594              CIRCULAR     0.44       0          0          0          1
575              CIRCULAR     0.89       0          0          0          1
574              CIRCULAR     0.78       0          0          0          1
573              CIRCULAR     0.82       0          0          0          1
572              CIRCULAR     0.75       0          0          0          1
571              CIRCULAR     0.75       0          0          0          1
570              CIRCULAR     0.75       0          0          0          1
569              CIRCULAR     0.75       0          0          0          1
595              CIRCULAR     0.30       0          0          0          1

[LOSSES]
;;Link           Inlet      Outlet     Average    Flap Gate
;;-------------- ---------- ---------- ---------- ----------
548              0          0          0          NO
549              0          0          0          NO
555              0          0          0          NO
565              0          0          0          NO
567              0          0          0          NO
568              0          0          0          NO
566              0          0          0          NO
584              0          0          0          NO
583              0          0          0          NO
582              0          0          0          NO
581              0          0          0          NO
580              0          0          0          NO
579              0          0          0          NO
588              0          0          0          NO
587              0          0          0          NO
586              0          0          0          NO
585              0          0          0          NO
578              0          0          0          NO
577              0          0          0          NO
589              0          0          0          NO
590              0          0          0          NO
592              0          0          0          NO
593              0          0          0          NO
594              0          0          0          NO
575              0          0          0          NO
574              0          0          0          NO
573              0          0          0          NO
572              0          0          0          NO
571              0          0          0          NO
570              0          0          0          NO
569              0          0          0          NO
595              0          0          0          NO

[COORDINATES]
;;Node           X-Coord            Y-Coord
;;-------------- ------------------ ------------------
n3               -2619.54           -1840.50          
n2               -2560.68           -1667.80          
n1-OUTFALL       -2454.00           -1647.54          
n8               -2675.42           -1988.11          
n7               -3146.11           -1898.95          
n6               -2978.23           -1702.05          
n5               -3058.36           -1794.33          
n4               -2814.81           -1794.54          
n9               -2951.01           -2243.11          
n10              -3167.14           -2254.51          
n11              -3255.32           -2254.44          
n12              -3328.00           -2257.56          
n18              -3404.19           -2256.59          
n20              -3483.18           -2257.56          
n13              -3544.09           -2258.64          
n21              -3610.51           -2258.64          
n26              -3780.83           -2259.43          
n30              -4024.68           -2260.40          
n31              -4060.95           -2295.01          
n32              -4058.75           -2475.10          
n33              -4058.67           -2648.64          
n34              -4058.58           -2825.52          
n35              -4161.48           -2825.52          
n27              -3783.00           -2431.31          
n28              -3783.17           -2620.54          
n29              -3783.00           -2819.34          
n22              -3782.91           -3037.53          
n17b             -3661.09           -2424.03          
n17a             -3584.58           -2423.55          
n16              -3539.39           -2383.22          
n15              -3512.06           -2339.23          
n14              -3571.69           -2295.18          
n19              -3404.37           -2136.88          

[MAP]
DIMENSIONS -4161.48 -3037.53 -2454.00 -1647.54
Units      None

[REPORT]
SUBCATCHMENTS ALL
NODES ALL
LINKS ALL
