;; SWMM5 .inp converted from XPSWMM .xp file
;; Generated by XPSWMM Card Reader
;; Source format: XP_CARD | Original title: (none)
;; Links parsed from source: 403 | Routable in this .inp: 403

[TITLE]
;;Project Title/Notes
Converted from XPSWMM .xp file

[OPTIONS]
FLOW_UNITS           CFS
INFILTRATION         HORTON
FLOW_ROUTING         DYNWAVE
LINK_OFFSETS         DEPTH
MIN_SLOPE            0.0
ALLOW_PONDING        NO
SKIP_STEADY_STATE    NO
INERTIAL_DAMPING     PARTIAL
NORMAL_FLOW_LIMITED  BOTH
START_DATE           01/01/2001
START_TIME           00:00:00
REPORT_START_DATE    01/01/2001
REPORT_START_TIME    00:00:00
END_DATE             01/02/2001
END_TIME             00:00:00
SWEEP_START          01/01
SWEEP_END            12/31
DRY_DAYS             0
REPORT_STEP          00:15:00
WET_STEP             00:05:00
DRY_STEP             01:00:00

[JUNCTIONS]
;;Name           Elev       MaxDepth   InitDepth  SurDepth   Aponded
;;-------------- ---------- ---------- ---------- ---------- ----------
1.00             0          0          0          0          0
1.01             0          0          0          0          0
1.02             0          0          0          0          0
1.03J            0          0          0          0          0
1.04J            0          0          0          0          0
1.05             0          0          0          0          0
1.06             0          0          0          0          0
1.07J            0          0          0          0          0
1.08             0          0          0          0          0
1.09E            0          0          0          0          0
1.10             0          0          0          0          0
1.11             0          0          0          0          0
1.12             0          0          0          0          0
12.00            0          0          0          0          0
19.00            0          0          0          0          0
89.00            0          0          0          0          0
88.00            0          0          0          0          0
94.00            0          0          0          0          0
87.00            0          0          0          0          0
95.02            0          0          0          0          0
95.01J           0          0          0          0          0
95.00            0          0          0          0          0
96.00            0          0          0          0          0
99.00            0          0          0          0          0
18.01            0          0          0          0          0
18.00            0          0          0          0          0
98.01J           0          0          0          0          0
98.00            0          0          0          0          0
97.00            0          0          0          0          0
55.00J           0          0          0          0          0
8.15             0          0          0          0          0
8.14J            0          0          0          0          0
8.13J            0          0          0          0          0
10.06            0          0          0          0          0
9.09             0          0          0          0          0
9.08             0          0          0          0          0
9.07             0          0          0          0          0
9.06J            0          0          0          0          0
94.00_2          0          0          0          0          0
9.05             0          0          0          0          0
93.00            0          0          0          0          0
9.04J            0          0          0          0          0
9.03             0          0          0          0          0
92.01            0          0          0          0          0
92.00            0          0          0          0          0
9.02             0          0          0          0          0
9.01             0          0          0          0          0
91.00            0          0          0          0          0
86.00            0          0          0          0          0
10.05            0          0          0          0          0
10.04            0          0          0          0          0
10.02            0          0          0          0          0
10.01J           0          0          0          0          0
10.00            0          0          0          0          0
11.00            0          0          0          0          0
8.12J            0          0          0          0          0
8.11             0          0          0          0          0
8.10J            0          0          0          0          0
8.09             0          0          0          0          0
84.00            0          0          0          0          0
85.00            0          0          0          0          0
83.00            0          0          0          0          0
82.03            0          0          0          0          0
82.02            0          0          0          0          0
82.01            0          0          0          0          0
8.07             0          0          0          0          0
8.06E            0          0          0          0          0
8.05             0          0          0          0          0
8.04             0          0          0          0          0
8.08             0          0          0          0          0
8.03             0          0          0          0          0
8.02J            0          0          0          0          0
8.01             0          0          0          0          0
8.00             0          0          0          0          0
80.02            0          0          0          0          0
80.01J           0          0          0          0          0
80.00            0          0          0          0          0
81.00            0          0          0          0          0
1.14J            0          0          0          0          0
1.15J            0          0          0          0          0
1.16             0          0          0          0          0
1.17E            0          0          0          0          0
1.18             0          0          0          0          0
1.19             0          0          0          0          0
1.20J            0          0          0          0          0
1.21             0          0          0          0          0
13.05            0          0          0          0          0
13.04J           0          0          0          0          0
14.00            0          0          0          0          0
13.03            0          0          0          0          0
13.02J           0          0          0          0          0
15.00            0          0          0          0          0
13.01            0          0          0          0          0
13.00            0          0          0          0          0
1.13E            0          0          0          0          0
16.02J           0          0          0          0          0
16.01            0          0          0          0          0
16.00            0          0          0          0          0
30.00            0          0          0          0          0
64.01            0          0          0          0          0
64.00            0          0          0          0          0
1.22             0          0          0          0          0
1.23             0          0          0          0          0
1.24E            0          0          0          0          0
1.25             0          0          0          0          0
1.26             0          0          0          0          0
1.27E            0          0          0          0          0
5.05             0          0          0          0          0
5.04             0          0          0          0          0
50.00            0          0          0          0          0
5.03             0          0          0          0          0
5.02             0          0          0          0          0
5.01             0          0          0          0          0
5.00             0          0          0          0          0
17.00            0          0          0          0          0
4.07J            0          0          0          0          0
4.06             0          0          0          0          0
4.05             0          0          0          0          0
4.04             0          0          0          0          0
4.03             0          0          0          0          0
4.02             0          0          0          0          0
4.01             0          0          0          0          0
4.00             0          0          0          0          0
40.01            0          0          0          0          0
40.00            0          0          0          0          0
6.14             0          0          0          0          0
6.13             0          0          0          0          0
6.12             0          0          0          0          0
6.11             0          0          0          0          0
6.10J            0          0          0          0          0
63.00            0          0          0          0          0
62.00            0          0          0          0          0
6.09             0          0          0          0          0
6.08             0          0          0          0          0
65.09            0          0          0          0          0
65.08            0          0          0          0          0
65.07J           0          0          0          0          0
65.06            0          0          0          0          0
65.05E           0          0          0          0          0
65.04            0          0          0          0          0
65.03J           0          0          0          0          0
65.02            0          0          0          0          0
65.01            0          0          0          0          0
65.00            0          0          0          0          0
68.00            0          0          0          0          0
66.01            0          0          0          0          0
66.00            0          0          0          0          0
67.02            0          0          0          0          0
67.01            0          0          0          0          0
67.00            0          0          0          0          0
6.07             0          0          0          0          0
61.00            0          0          0          0          0
6.06             0          0          0          0          0
6.05             0          0          0          0          0
6.04             0          0          0          0          0
6.03E            0          0          0          0          0
6.02             0          0          0          0          0
6.01             0          0          0          0          0
6.00             0          0          0          0          0
60.01            0          0          0          0          0
60.00            0          0          0          0          0
1.28J            0          0          0          0          0
1.29J            0          0          0          0          0
1.30             0          0          0          0          0
1.31J            0          0          0          0          0
1.32             0          0          0          0          0
1.33E            0          0          0          0          0
1.34J            0          0          0          0          0
1.35             0          0          0          0          0
1.36J            0          0          0          0          0
2.22             0          0          0          0          0
41.00            0          0          0          0          0
41.01            0          0          0          0          0
42.00            0          0          0          0          0
43.00            0          0          0          0          0
45.05            0          0          0          0          0
45.04J           0          0          0          0          0
47.00            0          0          0          0          0
45.03J           0          0          0          0          0
46.00            0          0          0          0          0
45.02            0          0          0          0          0
45.01            0          0          0          0          0
45.00E           0          0          0          0          0
48.00            0          0          0          0          0
2.21J            0          0          0          0          0
33.00            0          0          0          0          0
2.20             0          0          0          0          0
82.00            0          0          0          0          0
69.00            0          0          0          0          0
3.07             0          0          0          0          0
3.06E            0          0          0          0          0
3.05             0          0          0          0          0
3.04             0          0          0          0          0
32.00            0          0          0          0          0
3.03J            0          0          0          0          0
31.00            0          0          0          0          0
3.02             0          0          0          0          0
3.01             0          0          0          0          0
3.00             0          0          0          0          0
2.19             0          0          0          0          0
2.18             0          0          0          0          0
2.17             0          0          0          0          0
2.15E            0          0          0          0          0
2.14             0          0          0          0          0
2.13J            0          0          0          0          0
34.02            0          0          0          0          0
34.01J           0          0          0          0          0
34.00            0          0          0          0          0
2.12             0          0          0          0          0
2.11E            0          0          0          0          0
36.00            0          0          0          0          0
2.09J            0          0          0          0          0
37.00            0          0          0          0          0
2.08             0          0          0          0          0
2.07J            0          0          0          0          0
2.06             0          0          0          0          0
25.07            0          0          0          0          0
2.05J            0          0          0          0          0
2.04             0          0          0          0          0
2.03J            0          0          0          0          0
2.02             0          0          0          0          0
2.01J            0          0          0          0          0
2.00             0          0          0          0          0
20.00            0          0          0          0          0
21.02            0          0          0          0          0
23.02            0          0          0          0          0
23.01            0          0          0          0          0
23.00            0          0          0          0          0
21.01J           0          0          0          0          0
22.00            0          0          0          0          0
21.00            0          0          0          0          0
35.00            0          0          0          0          0
25.06J           0          0          0          0          0
28.00            0          0          0          0          0
25.05J           0          0          0          0          0
27.00            0          0          0          0          0
25.04            0          0          0          0          0
25.03J           0          0          0          0          0
24.01            0          0          0          0          0
24.00            0          0          0          0          0
25.02            0          0          0          0          0
25.01J           0          0          0          0          0
26.00            0          0          0          0          0
25.00            0          0          0          0          0
10.03E           0          0          0          0          0
2.10             0          0          0          0          0
2.16             0          0          0          0          0
1.00L            0          0          0          0          0
12.00L           0          0          0          0          0
1.01L            0          0          0          0          0
19.00L           0          0          0          0          0
1.02L            0          0          0          0          0
89.00L           0          0          0          0          0
88.00L           0          0          0          0          0
94.00L           0          0          0          0          0
87.00L           0          0          0          0          0
1.05l            0          0          0          0          0
95.00l           0          0          0          0          0
96.00l           0          0          0          0          0
95.02l           0          0          0          0          0
1.06l            0          0          0          0          0
99.00l           0          0          0          0          0
18.00l           0          0          0          0          0
18.01l           0          0          0          0          0
1.08l            0          0          0          0          0
98.00l           0          0          0          0          0
97.00l           0          0          0          0          0
1.10l            0          0          0          0          0
1.11l            0          0          0          0          0
9.01l            0          0          0          0          0
91.00l           0          0          0          0          0
9.02l            0          0          0          0          0
9.03l            0          0          0          0          0
92.00l           0          0          0          0          0
92.01l           0          0          0          0          0
9.05l            0          0          0          0          0
93.00l           0          0          0          0          0
94.00l_2         0          0          0          0          0
9.07l            0          0          0          0          0
9.08l            0          0          0          0          0
9.09l            0          0          0          0          0
8.00l            0          0          0          0          0
8.01l            0          0          0          0          0
80.00l           0          0          0          0          0
81.00l           0          0          0          0          0
80.02l           0          0          0          0          0
8.03l            0          0          0          0          0
8.04l            0          0          0          0          0
8.05l            0          0          0          0          0
8.07l            0          0          0          0          0
8.08l            0          0          0          0          0
82.00l           0          0          0          0          0
82.01l           0          0          0          0          0
82.02l           0          0          0          0          0
82.03l           0          0          0          0          0
8.09l            0          0          0          0          0
83.00l           0          0          0          0          0
8.11l            0          0          0          0          0
85.00l           0          0          0          0          0
84.00l           0          0          0          0          0
10.00l           0          0          0          0          0
11.00l           0          0          0          0          0
10.02l           0          0          0          0          0
10.04l           0          0          0          0          0
10.05l           0          0          0          0          0
10.06l           0          0          0          0          0
8.15l            0          0          0          0          0
86.00l           0          0          0          0          0
1.12l            0          0          0          0          0
67.00l           0          0          0          0          0
67.01l           0          0          0          0          0
68.00l           0          0          0          0          0
66.00l           0          0          0          0          0
66.01l           0          0          0          0          0
65.00l           0          0          0          0          0
65.01l           0          0          0          0          0
65.02l           0          0          0          0          0
67.02l           0          0          0          0          0
65.04l           0          0          0          0          0
65.06l           0          0          0          0          0
65.08l           0          0          0          0          0
69.00l           0          0          0          0          0
65.09l           0          0          0          0          0
6.14l            0          0          0          0          0
6.00l            0          0          0          0          0
6.01l            0          0          0          0          0
60.00l           0          0          0          0          0
60.01l           0          0          0          0          0
6.02l            0          0          0          0          0
6.04l            0          0          0          0          0
6.05l            0          0          0          0          0
6.06l            0          0          0          0          0
61.00l           0          0          0          0          0
6.07l            0          0          0          0          0
6.08l            0          0          0          0          0
6.09l            0          0          0          0          0
62.00l           0          0          0          0          0
63.00l           0          0          0          0          0
6.11l            0          0          0          0          0
6.12l            0          0          0          0          0
6.13l            0          0          0          0          0
64.01l           0          0          0          0          0
64.00l           0          0          0          0          0
30.00l           0          0          0          0          0
1.16l            0          0          0          0          0
16.00l           0          0          0          0          0
16.01l           0          0          0          0          0
17.00l           0          0          0          0          0
1.18l            0          0          0          0          0
1.19l            0          0          0          0          0
13.00l           0          0          0          0          0
13.01l           0          0          0          0          0
15.00l           0          0          0          0          0
13.03l           0          0          0          0          0
14.00l           0          0          0          0          0
13.05l           0          0          0          0          0
1.21l            0          0          0          0          0
1.22l            0          0          0          0          0
5.00l            0          0          0          0          0
5.01l            0          0          0          0          0
5.02l            0          0          0          0          0
5.03l            0          0          0          0          0
50.00l           0          0          0          0          0
5.04l            0          0          0          0          0
5.05l            0          0          0          0          0
1.23l            0          0          0          0          0
4.00l            0          0          0          0          0
4.01l            0          0          0          0          0
4.02l            0          0          0          0          0
4.03l            0          0          0          0          0
4.04l            0          0          0          0          0
4.05l            0          0          0          0          0
4.06l            0          0          0          0          0
40.00l           0          0          0          0          0
40.01l           0          0          0          0          0
1.25l            0          0          0          0          0
1.26l            0          0          0          0          0
26.00l           0          0          0          0          0
25.02l           0          0          0          0          0
24.01l           0          0          0          0          0
25.04l           0          0          0          0          0
27.00l           0          0          0          0          0
28.00l           0          0          0          0          0
25.07l           0          0          0          0          0
2.08l            0          0          0          0          0
2.06l            0          0          0          0          0
23.00l           0          0          0          0          0
21.00l           0          0          0          0          0
23.01l           0          0          0          0          0
22.00l           0          0          0          0          0
21.02l           0          0          0          0          0
2.04l            0          0          0          0          0
2.00l            0          0          0          0          0
21.00l_2         0          0          0          0          0
2.02l            0          0          0          0          0
23.02l           0          0          0          0          0
36.00l           0          0          0          0          0
37.00l           0          0          0          0          0
25.00l           0          0          0          0          0
24.00l           0          0          0          0          0
HW_0_287         0          0          0          0          0
HW_0_288         0          0          0          0          0
Node_1003392     0          0          0          0          0
HW_0_289         0          0          0          0          0
Node_1005389     0          0          0          0          0
HW_0_290         0          0          0          0          0
Node_1007358     0          0          0          0          0
HW_0_291         0          0          0          0          0
Node_1009355     0          0          0          0          0
HW_0_292         0          0          0          0          0
Node_1011354     0          0          0          0          0
HW_0_293         0          0          0          0          0
Node_1013352     0          0          0          0          0
HW_0_294         0          0          0          0          0
Node_1015357     0          0          0          0          0
HW_0_295         0          0          0          0          0
Node_1017731     0          0          0          0          0
HW_0_296         0          0          0          0          0
Node_1019350     0          0          0          0          0
HW_0_297         0          0          0          0          0
Node_1021349     0          0          0          0          0
HW_0_298         0          0          0          0          0
Node_1023347     0          0          0          0          0
HW_0_299         0          0          0          0          0
Node_1025343     0          0          0          0          0
HW_0_300         0          0          0          0          0
Node_1027346     0          0          0          0          0
HW_0_301         0          0          0          0          0
Node_1029341     0          0          0          0          0
HW_0_302         0          0          0          0          0
Node_1031345     0          0          0          0          0
HW_0_303         0          0          0          0          0
Node_1033344     0          0          0          0          0
HW_0_304         0          0          0          0          0
Node_1035332     0          0          0          0          0
HW_0_305         0          0          0          0          0
Node_1037333     0          0          0          0          0
HW_0_306         0          0          0          0          0
Node_1039330     0          0          0          0          0
HW_0_307         0          0          0          0          0
Node_1041329     0          0          0          0          0
HW_0_308         0          0          0          0          0
Node_1043328     0          0          0          0          0
HW_0_309         0          0          0          0          0
Node_1045289     0          0          0          0          0
HW_0_310         0          0          0          0          0
Node_1047285     0          0          0          0          0
HW_0_311         0          0          0          0          0
Node_1049327     0          0          0          0          0
HW_0_312         0          0          0          0          0
Node_1051215     0          0          0          0          0
HW_0_313         0          0          0          0          0
Node_1053549     0          0          0          0          0
HW_0_314         0          0          0          0          0
Node_1055548     0          0          0          0          0
HW_0_315         0          0          0          0          0
Node_1057543     0          0          0          0          0
HW_0_316         0          0          0          0          0
Node_1059545     0          0          0          0          0
HW_0_317         0          0          0          0          0
Node_1061544     0          0          0          0          0
HW_0_318         0          0          0          0          0
Node_1063542     0          0          0          0          0
HW_0_319         0          0          0          0          0
Node_1065541     0          0          0          0          0
HW_0_320         0          0          0          0          0
Node_1067540     0          0          0          0          0
HW_0_321         0          0          0          0          0
Node_1069547     0          0          0          0          0
HW_0_322         0          0          0          0          0
Node_1071538     0          0          0          0          0
HW_0_323         0          0          0          0          0
Node_1073536     0          0          0          0          0
HW_0_324         0          0          0          0          0
Node_1075534     0          0          0          0          0
HW_0_325         0          0          0          0          0
Node_1077734     0          0          0          0          0
HW_0_326         0          0          0          0          0
Node_1079533     0          0          0          0          0
HW_0_327         0          0          0          0          0
Node_1081514     0          0          0          0          0
HW_0_328         0          0          0          0          0
Node_1083578     0          0          0          0          0
HW_0_329         0          0          0          0          0
Node_1085577     0          0          0          0          0
HW_0_330         0          0          0          0          0
Node_1087581     0          0          0          0          0
HW_0_331         0          0          0          0          0
Node_1090580     0          0          0          0          0
HW_0_332         0          0          0          0          0
Node_1092576     0          0          0          0          0
HW_0_333         0          0          0          0          0
Node_1094574     0          0          0          0          0
HW_0_334         0          0          0          0          0
Node_1096573     0          0          0          0          0
HW_0_335         0          0          0          0          0
Node_1098572     0          0          0          0          0
HW_0_336         0          0          0          0          0
Node_1100571     0          0          0          0          0
HW_0_337         0          0          0          0          0
Node_1102570     0          0          0          0          0
HW_0_338         0          0          0          0          0
Node_1104522     0          0          0          0          0
HW_0_339         0          0          0          0          0
Node_1106521     0          0          0          0          0
HW_0_340         0          0          0          0          0
Node_1109520     0          0          0          0          0
HW_0_341         0          0          0          0          0
Node_1111519     0          0          0          0          0
HW_0_342         0          0          0          0          0
Node_1113517     0          0          0          0          0
HW_0_343         0          0          0          0          0
Node_1115516     0          0          0          0          0
HW_0_344         0          0          0          0          0
Node_1117515     0          0          0          0          0
HW_0_345         0          0          0          0          0
Node_1121461     0          0          0          0          0
HW_0_346         0          0          0          0          0
Node_1120460     0          0          0          0          0
HW_0_347         0          0          0          0          0
Node_1124458     0          0          0          0          0
HW_0_348         0          0          0          0          0
Node_1126404     0          0          0          0          0
HW_0_349         0          0          0          0          0
Node_1128454     0          0          0          0          0
HW_0_350         0          0          0          0          0
Node_1130453     0          0          0          0          0
HW_0_351         0          0          0          0          0
Node_1132491     0          0          0          0          0
HW_0_352         0          0          0          0          0
Node_1134407     0          0          0          0          0
HW_0_353         0          0          0          0          0
Node_1136408     0          0          0          0          0
HW_0_354         0          0          0          0          0
Node_1138422     0          0          0          0          0
HW_0_355         0          0          0          0          0
Node_1140421     0          0          0          0          0
HW_0_356         0          0          0          0          0
Node_1142420     0          0          0          0          0
HW_0_357         0          0          0          0          0
Node_1144418     0          0          0          0          0
HW_0_358         0          0          0          0          0
Node_1146417     0          0          0          0          0
HW_0_359         0          0          0          0          0
Node_1148415     0          0          0          0          0
HW_0_360         0          0          0          0          0
Node_1150410     0          0          0          0          0
HW_0_361         0          0          0          0          0
Node_1152464     0          0          0          0          0
HW_0_362         0          0          0          0          0
Node_1154483     0          0          0          0          0
HW_0_363         0          0          0          0          0
Node_1156482     0          0          0          0          0
HW_0_364         0          0          0          0          0
Node_1158481     0          0          0          0          0
HW_0_365         0          0          0          0          0
Node_1160480     0          0          0          0          0
HW_0_366         0          0          0          0          0
Node_1162479     0          0          0          0          0
HW_0_367         0          0          0          0          0
Node_1163478     0          0          0          0          0
HW_0_368         0          0          0          0          0
Node_1164477     0          0          0          0          0
HW_0_369         0          0          0          0          0
Node_1168465     0          0          0          0          0
HW_0_370         0          0          0          0          0
Node_1170501     0          0          0          0          0
HW_0_371         0          0          0          0          0
Node_1171500     0          0          0          0          0
HW_0_372         0          0          0          0          0
Node_1172499     0          0          0          0          0
HW_0_373         0          0          0          0          0
Node_1173498     0          0          0          0          0
HW_0_374         0          0          0          0          0
Node_1178497     0          0          0          0          0
HW_0_375         0          0          0          0          0
Node_1179496     0          0          0          0          0
HW_0_376         0          0          0          0          0
Node_1182495     0          0          0          0          0
HW_0_377         0          0          0          0          0
Node_1184503     0          0          0          0          0
HW_0_378         0          0          0          0          0
Node_1185502     0          0          0          0          0
HW_0_379         0          0          0          0          0
Node_1188467     0          0          0          0          0
HW_0_380         0          0          0          0          0
Node_1190468     0          0          0          0          0
HW_0_381         0          0          0          0          0
Node_1193835     0          0          0          0          0
HW_0_382         0          0          0          0          0
Node_1194833     0          0          0          0          0
HW_0_383         0          0          0          0          0
Node_1196831     0          0          0          0          0
HW_0_384         0          0          0          0          0
Node_1202829     0          0          0          0          0
HW_0_385         0          0          0          0          0
Node_1203828     0          0          0          0          0
HW_0_386         0          0          0          0          0
Node_1204826     0          0          0          0          0
HW_0_387         0          0          0          0          0
Node_1205774     0          0          0          0          0
HW_0_388         0          0          0          0          0
Node_1210771     0          0          0          0          0
HW_0_389         0          0          0          0          0
Node_1211773     0          0          0          0          0
HW_0_390         0          0          0          0          0
Node_1214785     0          0          0          0          0
HW_0_391         0          0          0          0          0
Node_1216784     0          0          0          0          0
HW_0_392         0          0          0          0          0
Node_1215788     0          0          0          0          0
HW_0_393         0          0          0          0          0
Node_1220787     0          0          0          0          0
HW_0_394         0          0          0          0          0
Node_1222782     0          0          0          0          0
HW_0_395         0          0          0          0          0
Node_1226778     0          0          0          0          0
HW_0_396         0          0          0          0          0
Node_1223776     0          0          0          0          0
HW_0_397         0          0          0          0          0
Node_1224780     0          0          0          0          0
HW_0_398         0          0          0          0          0
Node_1225781     0          0          0          0          0
HW_0_399         0          0          0          0          0
Node_1232783     0          0          0          0          0
HW_0_400         0          0          0          0          0
Node_1235770     0          0          0          0          0
HW_0_401         0          0          0          0          0
Node_1234768     0          0          0          0          0
HW_0_402         0          0          0          0          0
Node_1238836     0          0          0          0          0
HW_0_403         0          0          0          0          0
Node_1239832     0          0          0          0          0

[OUTFALLS]
;;Name           Elev       Type       Stage      Gated
;;-------------- ---------- ---------- ---------- -----
Node_1001391     0          FREE                  NO

[CONDUITS]
;;Name           From             To               Length     Roughness  InOffset   OutOffset  InitFlow   MaxFlow
;;-------------- ---------------- ---------------- ---------- ---------- ---------- ---------- ---------- ----------
0                1.00             1.01             100.00     0.0130     0          0          0          0
0_2              1.01             1.02             100.00     0.0130     0          0          0          0
0_3              1.02             1.03J            100.00     0.0130     0          0          0          0
0_4              1.03J            1.04J            100.00     0.0130     0          0          0          0
0_5              1.04J            1.05             100.00     0.0130     0          0          0          0
0_6              1.05             1.06             100.00     0.0130     0          0          0          0
0_7              1.06             1.07J            100.00     0.0130     0          0          0          0
0_8              1.07J            1.08             100.00     0.0130     0          0          0          0
0_9              1.08             1.09E            100.00     0.0130     0          0          0          0
0_10             1.09E            1.10             100.00     0.0130     0          0          0          0
0_11             1.10             1.11             100.00     0.0130     0          0          0          0
0_12             1.11             1.12             100.00     0.0130     0          0          0          0
0_13             12.00            1.01             100.00     0.0130     0          0          0          0
0_14             19.00            1.02             100.00     0.0130     0          0          0          0
0_15             89.00            1.03J            100.00     0.0130     0          0          0          0
0_16             88.00            1.04J            100.00     0.0130     0          0          0          0
0_17             94.00            1.05             100.00     0.0130     0          0          0          0
0_18             87.00            1.05             100.00     0.0130     0          0          0          0
0_19             95.00            95.01J           100.00     0.0130     0          0          0          0
0_20             95.01J           95.02            100.00     0.0130     0          0          0          0
0_21             95.02            1.06             100.00     0.0130     0          0          0          0
0_22             96.00            95.01J           100.00     0.0130     0          0          0          0
0_23             99.00            1.07J            100.00     0.0130     0          0          0          0
0_24             18.01            1.08             100.00     0.0130     0          0          0          0
0_25             18.00            18.01            100.00     0.0130     0          0          0          0
0_26             98.00            98.01J           100.00     0.0130     0          0          0          0
0_27             98.01J           1.10             100.00     0.0130     0          0          0          0
0_28             97.00            98.01J           100.00     0.0130     0          0          0          0
0_29             55.00J           1.12             100.00     0.0130     0          0          0          0
0_30             1.11             55.00J           100.00     0.0130     0          0          0          0
0_31             8.15             1.12             100.00     0.0130     0          0          0          0
0_32             10.06            8.14J            100.00     0.0130     0          0          0          0
0_33             8.14J            8.15             100.00     0.0130     0          0          0          0
0_34             8.15             55.00J           100.00     0.0130     0          0          0          0
0_35             8.13J            8.14J            100.00     0.0130     0          0          0          0
0_36             9.08             9.09             100.00     0.0130     0          0          0          0
0_37             9.09             8.13J            100.00     0.0130     0          0          0          0
0_38             9.01             9.02             100.00     0.0130     0          0          0          0
0_39             9.02             9.03             100.00     0.0130     0          0          0          0
0_40             9.03             9.04J            100.00     0.0130     0          0          0          0
0_41             9.04J            9.05             100.00     0.0130     0          0          0          0
0_42             9.05             9.06J            100.00     0.0130     0          0          0          0
0_43             9.06J            9.07             100.00     0.0130     0          0          0          0
0_44             9.07             9.08             100.00     0.0130     0          0          0          0
0_45             93.00            9.06J            100.00     0.0130     0          0          0          0
0_46             94.00            9.07             100.00     0.0130     0          0          0          0
0_47             10.00            10.01J           100.00     0.0130     0          0          0          0
0_48             10.01J           10.02            100.00     0.0130     0          0          0          0
0_49             10.03E           10.04            100.00     0.0130     0          0          0          0
0_50             10.04            10.05            100.00     0.0130     0          0          0          0
0_51             10.05            10.06            100.00     0.0130     0          0          0          0
0_52             8.00             8.01             100.00     0.0130     0          0          0          0
0_53             8.01             8.02J            100.00     0.0130     0          0          0          0
0_54             8.02J            8.03             100.00     0.0130     0          0          0          0
0_55             8.03             8.04             100.00     0.0130     0          0          0          0
0_56             8.04             8.05             100.00     0.0130     0          0          0          0
0_57             8.05             8.06E            100.00     0.0130     0          0          0          0
0_58             8.06E            8.07             100.00     0.0130     0          0          0          0
0_59             8.09             8.10J            100.00     0.0130     0          0          0          0
0_60             83.00            8.10J            100.00     0.0130     0          0          0          0
0_61             8.10J            8.11             100.00     0.0130     0          0          0          0
0_62             8.11             8.12J            100.00     0.0130     0          0          0          0
0_63             8.12J            8.13J            100.00     0.0130     0          0          0          0
0_64             85.00            8.12J            100.00     0.0130     0          0          0          0
0_65             82.01            82.02            100.00     0.0130     0          0          0          0
0_66             82.02            82.03            100.00     0.0130     0          0          0          0
0_67             8.08             8.09             100.00     0.0130     0          0          0          0
0_68             82.03            8.09             100.00     0.0130     0          0          0          0
0_69             8.07             8.08             100.00     0.0130     0          0          0          0
0_70             80.00            80.01J           100.00     0.0130     0          0          0          0
0_71             80.01J           80.02            100.00     0.0130     0          0          0          0
0_72             80.02            8.02J            100.00     0.0130     0          0          0          0
0_73             81.00            80.01J           100.00     0.0130     0          0          0          0
0_74             86.00            1.12             100.00     0.0130     0          0          0          0
0_75             13.01            13.02J           100.00     0.0130     0          0          0          0
0_76             13.02J           13.03            100.00     0.0130     0          0          0          0
0_77             13.03            13.04J           100.00     0.0130     0          0          0          0
0_78             13.04J           13.05            100.00     0.0130     0          0          0          0
0_79             14.00            13.04J           100.00     0.0130     0          0          0          0
0_80             15.00            13.02J           100.00     0.0130     0          0          0          0
0_81             13.00            13.01            100.00     0.0130     0          0          0          0
0_82             84.00            8.12J            100.00     0.0130     0          0          0          0
0_83             1.12             1.13E            100.00     0.0130     0          0          0          0
0_84             1.13E            1.14J            100.00     0.0130     0          0          0          0
0_85             1.14J            1.15J            100.00     0.0130     0          0          0          0
0_86             1.15J            1.16             100.00     0.0130     0          0          0          0
0_87             1.16             1.17E            100.00     0.0130     0          0          0          0
0_88             1.17E            1.18             100.00     0.0130     0          0          0          0
0_89             1.18             1.19             100.00     0.0130     0          0          0          0
0_90             1.19             1.20J            100.00     0.0130     0          0          0          0
0_91             1.20J            1.21             100.00     0.0130     0          0          0          0
0_92             13.05            1.20J            100.00     0.0130     0          0          0          0
0_93             16.00            16.01            100.00     0.0130     0          0          0          0
0_94             16.01            16.02J           100.00     0.0130     0          0          0          0
0_95             16.02J           1.18             100.00     0.0130     0          0          0          0
0_96             30.00            1.16             100.00     0.0130     0          0          0          0
0_97             64.00            64.01            100.00     0.0130     0          0          0          0
0_98             64.01            1.15J            100.00     0.0130     0          0          0          0
0_99             1.21             1.22             100.00     0.0130     0          0          0          0
0_100            1.22             1.23             100.00     0.0130     0          0          0          0
0_101            1.23             1.24E            100.00     0.0130     0          0          0          0
0_102            1.24E            1.25             100.00     0.0130     0          0          0          0
0_103            1.25             1.26             100.00     0.0130     0          0          0          0
0_104            1.26             1.27E            100.00     0.0130     0          0          0          0
0_105            5.00             5.01             100.00     0.0130     0          0          0          0
0_106            5.01             5.02             100.00     0.0130     0          0          0          0
0_107            5.02             5.03             100.00     0.0130     0          0          0          0
0_108            5.03             5.04             100.00     0.0130     0          0          0          0
0_109            5.04             5.05             100.00     0.0130     0          0          0          0
0_110            5.05             1.23             100.00     0.0130     0          0          0          0
0_111            50.00            5.04             100.00     0.0130     0          0          0          0
0_112            17.00            16.02J           100.00     0.0130     0          0          0          0
0_113            4.00             4.01             100.00     0.0130     0          0          0          0
0_114            4.01             4.02             100.00     0.0130     0          0          0          0
0_115            4.02             4.03             100.00     0.0130     0          0          0          0
0_116            4.03             4.04             100.00     0.0130     0          0          0          0
0_117            4.04             4.05             100.00     0.0130     0          0          0          0
0_118            4.05             4.06             100.00     0.0130     0          0          0          0
0_119            4.06             4.07J            100.00     0.0130     0          0          0          0
0_120            4.07J            1.25             100.00     0.0130     0          0          0          0
0_121            40.00            40.01            100.00     0.0130     0          0          0          0
0_122            40.01            4.07J            100.00     0.0130     0          0          0          0
0_123            6.08             6.09             100.00     0.0130     0          0          0          0
0_124            6.09             6.10J            100.00     0.0130     0          0          0          0
0_125            6.10J            6.11             100.00     0.0130     0          0          0          0
0_126            6.11             6.12             100.00     0.0130     0          0          0          0
0_127            6.12             6.13             100.00     0.0130     0          0          0          0
0_128            6.13             6.14             100.00     0.0130     0          0          0          0
0_129            6.14             1.14J            100.00     0.0130     0          0          0          0
0_130            62.00            6.10J            100.00     0.0130     0          0          0          0
0_131            63.00            6.10J            100.00     0.0130     0          0          0          0
0_132            11.00            10.01J           100.00     0.0130     0          0          0          0
0_133            65.09            6.14             100.00     0.0130     0          0          0          0
0_134            66.00            66.01            100.00     0.0130     0          0          0          0
0_135            66.01            65.02            100.00     0.0130     0          0          0          0
0_136            67.00            67.01            100.00     0.0130     0          0          0          0
0_137            67.01            67.02            100.00     0.0130     0          0          0          0
0_138            67.02            65.04            100.00     0.0130     0          0          0          0
0_139            68.00            65.03J           100.00     0.0130     0          0          0          0
0_140            6.00             6.01             100.00     0.0130     0          0          0          0
0_141            6.01             6.02             100.00     0.0130     0          0          0          0
0_142            6.02             6.03E            100.00     0.0130     0          0          0          0
0_143            6.03E            6.04             100.00     0.0130     0          0          0          0
0_144            6.04             6.05             100.00     0.0130     0          0          0          0
0_145            6.05             6.06             100.00     0.0130     0          0          0          0
0_146            6.06             6.07             100.00     0.0130     0          0          0          0
0_147            6.07             6.08             100.00     0.0130     0          0          0          0
0_148            60.00            60.01            100.00     0.0130     0          0          0          0
0_149            60.01            6.02             100.00     0.0130     0          0          0          0
0_150            61.00            6.07             100.00     0.0130     0          0          0          0
0_151            1.27E            1.28J            100.00     0.0130     0          0          0          0
0_152            1.32             1.33E            100.00     0.0130     0          0          0          0
0_153            1.33E            1.34J            100.00     0.0130     0          0          0          0
0_154            1.34J            1.35             100.00     0.0130     0          0          0          0
0_155            1.35             1.36J            100.00     0.0130     0          0          0          0
0_156            2.22             1.28J            100.00     0.0130     0          0          0          0
0_157            41.01            1.29J            100.00     0.0130     0          0          0          0
0_158            41.00            41.01            100.00     0.0130     0          0          0          0
0_159            42.00            1.31J            100.00     0.0130     0          0          0          0
0_160            43.00            1.32             100.00     0.0130     0          0          0          0
0_161            45.00E           45.01            100.00     0.0130     0          0          0          0
0_162            45.01            45.02            100.00     0.0130     0          0          0          0
0_163            45.02            45.03J           100.00     0.0130     0          0          0          0
0_164            45.03J           45.04J           100.00     0.0130     0          0          0          0
0_165            45.04J           45.05            100.00     0.0130     0          0          0          0
0_166            45.05            1.34J            100.00     0.0130     0          0          0          0
0_167            47.00            45.04J           100.00     0.0130     0          0          0          0
0_168            46.00            45.03J           100.00     0.0130     0          0          0          0
0_169            48.00            1.36J            100.00     0.0130     0          0          0          0
0_170            48.00            45.00E           100.00     0.0130     0          0          0          0
0_171            2.20             2.21J            100.00     0.0130     0          0          0          0
0_172            2.21J            2.22             100.00     0.0130     0          0          0          0
0_173            33.00            2.21J            100.00     0.0130     0          0          0          0
0_174            91.00            9.02             100.00     0.0130     0          0          0          0
0_175            92.01            9.04J            100.00     0.0130     0          0          0          0
0_176            92.00            92.01            100.00     0.0130     0          0          0          0
0_177            82.00            82.01            100.00     0.0130     0          0          0          0
0_178            69.00            65.07J           100.00     0.0130     0          0          0          0
0_179            3.00             3.01             100.00     0.0130     0          0          0          0
0_180            3.01             3.02             100.00     0.0130     0          0          0          0
0_181            3.02             3.03J            100.00     0.0130     0          0          0          0
0_182            3.03J            3.04             100.00     0.0130     0          0          0          0
0_183            3.04             3.05             100.00     0.0130     0          0          0          0
0_184            3.05             3.06E            100.00     0.0130     0          0          0          0
0_185            3.06E            3.07             100.00     0.0130     0          0          0          0
0_186            3.07             2.20             100.00     0.0130     0          0          0          0
0_187            31.00            3.03J            100.00     0.0130     0          0          0          0
0_188            32.00            3.04             100.00     0.0130     0          0          0          0
0_189            2.06             2.07J            100.00     0.0130     0          0          0          0
0_190            2.08             2.09J            100.00     0.0130     0          0          0          0
0_191            2.19             2.20             100.00     0.0130     0          0          0          0
0_192            2.04             2.05J            100.00     0.0130     0          0          0          0
0_193            2.00             2.01J            100.00     0.0130     0          0          0          0
0_194            20.00            2.01J            100.00     0.0130     0          0          0          0
0_195            25.07            2.07J            100.00     0.0130     0          0          0          0
0_196            34.02            2.13J            100.00     0.0130     0          0          0          0
0_197            37.00            2.09J            100.00     0.0130     0          0          0          0
0_198            25.02            25.03J           100.00     0.0130     0          0          0          0
0_199            25.04            25.05J           100.00     0.0130     0          0          0          0
0_200            28.00            25.06J           100.00     0.0130     0          0          0          0
0_201            27.00            25.05J           100.00     0.0130     0          0          0          0
0_202            24.01            25.03J           100.00     0.0130     0          0          0          0
0_203            65.00            65.01            100.00     0.0130     0          0          0          0
0_204            65.01            65.02            100.00     0.0130     0          0          0          0
0_205            65.02            65.03J           100.00     0.0130     0          0          0          0
0_206            65.03J           67.02            100.00     0.0130     0          0          0          0
0_207            65.04            65.05E           100.00     0.0130     0          0          0          0
0_208            65.05E           65.06            100.00     0.0130     0          0          0          0
0_209            65.06            65.07J           100.00     0.0130     0          0          0          0
0_210            65.07J           65.08            100.00     0.0130     0          0          0          0
0_211            2.12             2.13J            100.00     0.0130     0          0          0          0
0_212            2.14             2.15E            100.00     0.0130     0          0          0          0
0_213            2.17             2.18             100.00     0.0130     0          0          0          0
0_214            65.08            65.09            100.00     0.0130     0          0          0          0
0_215            9.09             55.00J           100.00     0.0130     0          0          0          0
0_216            10.02            10.03E           100.00     0.0130     0          0          0          0
0_217            2.10             2.11E            100.00     0.0130     0          0          0          0
0_218            2.01J            2.02             100.00     0.0130     0          0          0          0
0_219            2.02             2.03J            100.00     0.0130     0          0          0          0
0_220            2.03J            2.04             100.00     0.0130     0          0          0          0
0_221            22.00            21.01J           100.00     0.0130     0          0          0          0
0_222            21.00            21.01J           100.00     0.0130     0          0          0          0
0_223            21.01J           21.02            100.00     0.0130     0          0          0          0
0_224            21.02            2.03J            100.00     0.0130     0          0          0          0
0_225            23.00            23.01            100.00     0.0130     0          0          0          0
0_226            23.01            23.02            100.00     0.0130     0          0          0          0
0_227            23.02            2.05J            100.00     0.0130     0          0          0          0
0_228            2.05J            2.06             100.00     0.0130     0          0          0          0
0_229            2.07J            2.08             100.00     0.0130     0          0          0          0
0_230            25.05J           25.06J           100.00     0.0130     0          0          0          0
0_231            25.06J           25.07            100.00     0.0130     0          0          0          0
0_232            25.03J           25.04            100.00     0.0130     0          0          0          0
0_233            24.00            24.01            100.00     0.0130     0          0          0          0
0_234            26.00            25.01J           100.00     0.0130     0          0          0          0
0_235            25.00            25.01J           100.00     0.0130     0          0          0          0
0_236            25.01J           25.02            100.00     0.0130     0          0          0          0
0_237            35.00            34.01J           100.00     0.0130     0          0          0          0
0_238            34.00            34.01J           100.00     0.0130     0          0          0          0
0_239            34.01J           34.02            100.00     0.0130     0          0          0          0
0_240            2.13J            2.14             100.00     0.0130     0          0          0          0
0_241            2.15E            2.16             100.00     0.0130     0          0          0          0
0_242            2.16             2.17             100.00     0.0130     0          0          0          0
0_243            2.18             2.19             100.00     0.0130     0          0          0          0
0_244            2.09J            2.10             100.00     0.0130     0          0          0          0
0_245            2.11E            2.12             100.00     0.0130     0          0          0          0
0_246            36.00            2.10             100.00     0.0130     0          0          0          0
0_247            1.28J            1.29J            100.00     0.0130     0          0          0          0
0_248            1.29J            1.30             100.00     0.0130     0          0          0          0
0_249            1.30             1.31J            100.00     0.0130     0          0          0          0
0_250            1.31J            1.32             100.00     0.0130     0          0          0          0
0_251            1.00L            1.00             100.00     0.0130     0          0          0          0
0_252            12.00L           12.00            100.00     0.0130     0          0          0          0
0_253            1.01L            1.01             100.00     0.0130     0          0          0          0
0_254            19.00L           19.00            100.00     0.0130     0          0          0          0
0_255            1.02L            1.02             100.00     0.0130     0          0          0          0
0_256            89.00L           89.00            100.00     0.0130     0          0          0          0
0_257            88.00L           88.00            100.00     0.0130     0          0          0          0
0_258            94.00L           94.00            100.00     0.0130     0          0          0          0
0_259            87.00L           87.00            100.00     0.0130     0          0          0          0
0_260            1.05l            1.05             100.00     0.0130     0          0          0          0
0_261            95.00l           95.00            100.00     0.0130     0          0          0          0
0_262            96.00l           96.00            100.00     0.0130     0          0          0          0
0_263            95.02l           95.02            100.00     0.0130     0          0          0          0
0_264            1.06l            1.06             100.00     0.0130     0          0          0          0
0_265            99.00l           99.00            100.00     0.0130     0          0          0          0
0_266            18.00l           18.00            100.00     0.0130     0          0          0          0
0_267            18.01l           18.01            100.00     0.0130     0          0          0          0
0_268            1.08l            1.08             100.00     0.0130     0          0          0          0
0_269            98.00l           98.00            100.00     0.0130     0          0          0          0
0_270            97.00l           97.00            100.00     0.0130     0          0          0          0
0_271            1.10l            1.10             100.00     0.0130     0          0          0          0
0_272            1.11l            1.11             100.00     0.0130     0          0          0          0
0_273            9.01l            9.01             100.00     0.0130     0          0          0          0
0_274            91.00l           91.00            100.00     0.0130     0          0          0          0
0_275            9.02l            9.02             100.00     0.0130     0          0          0          0
0_276            9.03l            9.03             100.00     0.0130     0          0          0          0
0_277            92.00l           92.00            100.00     0.0130     0          0          0          0
0_278            92.01l           92.01            100.00     0.0130     0          0          0          0
0_279            9.05l            9.05             100.00     0.0130     0          0          0          0
0_280            93.00l           93.00            100.00     0.0130     0          0          0          0
0_281            94.00l_2         94.00            100.00     0.0130     0          0          0          0
0_282            9.07l            9.07             100.00     0.0130     0          0          0          0
0_283            9.08l            9.08             100.00     0.0130     0          0          0          0
0_284            9.09l            9.09             100.00     0.0130     0          0          0          0
0_285            8.00l            8.00             100.00     0.0130     0          0          0          0
0_286            8.01l            8.01             100.00     0.0130     0          0          0          0
0_287            HW_0_287         Node_1001391     100.00     0.0130     0          0          0          0
0_288            HW_0_288         Node_1003392     100.00     0.0130     0          0          0          0
0_289            HW_0_289         Node_1005389     100.00     0.0130     0          0          0          0
0_290            HW_0_290         Node_1007358     100.00     0.0130     0          0          0          0
0_291            HW_0_291         Node_1009355     100.00     0.0130     0          0          0          0
0_292            HW_0_292         Node_1011354     100.00     0.0130     0          0          0          0
0_293            HW_0_293         Node_1013352     100.00     0.0130     0          0          0          0
0_294            HW_0_294         Node_1015357     100.00     0.0130     0          0          0          0
0_295            HW_0_295         Node_1017731     100.00     0.0130     0          0          0          0
0_296            HW_0_296         Node_1019350     100.00     0.0130     0          0          0          0
0_297            HW_0_297         Node_1021349     100.00     0.0130     0          0          0          0
0_298            HW_0_298         Node_1023347     100.00     0.0130     0          0          0          0
0_299            HW_0_299         Node_1025343     100.00     0.0130     0          0          0          0
0_300            HW_0_300         Node_1027346     100.00     0.0130     0          0          0          0
0_301            HW_0_301         Node_1029341     100.00     0.0130     0          0          0          0
0_302            HW_0_302         Node_1031345     100.00     0.0130     0          0          0          0
0_303            HW_0_303         Node_1033344     100.00     0.0130     0          0          0          0
0_304            HW_0_304         Node_1035332     100.00     0.0130     0          0          0          0
0_305            HW_0_305         Node_1037333     100.00     0.0130     0          0          0          0
0_306            HW_0_306         Node_1039330     100.00     0.0130     0          0          0          0
0_307            HW_0_307         Node_1041329     100.00     0.0130     0          0          0          0
0_308            HW_0_308         Node_1043328     100.00     0.0130     0          0          0          0
0_309            HW_0_309         Node_1045289     100.00     0.0130     0          0          0          0
0_310            HW_0_310         Node_1047285     100.00     0.0130     0          0          0          0
0_311            HW_0_311         Node_1049327     100.00     0.0130     0          0          0          0
0_312            HW_0_312         Node_1051215     100.00     0.0130     0          0          0          0
0_313            HW_0_313         Node_1053549     100.00     0.0130     0          0          0          0
0_314            HW_0_314         Node_1055548     100.00     0.0130     0          0          0          0
0_315            HW_0_315         Node_1057543     100.00     0.0130     0          0          0          0
0_316            HW_0_316         Node_1059545     100.00     0.0130     0          0          0          0
0_317            HW_0_317         Node_1061544     100.00     0.0130     0          0          0          0
0_318            HW_0_318         Node_1063542     100.00     0.0130     0          0          0          0
0_319            HW_0_319         Node_1065541     100.00     0.0130     0          0          0          0
0_320            HW_0_320         Node_1067540     100.00     0.0130     0          0          0          0
0_321            HW_0_321         Node_1069547     100.00     0.0130     0          0          0          0
0_322            HW_0_322         Node_1071538     100.00     0.0130     0          0          0          0
0_323            HW_0_323         Node_1073536     100.00     0.0130     0          0          0          0
0_324            HW_0_324         Node_1075534     100.00     0.0130     0          0          0          0
0_325            HW_0_325         Node_1077734     100.00     0.0130     0          0          0          0
0_326            HW_0_326         Node_1079533     100.00     0.0130     0          0          0          0
0_327            HW_0_327         Node_1081514     100.00     0.0130     0          0          0          0
0_328            HW_0_328         Node_1083578     100.00     0.0130     0          0          0          0
0_329            HW_0_329         Node_1085577     100.00     0.0130     0          0          0          0
0_330            HW_0_330         Node_1087581     100.00     0.0130     0          0          0          0
0_331            HW_0_331         Node_1090580     100.00     0.0130     0          0          0          0
0_332            HW_0_332         Node_1092576     100.00     0.0130     0          0          0          0
0_333            HW_0_333         Node_1094574     100.00     0.0130     0          0          0          0
0_334            HW_0_334         Node_1096573     100.00     0.0130     0          0          0          0
0_335            HW_0_335         Node_1098572     100.00     0.0130     0          0          0          0
0_336            HW_0_336         Node_1100571     100.00     0.0130     0          0          0          0
0_337            HW_0_337         Node_1102570     100.00     0.0130     0          0          0          0
0_338            HW_0_338         Node_1104522     100.00     0.0130     0          0          0          0
0_339            HW_0_339         Node_1106521     100.00     0.0130     0          0          0          0
0_340            HW_0_340         Node_1109520     100.00     0.0130     0          0          0          0
0_341            HW_0_341         Node_1111519     100.00     0.0130     0          0          0          0
0_342            HW_0_342         Node_1113517     100.00     0.0130     0          0          0          0
0_343            HW_0_343         Node_1115516     100.00     0.0130     0          0          0          0
0_344            HW_0_344         Node_1117515     100.00     0.0130     0          0          0          0
0_345            HW_0_345         Node_1121461     100.00     0.0130     0          0          0          0
0_346            HW_0_346         Node_1120460     100.00     0.0130     0          0          0          0
0_347            HW_0_347         Node_1124458     100.00     0.0130     0          0          0          0
0_348            HW_0_348         Node_1126404     100.00     0.0130     0          0          0          0
0_349            HW_0_349         Node_1128454     100.00     0.0130     0          0          0          0
0_350            HW_0_350         Node_1130453     100.00     0.0130     0          0          0          0
0_351            HW_0_351         Node_1132491     100.00     0.0130     0          0          0          0
0_352            HW_0_352         Node_1134407     100.00     0.0130     0          0          0          0
0_353            HW_0_353         Node_1136408     100.00     0.0130     0          0          0          0
0_354            HW_0_354         Node_1138422     100.00     0.0130     0          0          0          0
0_355            HW_0_355         Node_1140421     100.00     0.0130     0          0          0          0
0_356            HW_0_356         Node_1142420     100.00     0.0130     0          0          0          0
0_357            HW_0_357         Node_1144418     100.00     0.0130     0          0          0          0
0_358            HW_0_358         Node_1146417     100.00     0.0130     0          0          0          0
0_359            HW_0_359         Node_1148415     100.00     0.0130     0          0          0          0
0_360            HW_0_360         Node_1150410     100.00     0.0130     0          0          0          0
0_361            HW_0_361         Node_1152464     100.00     0.0130     0          0          0          0
0_362            HW_0_362         Node_1154483     100.00     0.0130     0          0          0          0
0_363            HW_0_363         Node_1156482     100.00     0.0130     0          0          0          0
0_364            HW_0_364         Node_1158481     100.00     0.0130     0          0          0          0
0_365            HW_0_365         Node_1160480     100.00     0.0130     0          0          0          0
0_366            HW_0_366         Node_1162479     100.00     0.0130     0          0          0          0
0_367            HW_0_367         Node_1163478     100.00     0.0130     0          0          0          0
0_368            HW_0_368         Node_1164477     100.00     0.0130     0          0          0          0
0_369            HW_0_369         Node_1168465     100.00     0.0130     0          0          0          0
0_370            HW_0_370         Node_1170501     100.00     0.0130     0          0          0          0
0_371            HW_0_371         Node_1171500     100.00     0.0130     0          0          0          0
0_372            HW_0_372         Node_1172499     100.00     0.0130     0          0          0          0
0_373            HW_0_373         Node_1173498     100.00     0.0130     0          0          0          0
0_374            HW_0_374         Node_1178497     100.00     0.0130     0          0          0          0
0_375            HW_0_375         Node_1179496     100.00     0.0130     0          0          0          0
0_376            HW_0_376         Node_1182495     100.00     0.0130     0          0          0          0
0_377            HW_0_377         Node_1184503     100.00     0.0130     0          0          0          0
0_378            HW_0_378         Node_1185502     100.00     0.0130     0          0          0          0
0_379            HW_0_379         Node_1188467     100.00     0.0130     0          0          0          0
0_380            HW_0_380         Node_1190468     100.00     0.0130     0          0          0          0
0_381            HW_0_381         Node_1193835     100.00     0.0130     0          0          0          0
0_382            HW_0_382         Node_1194833     100.00     0.0130     0          0          0          0
0_383            HW_0_383         Node_1196831     100.00     0.0130     0          0          0          0
0_384            HW_0_384         Node_1202829     100.00     0.0130     0          0          0          0
0_385            HW_0_385         Node_1203828     100.00     0.0130     0          0          0          0
0_386            HW_0_386         Node_1204826     100.00     0.0130     0          0          0          0
0_387            HW_0_387         Node_1205774     100.00     0.0130     0          0          0          0
0_388            HW_0_388         Node_1210771     100.00     0.0130     0          0          0          0
0_389            HW_0_389         Node_1211773     100.00     0.0130     0          0          0          0
0_390            HW_0_390         Node_1214785     100.00     0.0130     0          0          0          0
0_391            HW_0_391         Node_1216784     100.00     0.0130     0          0          0          0
0_392            HW_0_392         Node_1215788     100.00     0.0130     0          0          0          0
0_393            HW_0_393         Node_1220787     100.00     0.0130     0          0          0          0
0_394            HW_0_394         Node_1222782     100.00     0.0130     0          0          0          0
0_395            HW_0_395         Node_1226778     100.00     0.0130     0          0          0          0
0_396            HW_0_396         Node_1223776     100.00     0.0130     0          0          0          0
0_397            HW_0_397         Node_1224780     100.00     0.0130     0          0          0          0
0_398            HW_0_398         Node_1225781     100.00     0.0130     0          0          0          0
0_399            HW_0_399         Node_1232783     100.00     0.0130     0          0          0          0
0_400            HW_0_400         Node_1235770     100.00     0.0130     0          0          0          0
0_401            HW_0_401         Node_1234768     100.00     0.0130     0          0          0          0
0_402            HW_0_402         Node_1238836     100.00     0.0130     0          0          0          0
0_403            HW_0_403         Node_1239832     100.00     0.0130     0          0          0          0

[XSECTIONS]
;;Link           Shape        Geom1      Geom2      Geom3      Geom4      Barrels
;;-------------- ------------ ---------- ---------- ---------- ---------- ----------
0                CIRCULAR     1.00       0          0          0          1
0_2              CIRCULAR     1.00       0          0          0          1
0_3              CIRCULAR     1.00       0          0          0          1
0_4              CIRCULAR     1.00       0          0          0          1
0_5              CIRCULAR     1.00       0          0          0          1
0_6              CIRCULAR     1.00       0          0          0          1
0_7              CIRCULAR     1.00       0          0          0          1
0_8              CIRCULAR     1.00       0          0          0          1
0_9              CIRCULAR     1.00       0          0          0          1
0_10             CIRCULAR     1.00       0          0          0          1
0_11             CIRCULAR     1.00       0          0          0          1
0_12             CIRCULAR     1.00       0          0          0          1
0_13             CIRCULAR     1.00       0          0          0          1
0_14             CIRCULAR     1.00       0          0          0          1
0_15             CIRCULAR     1.00       0          0          0          1
0_16             CIRCULAR     1.00       0          0          0          1
0_17             CIRCULAR     1.00       0          0          0          1
0_18             CIRCULAR     1.00       0          0          0          1
0_19             CIRCULAR     1.00       0          0          0          1
0_20             CIRCULAR     1.00       0          0          0          1
0_21             CIRCULAR     1.00       0          0          0          1
0_22             CIRCULAR     1.00       0          0          0          1
0_23             CIRCULAR     1.00       0          0          0          1
0_24             CIRCULAR     1.00       0          0          0          1
0_25             CIRCULAR     1.00       0          0          0          1
0_26             CIRCULAR     1.00       0          0          0          1
0_27             CIRCULAR     1.00       0          0          0          1
0_28             CIRCULAR     1.00       0          0          0          1
0_29             CIRCULAR     1.00       0          0          0          1
0_30             CIRCULAR     1.00       0          0          0          1
0_31             CIRCULAR     1.00       0          0          0          1
0_32             CIRCULAR     1.00       0          0          0          1
0_33             CIRCULAR     1.00       0          0          0          1
0_34             CIRCULAR     1.00       0          0          0          1
0_35             CIRCULAR     1.00       0          0          0          1
0_36             CIRCULAR     1.00       0          0          0          1
0_37             CIRCULAR     1.00       0          0          0          1
0_38             CIRCULAR     1.00       0          0          0          1
0_39             CIRCULAR     1.00       0          0          0          1
0_40             CIRCULAR     1.00       0          0          0          1
0_41             CIRCULAR     1.00       0          0          0          1
0_42             CIRCULAR     1.00       0          0          0          1
0_43             CIRCULAR     1.00       0          0          0          1
0_44             CIRCULAR     1.00       0          0          0          1
0_45             CIRCULAR     1.00       0          0          0          1
0_46             CIRCULAR     1.00       0          0          0          1
0_47             CIRCULAR     1.00       0          0          0          1
0_48             CIRCULAR     1.00       0          0          0          1
0_49             CIRCULAR     1.00       0          0          0          1
0_50             CIRCULAR     1.00       0          0          0          1
0_51             CIRCULAR     1.00       0          0          0          1
0_52             CIRCULAR     1.00       0          0          0          1
0_53             CIRCULAR     1.00       0          0          0          1
0_54             CIRCULAR     1.00       0          0          0          1
0_55             CIRCULAR     1.00       0          0          0          1
0_56             CIRCULAR     1.00       0          0          0          1
0_57             CIRCULAR     1.00       0          0          0          1
0_58             CIRCULAR     1.00       0          0          0          1
0_59             CIRCULAR     1.00       0          0          0          1
0_60             CIRCULAR     1.00       0          0          0          1
0_61             CIRCULAR     1.00       0          0          0          1
0_62             CIRCULAR     1.00       0          0          0          1
0_63             CIRCULAR     1.00       0          0          0          1
0_64             CIRCULAR     1.00       0          0          0          1
0_65             CIRCULAR     1.00       0          0          0          1
0_66             CIRCULAR     1.00       0          0          0          1
0_67             CIRCULAR     1.00       0          0          0          1
0_68             CIRCULAR     1.00       0          0          0          1
0_69             CIRCULAR     1.00       0          0          0          1
0_70             CIRCULAR     1.00       0          0          0          1
0_71             CIRCULAR     1.00       0          0          0          1
0_72             CIRCULAR     1.00       0          0          0          1
0_73             CIRCULAR     1.00       0          0          0          1
0_74             CIRCULAR     1.00       0          0          0          1
0_75             CIRCULAR     1.00       0          0          0          1
0_76             CIRCULAR     1.00       0          0          0          1
0_77             CIRCULAR     1.00       0          0          0          1
0_78             CIRCULAR     1.00       0          0          0          1
0_79             CIRCULAR     1.00       0          0          0          1
0_80             CIRCULAR     1.00       0          0          0          1
0_81             CIRCULAR     1.00       0          0          0          1
0_82             CIRCULAR     1.00       0          0          0          1
0_83             CIRCULAR     1.00       0          0          0          1
0_84             CIRCULAR     1.00       0          0          0          1
0_85             CIRCULAR     1.00       0          0          0          1
0_86             CIRCULAR     1.00       0          0          0          1
0_87             CIRCULAR     1.00       0          0          0          1
0_88             CIRCULAR     1.00       0          0          0          1
0_89             CIRCULAR     1.00       0          0          0          1
0_90             CIRCULAR     1.00       0          0          0          1
0_91             CIRCULAR     1.00       0          0          0          1
0_92             CIRCULAR     1.00       0          0          0          1
0_93             CIRCULAR     1.00       0          0          0          1
0_94             CIRCULAR     1.00       0          0          0          1
0_95             CIRCULAR     1.00       0          0          0          1
0_96             CIRCULAR     1.00       0          0          0          1
0_97             CIRCULAR     1.00       0          0          0          1
0_98             CIRCULAR     1.00       0          0          0          1
0_99             CIRCULAR     1.00       0          0          0          1
0_100            CIRCULAR     1.00       0          0          0          1
0_101            CIRCULAR     1.00       0          0          0          1
0_102            CIRCULAR     1.00       0          0          0          1
0_103            CIRCULAR     1.00       0          0          0          1
0_104            CIRCULAR     1.00       0          0          0          1
0_105            CIRCULAR     1.00       0          0          0          1
0_106            CIRCULAR     1.00       0          0          0          1
0_107            CIRCULAR     1.00       0          0          0          1
0_108            CIRCULAR     1.00       0          0          0          1
0_109            CIRCULAR     1.00       0          0          0          1
0_110            CIRCULAR     1.00       0          0          0          1
0_111            CIRCULAR     1.00       0          0          0          1
0_112            CIRCULAR     1.00       0          0          0          1
0_113            CIRCULAR     1.00       0          0          0          1
0_114            CIRCULAR     1.00       0          0          0          1
0_115            CIRCULAR     1.00       0          0          0          1
0_116            CIRCULAR     1.00       0          0          0          1
0_117            CIRCULAR     1.00       0          0          0          1
0_118            CIRCULAR     1.00       0          0          0          1
0_119            CIRCULAR     1.00       0          0          0          1
0_120            CIRCULAR     1.00       0          0          0          1
0_121            CIRCULAR     1.00       0          0          0          1
0_122            CIRCULAR     1.00       0          0          0          1
0_123            CIRCULAR     1.00       0          0          0          1
0_124            CIRCULAR     1.00       0          0          0          1
0_125            CIRCULAR     1.00       0          0          0          1
0_126            CIRCULAR     1.00       0          0          0          1
0_127            CIRCULAR     1.00       0          0          0          1
0_128            CIRCULAR     1.00       0          0          0          1
0_129            CIRCULAR     1.00       0          0          0          1
0_130            CIRCULAR     1.00       0          0          0          1
0_131            CIRCULAR     1.00       0          0          0          1
0_132            CIRCULAR     1.00       0          0          0          1
0_133            CIRCULAR     1.00       0          0          0          1
0_134            CIRCULAR     1.00       0          0          0          1
0_135            CIRCULAR     1.00       0          0          0          1
0_136            CIRCULAR     1.00       0          0          0          1
0_137            CIRCULAR     1.00       0          0          0          1
0_138            CIRCULAR     1.00       0          0          0          1
0_139            CIRCULAR     1.00       0          0          0          1
0_140            CIRCULAR     1.00       0          0          0          1
0_141            CIRCULAR     1.00       0          0          0          1
0_142            CIRCULAR     1.00       0          0          0          1
0_143            CIRCULAR     1.00       0          0          0          1
0_144            CIRCULAR     1.00       0          0          0          1
0_145            CIRCULAR     1.00       0          0          0          1
0_146            CIRCULAR     1.00       0          0          0          1
0_147            CIRCULAR     1.00       0          0          0          1
0_148            CIRCULAR     1.00       0          0          0          1
0_149            CIRCULAR     1.00       0          0          0          1
0_150            CIRCULAR     1.00       0          0          0          1
0_151            CIRCULAR     1.00       0          0          0          1
0_152            CIRCULAR     1.00       0          0          0          1
0_153            CIRCULAR     1.00       0          0          0          1
0_154            CIRCULAR     1.00       0          0          0          1
0_155            CIRCULAR     1.00       0          0          0          1
0_156            CIRCULAR     1.00       0          0          0          1
0_157            CIRCULAR     1.00       0          0          0          1
0_158            CIRCULAR     1.00       0          0          0          1
0_159            CIRCULAR     1.00       0          0          0          1
0_160            CIRCULAR     1.00       0          0          0          1
0_161            CIRCULAR     1.00       0          0          0          1
0_162            CIRCULAR     1.00       0          0          0          1
0_163            CIRCULAR     1.00       0          0          0          1
0_164            CIRCULAR     1.00       0          0          0          1
0_165            CIRCULAR     1.00       0          0          0          1
0_166            CIRCULAR     1.00       0          0          0          1
0_167            CIRCULAR     1.00       0          0          0          1
0_168            CIRCULAR     1.00       0          0          0          1
0_169            CIRCULAR     1.00       0          0          0          1
0_170            CIRCULAR     1.00       0          0          0          1
0_171            CIRCULAR     1.00       0          0          0          1
0_172            CIRCULAR     1.00       0          0          0          1
0_173            CIRCULAR     1.00       0          0          0          1
0_174            CIRCULAR     1.00       0          0          0          1
0_175            CIRCULAR     1.00       0          0          0          1
0_176            CIRCULAR     1.00       0          0          0          1
0_177            CIRCULAR     1.00       0          0          0          1
0_178            CIRCULAR     1.00       0          0          0          1
0_179            CIRCULAR     1.00       0          0          0          1
0_180            CIRCULAR     1.00       0          0          0          1
0_181            CIRCULAR     1.00       0          0          0          1
0_182            CIRCULAR     1.00       0          0          0          1
0_183            CIRCULAR     1.00       0          0          0          1
0_184            CIRCULAR     1.00       0          0          0          1
0_185            CIRCULAR     1.00       0          0          0          1
0_186            CIRCULAR     1.00       0          0          0          1
0_187            CIRCULAR     1.00       0          0          0          1
0_188            CIRCULAR     1.00       0          0          0          1
0_189            CIRCULAR     1.00       0          0          0          1
0_190            CIRCULAR     1.00       0          0          0          1
0_191            CIRCULAR     1.00       0          0          0          1
0_192            CIRCULAR     1.00       0          0          0          1
0_193            CIRCULAR     1.00       0          0          0          1
0_194            CIRCULAR     1.00       0          0          0          1
0_195            CIRCULAR     1.00       0          0          0          1
0_196            CIRCULAR     1.00       0          0          0          1
0_197            CIRCULAR     1.00       0          0          0          1
0_198            CIRCULAR     1.00       0          0          0          1
0_199            CIRCULAR     1.00       0          0          0          1
0_200            CIRCULAR     1.00       0          0          0          1
0_201            CIRCULAR     1.00       0          0          0          1
0_202            CIRCULAR     1.00       0          0          0          1
0_203            CIRCULAR     1.00       0          0          0          1
0_204            CIRCULAR     1.00       0          0          0          1
0_205            CIRCULAR     1.00       0          0          0          1
0_206            CIRCULAR     1.00       0          0          0          1
0_207            CIRCULAR     1.00       0          0          0          1
0_208            CIRCULAR     1.00       0          0          0          1
0_209            CIRCULAR     1.00       0          0          0          1
0_210            CIRCULAR     1.00       0          0          0          1
0_211            CIRCULAR     1.00       0          0          0          1
0_212            CIRCULAR     1.00       0          0          0          1
0_213            CIRCULAR     1.00       0          0          0          1
0_214            CIRCULAR     1.00       0          0          0          1
0_215            CIRCULAR     1.00       0          0          0          1
0_216            CIRCULAR     1.00       0          0          0          1
0_217            CIRCULAR     1.00       0          0          0          1
0_218            CIRCULAR     1.00       0          0          0          1
0_219            CIRCULAR     1.00       0          0          0          1
0_220            CIRCULAR     1.00       0          0          0          1
0_221            CIRCULAR     1.00       0          0          0          1
0_222            CIRCULAR     1.00       0          0          0          1
0_223            CIRCULAR     1.00       0          0          0          1
0_224            CIRCULAR     1.00       0          0          0          1
0_225            CIRCULAR     1.00       0          0          0          1
0_226            CIRCULAR     1.00       0          0          0          1
0_227            CIRCULAR     1.00       0          0          0          1
0_228            CIRCULAR     1.00       0          0          0          1
0_229            CIRCULAR     1.00       0          0          0          1
0_230            CIRCULAR     1.00       0          0          0          1
0_231            CIRCULAR     1.00       0          0          0          1
0_232            CIRCULAR     1.00       0          0          0          1
0_233            CIRCULAR     1.00       0          0          0          1
0_234            CIRCULAR     1.00       0          0          0          1
0_235            CIRCULAR     1.00       0          0          0          1
0_236            CIRCULAR     1.00       0          0          0          1
0_237            CIRCULAR     1.00       0          0          0          1
0_238            CIRCULAR     1.00       0          0          0          1
0_239            CIRCULAR     1.00       0          0          0          1
0_240            CIRCULAR     1.00       0          0          0          1
0_241            CIRCULAR     1.00       0          0          0          1
0_242            CIRCULAR     1.00       0          0          0          1
0_243            CIRCULAR     1.00       0          0          0          1
0_244            CIRCULAR     1.00       0          0          0          1
0_245            CIRCULAR     1.00       0          0          0          1
0_246            CIRCULAR     1.00       0          0          0          1
0_247            CIRCULAR     1.00       0          0          0          1
0_248            CIRCULAR     1.00       0          0          0          1
0_249            CIRCULAR     1.00       0          0          0          1
0_250            CIRCULAR     1.00       0          0          0          1
0_251            CIRCULAR     1.00       0          0          0          1
0_252            CIRCULAR     1.00       0          0          0          1
0_253            CIRCULAR     1.00       0          0          0          1
0_254            CIRCULAR     1.00       0          0          0          1
0_255            CIRCULAR     1.00       0          0          0          1
0_256            CIRCULAR     1.00       0          0          0          1
0_257            CIRCULAR     1.00       0          0          0          1
0_258            CIRCULAR     1.00       0          0          0          1
0_259            CIRCULAR     1.00       0          0          0          1
0_260            CIRCULAR     1.00       0          0          0          1
0_261            CIRCULAR     1.00       0          0          0          1
0_262            CIRCULAR     1.00       0          0          0          1
0_263            CIRCULAR     1.00       0          0          0          1
0_264            CIRCULAR     1.00       0          0          0          1
0_265            CIRCULAR     1.00       0          0          0          1
0_266            CIRCULAR     1.00       0          0          0          1
0_267            CIRCULAR     1.00       0          0          0          1
0_268            CIRCULAR     1.00       0          0          0          1
0_269            CIRCULAR     1.00       0          0          0          1
0_270            CIRCULAR     1.00       0          0          0          1
0_271            CIRCULAR     1.00       0          0          0          1
0_272            CIRCULAR     1.00       0          0          0          1
0_273            CIRCULAR     1.00       0          0          0          1
0_274            CIRCULAR     1.00       0          0          0          1
0_275            CIRCULAR     1.00       0          0          0          1
0_276            CIRCULAR     1.00       0          0          0          1
0_277            CIRCULAR     1.00       0          0          0          1
0_278            CIRCULAR     1.00       0          0          0          1
0_279            CIRCULAR     1.00       0          0          0          1
0_280            CIRCULAR     1.00       0          0          0          1
0_281            CIRCULAR     1.00       0          0          0          1
0_282            CIRCULAR     1.00       0          0          0          1
0_283            CIRCULAR     1.00       0          0          0          1
0_284            CIRCULAR     1.00       0          0          0          1
0_285            CIRCULAR     1.00       0          0          0          1
0_286            CIRCULAR     1.00       0          0          0          1
0_287            CIRCULAR     1.00       0          0          0          1
0_288            CIRCULAR     1.00       0          0          0          1
0_289            CIRCULAR     1.00       0          0          0          1
0_290            CIRCULAR     1.00       0          0          0          1
0_291            CIRCULAR     1.00       0          0          0          1
0_292            CIRCULAR     1.00       0          0          0          1
0_293            CIRCULAR     1.00       0          0          0          1
0_294            CIRCULAR     1.00       0          0          0          1
0_295            CIRCULAR     1.00       0          0          0          1
0_296            CIRCULAR     1.00       0          0          0          1
0_297            CIRCULAR     1.00       0          0          0          1
0_298            CIRCULAR     1.00       0          0          0          1
0_299            CIRCULAR     1.00       0          0          0          1
0_300            CIRCULAR     1.00       0          0          0          1
0_301            CIRCULAR     1.00       0          0          0          1
0_302            CIRCULAR     1.00       0          0          0          1
0_303            CIRCULAR     1.00       0          0          0          1
0_304            CIRCULAR     1.00       0          0          0          1
0_305            CIRCULAR     1.00       0          0          0          1
0_306            CIRCULAR     1.00       0          0          0          1
0_307            CIRCULAR     1.00       0          0          0          1
0_308            CIRCULAR     1.00       0          0          0          1
0_309            CIRCULAR     1.00       0          0          0          1
0_310            CIRCULAR     1.00       0          0          0          1
0_311            CIRCULAR     1.00       0          0          0          1
0_312            CIRCULAR     1.00       0          0          0          1
0_313            CIRCULAR     1.00       0          0          0          1
0_314            CIRCULAR     1.00       0          0          0          1
0_315            CIRCULAR     1.00       0          0          0          1
0_316            CIRCULAR     1.00       0          0          0          1
0_317            CIRCULAR     1.00       0          0          0          1
0_318            CIRCULAR     1.00       0          0          0          1
0_319            CIRCULAR     1.00       0          0          0          1
0_320            CIRCULAR     1.00       0          0          0          1
0_321            CIRCULAR     1.00       0          0          0          1
0_322            CIRCULAR     1.00       0          0          0          1
0_323            CIRCULAR     1.00       0          0          0          1
0_324            CIRCULAR     1.00       0          0          0          1
0_325            CIRCULAR     1.00       0          0          0          1
0_326            CIRCULAR     1.00       0          0          0          1
0_327            CIRCULAR     1.00       0          0          0          1
0_328            CIRCULAR     1.00       0          0          0          1
0_329            CIRCULAR     1.00       0          0          0          1
0_330            CIRCULAR     1.00       0          0          0          1
0_331            CIRCULAR     1.00       0          0          0          1
0_332            CIRCULAR     1.00       0          0          0          1
0_333            CIRCULAR     1.00       0          0          0          1
0_334            CIRCULAR     1.00       0          0          0          1
0_335            CIRCULAR     1.00       0          0          0          1
0_336            CIRCULAR     1.00       0          0          0          1
0_337            CIRCULAR     1.00       0          0          0          1
0_338            CIRCULAR     1.00       0          0          0          1
0_339            CIRCULAR     1.00       0          0          0          1
0_340            CIRCULAR     1.00       0          0          0          1
0_341            CIRCULAR     1.00       0          0          0          1
0_342            CIRCULAR     1.00       0          0          0          1
0_343            CIRCULAR     1.00       0          0          0          1
0_344            CIRCULAR     1.00       0          0          0          1
0_345            CIRCULAR     1.00       0          0          0          1
0_346            CIRCULAR     1.00       0          0          0          1
0_347            CIRCULAR     1.00       0          0          0          1
0_348            CIRCULAR     1.00       0          0          0          1
0_349            CIRCULAR     1.00       0          0          0          1
0_350            CIRCULAR     1.00       0          0          0          1
0_351            CIRCULAR     1.00       0          0          0          1
0_352            CIRCULAR     1.00       0          0          0          1
0_353            CIRCULAR     1.00       0          0          0          1
0_354            CIRCULAR     1.00       0          0          0          1
0_355            CIRCULAR     1.00       0          0          0          1
0_356            CIRCULAR     1.00       0          0          0          1
0_357            CIRCULAR     1.00       0          0          0          1
0_358            CIRCULAR     1.00       0          0          0          1
0_359            CIRCULAR     1.00       0          0          0          1
0_360            CIRCULAR     1.00       0          0          0          1
0_361            CIRCULAR     1.00       0          0          0          1
0_362            CIRCULAR     1.00       0          0          0          1
0_363            CIRCULAR     1.00       0          0          0          1
0_364            CIRCULAR     1.00       0          0          0          1
0_365            CIRCULAR     1.00       0          0          0          1
0_366            CIRCULAR     1.00       0          0          0          1
0_367            CIRCULAR     1.00       0          0          0          1
0_368            CIRCULAR     1.00       0          0          0          1
0_369            CIRCULAR     1.00       0          0          0          1
0_370            CIRCULAR     1.00       0          0          0          1
0_371            CIRCULAR     1.00       0          0          0          1
0_372            CIRCULAR     1.00       0          0          0          1
0_373            CIRCULAR     1.00       0          0          0          1
0_374            CIRCULAR     1.00       0          0          0          1
0_375            CIRCULAR     1.00       0          0          0          1
0_376            CIRCULAR     1.00       0          0          0          1
0_377            CIRCULAR     1.00       0          0          0          1
0_378            CIRCULAR     1.00       0          0          0          1
0_379            CIRCULAR     1.00       0          0          0          1
0_380            CIRCULAR     1.00       0          0          0          1
0_381            CIRCULAR     1.00       0          0          0          1
0_382            CIRCULAR     1.00       0          0          0          1
0_383            CIRCULAR     1.00       0          0          0          1
0_384            CIRCULAR     1.00       0          0          0          1
0_385            CIRCULAR     1.00       0          0          0          1
0_386            CIRCULAR     1.00       0          0          0          1
0_387            CIRCULAR     1.00       0          0          0          1
0_388            CIRCULAR     1.00       0          0          0          1
0_389            CIRCULAR     1.00       0          0          0          1
0_390            CIRCULAR     1.00       0          0          0          1
0_391            CIRCULAR     1.00       0          0          0          1
0_392            CIRCULAR     1.00       0          0          0          1
0_393            CIRCULAR     1.00       0          0          0          1
0_394            CIRCULAR     1.00       0          0          0          1
0_395            CIRCULAR     1.00       0          0          0          1
0_396            CIRCULAR     1.00       0          0          0          1
0_397            CIRCULAR     1.00       0          0          0          1
0_398            CIRCULAR     1.00       0          0          0          1
0_399            CIRCULAR     1.00       0          0          0          1
0_400            CIRCULAR     1.00       0          0          0          1
0_401            CIRCULAR     1.00       0          0          0          1
0_402            CIRCULAR     1.00       0          0          0          1
0_403            CIRCULAR     1.00       0          0          0          1

[LOSSES]
;;Link           Inlet      Outlet     Average    Flap Gate
;;-------------- ---------- ---------- ---------- ----------
0                0          0          0          NO
0_2              0          0          0          NO
0_3              0          0          0          NO
0_4              0          0          0          NO
0_5              0          0          0          NO
0_6              0          0          0          NO
0_7              0          0          0          NO
0_8              0          0          0          NO
0_9              0          0          0          NO
0_10             0          0          0          NO
0_11             0          0          0          NO
0_12             0          0          0          NO
0_13             0          0          0          NO
0_14             0          0          0          NO
0_15             0          0          0          NO
0_16             0          0          0          NO
0_17             0          0          0          NO
0_18             0          0          0          NO
0_19             0          0          0          NO
0_20             0          0          0          NO
0_21             0          0          0          NO
0_22             0          0          0          NO
0_23             0          0          0          NO
0_24             0          0          0          NO
0_25             0          0          0          NO
0_26             0          0          0          NO
0_27             0          0          0          NO
0_28             0          0          0          NO
0_29             0          0          0          NO
0_30             0          0          0          NO
0_31             0          0          0          NO
0_32             0          0          0          NO
0_33             0          0          0          NO
0_34             0          0          0          NO
0_35             0          0          0          NO
0_36             0          0          0          NO
0_37             0          0          0          NO
0_38             0          0          0          NO
0_39             0          0          0          NO
0_40             0          0          0          NO
0_41             0          0          0          NO
0_42             0          0          0          NO
0_43             0          0          0          NO
0_44             0          0          0          NO
0_45             0          0          0          NO
0_46             0          0          0          NO
0_47             0          0          0          NO
0_48             0          0          0          NO
0_49             0          0          0          NO
0_50             0          0          0          NO
0_51             0          0          0          NO
0_52             0          0          0          NO
0_53             0          0          0          NO
0_54             0          0          0          NO
0_55             0          0          0          NO
0_56             0          0          0          NO
0_57             0          0          0          NO
0_58             0          0          0          NO
0_59             0          0          0          NO
0_60             0          0          0          NO
0_61             0          0          0          NO
0_62             0          0          0          NO
0_63             0          0          0          NO
0_64             0          0          0          NO
0_65             0          0          0          NO
0_66             0          0          0          NO
0_67             0          0          0          NO
0_68             0          0          0          NO
0_69             0          0          0          NO
0_70             0          0          0          NO
0_71             0          0          0          NO
0_72             0          0          0          NO
0_73             0          0          0          NO
0_74             0          0          0          NO
0_75             0          0          0          NO
0_76             0          0          0          NO
0_77             0          0          0          NO
0_78             0          0          0          NO
0_79             0          0          0          NO
0_80             0          0          0          NO
0_81             0          0          0          NO
0_82             0          0          0          NO
0_83             0          0          0          NO
0_84             0          0          0          NO
0_85             0          0          0          NO
0_86             0          0          0          NO
0_87             0          0          0          NO
0_88             0          0          0          NO
0_89             0          0          0          NO
0_90             0          0          0          NO
0_91             0          0          0          NO
0_92             0          0          0          NO
0_93             0          0          0          NO
0_94             0          0          0          NO
0_95             0          0          0          NO
0_96             0          0          0          NO
0_97             0          0          0          NO
0_98             0          0          0          NO
0_99             0          0          0          NO
0_100            0          0          0          NO
0_101            0          0          0          NO
0_102            0          0          0          NO
0_103            0          0          0          NO
0_104            0          0          0          NO
0_105            0          0          0          NO
0_106            0          0          0          NO
0_107            0          0          0          NO
0_108            0          0          0          NO
0_109            0          0          0          NO
0_110            0          0          0          NO
0_111            0          0          0          NO
0_112            0          0          0          NO
0_113            0          0          0          NO
0_114            0          0          0          NO
0_115            0          0          0          NO
0_116            0          0          0          NO
0_117            0          0          0          NO
0_118            0          0          0          NO
0_119            0          0          0          NO
0_120            0          0          0          NO
0_121            0          0          0          NO
0_122            0          0          0          NO
0_123            0          0          0          NO
0_124            0          0          0          NO
0_125            0          0          0          NO
0_126            0          0          0          NO
0_127            0          0          0          NO
0_128            0          0          0          NO
0_129            0          0          0          NO
0_130            0          0          0          NO
0_131            0          0          0          NO
0_132            0          0          0          NO
0_133            0          0          0          NO
0_134            0          0          0          NO
0_135            0          0          0          NO
0_136            0          0          0          NO
0_137            0          0          0          NO
0_138            0          0          0          NO
0_139            0          0          0          NO
0_140            0          0          0          NO
0_141            0          0          0          NO
0_142            0          0          0          NO
0_143            0          0          0          NO
0_144            0          0          0          NO
0_145            0          0          0          NO
0_146            0          0          0          NO
0_147            0          0          0          NO
0_148            0          0          0          NO
0_149            0          0          0          NO
0_150            0          0          0          NO
0_151            0          0          0          NO
0_152            0          0          0          NO
0_153            0          0          0          NO
0_154            0          0          0          NO
0_155            0          0          0          NO
0_156            0          0          0          NO
0_157            0          0          0          NO
0_158            0          0          0          NO
0_159            0          0          0          NO
0_160            0          0          0          NO
0_161            0          0          0          NO
0_162            0          0          0          NO
0_163            0          0          0          NO
0_164            0          0          0          NO
0_165            0          0          0          NO
0_166            0          0          0          NO
0_167            0          0          0          NO
0_168            0          0          0          NO
0_169            0          0          0          NO
0_170            0          0          0          NO
0_171            0          0          0          NO
0_172            0          0          0          NO
0_173            0          0          0          NO
0_174            0          0          0          NO
0_175            0          0          0          NO
0_176            0          0          0          NO
0_177            0          0          0          NO
0_178            0          0          0          NO
0_179            0          0          0          NO
0_180            0          0          0          NO
0_181            0          0          0          NO
0_182            0          0          0          NO
0_183            0          0          0          NO
0_184            0          0          0          NO
0_185            0          0          0          NO
0_186            0          0          0          NO
0_187            0          0          0          NO
0_188            0          0          0          NO
0_189            0          0          0          NO
0_190            0          0          0          NO
0_191            0          0          0          NO
0_192            0          0          0          NO
0_193            0          0          0          NO
0_194            0          0          0          NO
0_195            0          0          0          NO
0_196            0          0          0          NO
0_197            0          0          0          NO
0_198            0          0          0          NO
0_199            0          0          0          NO
0_200            0          0          0          NO
0_201            0          0          0          NO
0_202            0          0          0          NO
0_203            0          0          0          NO
0_204            0          0          0          NO
0_205            0          0          0          NO
0_206            0          0          0          NO
0_207            0          0          0          NO
0_208            0          0          0          NO
0_209            0          0          0          NO
0_210            0          0          0          NO
0_211            0          0          0          NO
0_212            0          0          0          NO
0_213            0          0          0          NO
0_214            0          0          0          NO
0_215            0          0          0          NO
0_216            0          0          0          NO
0_217            0          0          0          NO
0_218            0          0          0          NO
0_219            0          0          0          NO
0_220            0          0          0          NO
0_221            0          0          0          NO
0_222            0          0          0          NO
0_223            0          0          0          NO
0_224            0          0          0          NO
0_225            0          0          0          NO
0_226            0          0          0          NO
0_227            0          0          0          NO
0_228            0          0          0          NO
0_229            0          0          0          NO
0_230            0          0          0          NO
0_231            0          0          0          NO
0_232            0          0          0          NO
0_233            0          0          0          NO
0_234            0          0          0          NO
0_235            0          0          0          NO
0_236            0          0          0          NO
0_237            0          0          0          NO
0_238            0          0          0          NO
0_239            0          0          0          NO
0_240            0          0          0          NO
0_241            0          0          0          NO
0_242            0          0          0          NO
0_243            0          0          0          NO
0_244            0          0          0          NO
0_245            0          0          0          NO
0_246            0          0          0          NO
0_247            0          0          0          NO
0_248            0          0          0          NO
0_249            0          0          0          NO
0_250            0          0          0          NO
0_251            0          0          0          NO
0_252            0          0          0          NO
0_253            0          0          0          NO
0_254            0          0          0          NO
0_255            0          0          0          NO
0_256            0          0          0          NO
0_257            0          0          0          NO
0_258            0          0          0          NO
0_259            0          0          0          NO
0_260            0          0          0          NO
0_261            0          0          0          NO
0_262            0          0          0          NO
0_263            0          0          0          NO
0_264            0          0          0          NO
0_265            0          0          0          NO
0_266            0          0          0          NO
0_267            0          0          0          NO
0_268            0          0          0          NO
0_269            0          0          0          NO
0_270            0          0          0          NO
0_271            0          0          0          NO
0_272            0          0          0          NO
0_273            0          0          0          NO
0_274            0          0          0          NO
0_275            0          0          0          NO
0_276            0          0          0          NO
0_277            0          0          0          NO
0_278            0          0          0          NO
0_279            0          0          0          NO
0_280            0          0          0          NO
0_281            0          0          0          NO
0_282            0          0          0          NO
0_283            0          0          0          NO
0_284            0          0          0          NO
0_285            0          0          0          NO
0_286            0          0          0          NO
0_287            0          0          0          NO
0_288            0          0          0          NO
0_289            0          0          0          NO
0_290            0          0          0          NO
0_291            0          0          0          NO
0_292            0          0          0          NO
0_293            0          0          0          NO
0_294            0          0          0          NO
0_295            0          0          0          NO
0_296            0          0          0          NO
0_297            0          0          0          NO
0_298            0          0          0          NO
0_299            0          0          0          NO
0_300            0          0          0          NO
0_301            0          0          0          NO
0_302            0          0          0          NO
0_303            0          0          0          NO
0_304            0          0          0          NO
0_305            0          0          0          NO
0_306            0          0          0          NO
0_307            0          0          0          NO
0_308            0          0          0          NO
0_309            0          0          0          NO
0_310            0          0          0          NO
0_311            0          0          0          NO
0_312            0          0          0          NO
0_313            0          0          0          NO
0_314            0          0          0          NO
0_315            0          0          0          NO
0_316            0          0          0          NO
0_317            0          0          0          NO
0_318            0          0          0          NO
0_319            0          0          0          NO
0_320            0          0          0          NO
0_321            0          0          0          NO
0_322            0          0          0          NO
0_323            0          0          0          NO
0_324            0          0          0          NO
0_325            0          0          0          NO
0_326            0          0          0          NO
0_327            0          0          0          NO
0_328            0          0          0          NO
0_329            0          0          0          NO
0_330            0          0          0          NO
0_331            0          0          0          NO
0_332            0          0          0          NO
0_333            0          0          0          NO
0_334            0          0          0          NO
0_335            0          0          0          NO
0_336            0          0          0          NO
0_337            0          0          0          NO
0_338            0          0          0          NO
0_339            0          0          0          NO
0_340            0          0          0          NO
0_341            0          0          0          NO
0_342            0          0          0          NO
0_343            0          0          0          NO
0_344            0          0          0          NO
0_345            0          0          0          NO
0_346            0          0          0          NO
0_347            0          0          0          NO
0_348            0          0          0          NO
0_349            0          0          0          NO
0_350            0          0          0          NO
0_351            0          0          0          NO
0_352            0          0          0          NO
0_353            0          0          0          NO
0_354            0          0          0          NO
0_355            0          0          0          NO
0_356            0          0          0          NO
0_357            0          0          0          NO
0_358            0          0          0          NO
0_359            0          0          0          NO
0_360            0          0          0          NO
0_361            0          0          0          NO
0_362            0          0          0          NO
0_363            0          0          0          NO
0_364            0          0          0          NO
0_365            0          0          0          NO
0_366            0          0          0          NO
0_367            0          0          0          NO
0_368            0          0          0          NO
0_369            0          0          0          NO
0_370            0          0          0          NO
0_371            0          0          0          NO
0_372            0          0          0          NO
0_373            0          0          0          NO
0_374            0          0          0          NO
0_375            0          0          0          NO
0_376            0          0          0          NO
0_377            0          0          0          NO
0_378            0          0          0          NO
0_379            0          0          0          NO
0_380            0          0          0          NO
0_381            0          0          0          NO
0_382            0          0          0          NO
0_383            0          0          0          NO
0_384            0          0          0          NO
0_385            0          0          0          NO
0_386            0          0          0          NO
0_387            0          0          0          NO
0_388            0          0          0          NO
0_389            0          0          0          NO
0_390            0          0          0          NO
0_391            0          0          0          NO
0_392            0          0          0          NO
0_393            0          0          0          NO
0_394            0          0          0          NO
0_395            0          0          0          NO
0_396            0          0          0          NO
0_397            0          0          0          NO
0_398            0          0          0          NO
0_399            0          0          0          NO
0_400            0          0          0          NO
0_401            0          0          0          NO
0_402            0          0          0          NO
0_403            0          0          0          NO

[INFLOWS]
;;Node           Constituent  Time Series      Type     Mfactor  Sfactor  Baseline Pattern
;;-------------- ------------ ---------------- -------- -------- -------- -------- --------
;; SYNTHETIC TEST INFLOWS — the source .xp carried no constant inflows
;; and RUNF hydrology is not converted; 1.00 CFS is applied at each
;; headwater node so the network runs wet for QA. Replace with real
;; hydrology or inflow hydrographs before using results.
86.00            FLOW         ""               FLOW     1.0      1.0      1.00
10.00            FLOW         ""               FLOW     1.0      1.0      1.00
11.00            FLOW         ""               FLOW     1.0      1.0      1.00
84.00            FLOW         ""               FLOW     1.0      1.0      1.00
85.00            FLOW         ""               FLOW     1.0      1.0      1.00
83.00            FLOW         ""               FLOW     1.0      1.0      1.00
80.00            FLOW         ""               FLOW     1.0      1.0      1.00
81.00            FLOW         ""               FLOW     1.0      1.0      1.00
14.00            FLOW         ""               FLOW     1.0      1.0      1.00
15.00            FLOW         ""               FLOW     1.0      1.0      1.00
13.00            FLOW         ""               FLOW     1.0      1.0      1.00
16.00            FLOW         ""               FLOW     1.0      1.0      1.00
30.00            FLOW         ""               FLOW     1.0      1.0      1.00
64.00            FLOW         ""               FLOW     1.0      1.0      1.00
50.00            FLOW         ""               FLOW     1.0      1.0      1.00
5.00             FLOW         ""               FLOW     1.0      1.0      1.00
17.00            FLOW         ""               FLOW     1.0      1.0      1.00
4.00             FLOW         ""               FLOW     1.0      1.0      1.00
40.00            FLOW         ""               FLOW     1.0      1.0      1.00
63.00            FLOW         ""               FLOW     1.0      1.0      1.00
62.00            FLOW         ""               FLOW     1.0      1.0      1.00
65.00            FLOW         ""               FLOW     1.0      1.0      1.00
68.00            FLOW         ""               FLOW     1.0      1.0      1.00
66.00            FLOW         ""               FLOW     1.0      1.0      1.00
67.00            FLOW         ""               FLOW     1.0      1.0      1.00
61.00            FLOW         ""               FLOW     1.0      1.0      1.00
6.00             FLOW         ""               FLOW     1.0      1.0      1.00
60.00            FLOW         ""               FLOW     1.0      1.0      1.00
41.00            FLOW         ""               FLOW     1.0      1.0      1.00
42.00            FLOW         ""               FLOW     1.0      1.0      1.00
43.00            FLOW         ""               FLOW     1.0      1.0      1.00
47.00            FLOW         ""               FLOW     1.0      1.0      1.00
46.00            FLOW         ""               FLOW     1.0      1.0      1.00
48.00            FLOW         ""               FLOW     1.0      1.0      1.00
33.00            FLOW         ""               FLOW     1.0      1.0      1.00
82.00            FLOW         ""               FLOW     1.0      1.0      1.00
69.00            FLOW         ""               FLOW     1.0      1.0      1.00
32.00            FLOW         ""               FLOW     1.0      1.0      1.00
31.00            FLOW         ""               FLOW     1.0      1.0      1.00
3.00             FLOW         ""               FLOW     1.0      1.0      1.00
34.00            FLOW         ""               FLOW     1.0      1.0      1.00
36.00            FLOW         ""               FLOW     1.0      1.0      1.00
37.00            FLOW         ""               FLOW     1.0      1.0      1.00
2.00             FLOW         ""               FLOW     1.0      1.0      1.00
20.00            FLOW         ""               FLOW     1.0      1.0      1.00
23.00            FLOW         ""               FLOW     1.0      1.0      1.00
22.00            FLOW         ""               FLOW     1.0      1.0      1.00
21.00            FLOW         ""               FLOW     1.0      1.0      1.00
35.00            FLOW         ""               FLOW     1.0      1.0      1.00
28.00            FLOW         ""               FLOW     1.0      1.0      1.00
27.00            FLOW         ""               FLOW     1.0      1.0      1.00
24.00            FLOW         ""               FLOW     1.0      1.0      1.00
26.00            FLOW         ""               FLOW     1.0      1.0      1.00
25.00            FLOW         ""               FLOW     1.0      1.0      1.00
1.00L            FLOW         ""               FLOW     1.0      1.0      1.00
12.00L           FLOW         ""               FLOW     1.0      1.0      1.00
1.01L            FLOW         ""               FLOW     1.0      1.0      1.00
19.00L           FLOW         ""               FLOW     1.0      1.0      1.00
1.02L            FLOW         ""               FLOW     1.0      1.0      1.00
89.00L           FLOW         ""               FLOW     1.0      1.0      1.00
88.00L           FLOW         ""               FLOW     1.0      1.0      1.00
94.00L           FLOW         ""               FLOW     1.0      1.0      1.00
87.00L           FLOW         ""               FLOW     1.0      1.0      1.00
1.05l            FLOW         ""               FLOW     1.0      1.0      1.00
95.00l           FLOW         ""               FLOW     1.0      1.0      1.00
96.00l           FLOW         ""               FLOW     1.0      1.0      1.00
95.02l           FLOW         ""               FLOW     1.0      1.0      1.00
1.06l            FLOW         ""               FLOW     1.0      1.0      1.00
99.00l           FLOW         ""               FLOW     1.0      1.0      1.00
18.00l           FLOW         ""               FLOW     1.0      1.0      1.00
18.01l           FLOW         ""               FLOW     1.0      1.0      1.00
1.08l            FLOW         ""               FLOW     1.0      1.0      1.00
98.00l           FLOW         ""               FLOW     1.0      1.0      1.00
97.00l           FLOW         ""               FLOW     1.0      1.0      1.00
1.10l            FLOW         ""               FLOW     1.0      1.0      1.00
1.11l            FLOW         ""               FLOW     1.0      1.0      1.00
9.01l            FLOW         ""               FLOW     1.0      1.0      1.00
91.00l           FLOW         ""               FLOW     1.0      1.0      1.00
9.02l            FLOW         ""               FLOW     1.0      1.0      1.00
9.03l            FLOW         ""               FLOW     1.0      1.0      1.00
92.00l           FLOW         ""               FLOW     1.0      1.0      1.00
92.01l           FLOW         ""               FLOW     1.0      1.0      1.00
9.05l            FLOW         ""               FLOW     1.0      1.0      1.00
93.00l           FLOW         ""               FLOW     1.0      1.0      1.00
94.00l_2         FLOW         ""               FLOW     1.0      1.0      1.00
9.07l            FLOW         ""               FLOW     1.0      1.0      1.00
9.08l            FLOW         ""               FLOW     1.0      1.0      1.00
9.09l            FLOW         ""               FLOW     1.0      1.0      1.00
8.00l            FLOW         ""               FLOW     1.0      1.0      1.00
8.01l            FLOW         ""               FLOW     1.0      1.0      1.00
HW_0_287         FLOW         ""               FLOW     1.0      1.0      1.00
HW_0_288         FLOW         ""               FLOW     1.0      1.0      1.00
HW_0_289         FLOW         ""               FLOW     1.0      1.0      1.00
HW_0_290         FLOW         ""               FLOW     1.0      1.0      1.00
HW_0_291         FLOW         ""               FLOW     1.0      1.0      1.00
HW_0_292         FLOW         ""               FLOW     1.0      1.0      1.00
HW_0_293         FLOW         ""               FLOW     1.0      1.0      1.00
HW_0_294         FLOW         ""               FLOW     1.0      1.0      1.00
HW_0_295         FLOW         ""               FLOW     1.0      1.0      1.00
HW_0_296         FLOW         ""               FLOW     1.0      1.0      1.00
HW_0_297         FLOW         ""               FLOW     1.0      1.0      1.00
HW_0_298         FLOW         ""               FLOW     1.0      1.0      1.00
HW_0_299         FLOW         ""               FLOW     1.0      1.0      1.00
HW_0_300         FLOW         ""               FLOW     1.0      1.0      1.00
HW_0_301         FLOW         ""               FLOW     1.0      1.0      1.00
HW_0_302         FLOW         ""               FLOW     1.0      1.0      1.00
HW_0_303         FLOW         ""               FLOW     1.0      1.0      1.00
HW_0_304         FLOW         ""               FLOW     1.0      1.0      1.00
HW_0_305         FLOW         ""               FLOW     1.0      1.0      1.00
HW_0_306         FLOW         ""               FLOW     1.0      1.0      1.00
HW_0_307         FLOW         ""               FLOW     1.0      1.0      1.00
HW_0_308         FLOW         ""               FLOW     1.0      1.0      1.00
HW_0_309         FLOW         ""               FLOW     1.0      1.0      1.00
HW_0_310         FLOW         ""               FLOW     1.0      1.0      1.00
HW_0_311         FLOW         ""               FLOW     1.0      1.0      1.00
HW_0_312         FLOW         ""               FLOW     1.0      1.0      1.00
HW_0_313         FLOW         ""               FLOW     1.0      1.0      1.00
HW_0_314         FLOW         ""               FLOW     1.0      1.0      1.00
HW_0_315         FLOW         ""               FLOW     1.0      1.0      1.00
HW_0_316         FLOW         ""               FLOW     1.0      1.0      1.00
HW_0_317         FLOW         ""               FLOW     1.0      1.0      1.00
HW_0_318         FLOW         ""               FLOW     1.0      1.0      1.00
HW_0_319         FLOW         ""               FLOW     1.0      1.0      1.00
HW_0_320         FLOW         ""               FLOW     1.0      1.0      1.00
HW_0_321         FLOW         ""               FLOW     1.0      1.0      1.00
HW_0_322         FLOW         ""               FLOW     1.0      1.0      1.00
HW_0_323         FLOW         ""               FLOW     1.0      1.0      1.00
HW_0_324         FLOW         ""               FLOW     1.0      1.0      1.00
HW_0_325         FLOW         ""               FLOW     1.0      1.0      1.00
HW_0_326         FLOW         ""               FLOW     1.0      1.0      1.00
HW_0_327         FLOW         ""               FLOW     1.0      1.0      1.00
HW_0_328         FLOW         ""               FLOW     1.0      1.0      1.00
HW_0_329         FLOW         ""               FLOW     1.0      1.0      1.00
HW_0_330         FLOW         ""               FLOW     1.0      1.0      1.00
HW_0_331         FLOW         ""               FLOW     1.0      1.0      1.00
HW_0_332         FLOW         ""               FLOW     1.0      1.0      1.00
HW_0_333         FLOW         ""               FLOW     1.0      1.0      1.00
HW_0_334         FLOW         ""               FLOW     1.0      1.0      1.00
HW_0_335         FLOW         ""               FLOW     1.0      1.0      1.00
HW_0_336         FLOW         ""               FLOW     1.0      1.0      1.00
HW_0_337         FLOW         ""               FLOW     1.0      1.0      1.00
HW_0_338         FLOW         ""               FLOW     1.0      1.0      1.00
HW_0_339         FLOW         ""               FLOW     1.0      1.0      1.00
HW_0_340         FLOW         ""               FLOW     1.0      1.0      1.00
HW_0_341         FLOW         ""               FLOW     1.0      1.0      1.00
HW_0_342         FLOW         ""               FLOW     1.0      1.0      1.00
HW_0_343         FLOW         ""               FLOW     1.0      1.0      1.00
HW_0_344         FLOW         ""               FLOW     1.0      1.0      1.00
HW_0_345         FLOW         ""               FLOW     1.0      1.0      1.00
HW_0_346         FLOW         ""               FLOW     1.0      1.0      1.00
HW_0_347         FLOW         ""               FLOW     1.0      1.0      1.00
HW_0_348         FLOW         ""               FLOW     1.0      1.0      1.00
HW_0_349         FLOW         ""               FLOW     1.0      1.0      1.00
HW_0_350         FLOW         ""               FLOW     1.0      1.0      1.00
HW_0_351         FLOW         ""               FLOW     1.0      1.0      1.00
HW_0_352         FLOW         ""               FLOW     1.0      1.0      1.00
HW_0_353         FLOW         ""               FLOW     1.0      1.0      1.00
HW_0_354         FLOW         ""               FLOW     1.0      1.0      1.00
HW_0_355         FLOW         ""               FLOW     1.0      1.0      1.00
HW_0_356         FLOW         ""               FLOW     1.0      1.0      1.00
HW_0_357         FLOW         ""               FLOW     1.0      1.0      1.00
HW_0_358         FLOW         ""               FLOW     1.0      1.0      1.00
HW_0_359         FLOW         ""               FLOW     1.0      1.0      1.00
HW_0_360         FLOW         ""               FLOW     1.0      1.0      1.00
HW_0_361         FLOW         ""               FLOW     1.0      1.0      1.00
HW_0_362         FLOW         ""               FLOW     1.0      1.0      1.00
HW_0_363         FLOW         ""               FLOW     1.0      1.0      1.00
HW_0_364         FLOW         ""               FLOW     1.0      1.0      1.00
HW_0_365         FLOW         ""               FLOW     1.0      1.0      1.00
HW_0_366         FLOW         ""               FLOW     1.0      1.0      1.00
HW_0_367         FLOW         ""               FLOW     1.0      1.0      1.00
HW_0_368         FLOW         ""               FLOW     1.0      1.0      1.00
HW_0_369         FLOW         ""               FLOW     1.0      1.0      1.00
HW_0_370         FLOW         ""               FLOW     1.0      1.0      1.00
HW_0_371         FLOW         ""               FLOW     1.0      1.0      1.00
HW_0_372         FLOW         ""               FLOW     1.0      1.0      1.00
HW_0_373         FLOW         ""               FLOW     1.0      1.0      1.00
HW_0_374         FLOW         ""               FLOW     1.0      1.0      1.00
HW_0_375         FLOW         ""               FLOW     1.0      1.0      1.00
HW_0_376         FLOW         ""               FLOW     1.0      1.0      1.00
HW_0_377         FLOW         ""               FLOW     1.0      1.0      1.00
HW_0_378         FLOW         ""               FLOW     1.0      1.0      1.00
HW_0_379         FLOW         ""               FLOW     1.0      1.0      1.00
HW_0_380         FLOW         ""               FLOW     1.0      1.0      1.00
HW_0_381         FLOW         ""               FLOW     1.0      1.0      1.00
HW_0_382         FLOW         ""               FLOW     1.0      1.0      1.00
HW_0_383         FLOW         ""               FLOW     1.0      1.0      1.00
HW_0_384         FLOW         ""               FLOW     1.0      1.0      1.00
HW_0_385         FLOW         ""               FLOW     1.0      1.0      1.00
HW_0_386         FLOW         ""               FLOW     1.0      1.0      1.00
HW_0_387         FLOW         ""               FLOW     1.0      1.0      1.00
HW_0_388         FLOW         ""               FLOW     1.0      1.0      1.00
HW_0_389         FLOW         ""               FLOW     1.0      1.0      1.00
HW_0_390         FLOW         ""               FLOW     1.0      1.0      1.00
HW_0_391         FLOW         ""               FLOW     1.0      1.0      1.00
HW_0_392         FLOW         ""               FLOW     1.0      1.0      1.00
HW_0_393         FLOW         ""               FLOW     1.0      1.0      1.00
HW_0_394         FLOW         ""               FLOW     1.0      1.0      1.00
HW_0_395         FLOW         ""               FLOW     1.0      1.0      1.00
HW_0_396         FLOW         ""               FLOW     1.0      1.0      1.00
HW_0_397         FLOW         ""               FLOW     1.0      1.0      1.00
HW_0_398         FLOW         ""               FLOW     1.0      1.0      1.00
HW_0_399         FLOW         ""               FLOW     1.0      1.0      1.00
HW_0_400         FLOW         ""               FLOW     1.0      1.0      1.00
HW_0_401         FLOW         ""               FLOW     1.0      1.0      1.00
HW_0_402         FLOW         ""               FLOW     1.0      1.0      1.00
HW_0_403         FLOW         ""               FLOW     1.0      1.0      1.00

[COORDINATES]
;;Node           X-Coord            Y-Coord
;;-------------- ------------------ ------------------
1.00             38.25              38.25             
1.01             38.25              58.25             
1.02             38.25              78.25             
1.03J            38.25              118.25            
1.04J            38.25              158.25            
1.05             78.25              158.25            
1.06             98.25              158.25            
1.07J            118.25             158.25            
1.08             138.25             158.25            
1.09E            158.25             158.25            
1.10             178.25             158.25            
1.11             198.25             158.25            
1.12             278.25             158.25            
12.00            58.25              58.25             
19.00            18.25              78.25             
89.00            18.25              118.25            
88.00            18.25              158.25            
94.00            78.25              138.25            
87.00            78.25              178.25            
95.02            98.25              98.25             
95.01J           98.25              78.25             
95.00            98.25              58.25             
96.00            118.25             78.25             
99.00            118.25             118.25            
18.01            138.25             198.25            
18.00            138.25             218.25            
98.01J           178.25             118.25            
98.00            178.25             98.25             
97.00            158.25             118.25            
55.00J           198.25             78.25             
8.15             278.25             78.25             
8.14J            278.25             18.25             
8.13J            278.25             -21.75            
10.06            318.25             -1.75             
9.09             198.25             -21.75            
9.08             158.25             -21.75            
9.07             118.25             -21.75            
9.06J            118.25             -61.75            
94.00_2          118.25             18.25             
9.05             118.25             -101.75           
93.00            78.25              -61.75            
9.04J            118.25             -141.75           
9.03             118.25             -181.75           
92.01            158.25             -141.75           
92.00            198.25             -141.75           
9.02             118.25             -221.75           
9.01             118.25             -241.75           
91.00            158.25             -221.75           
86.00            298.25             158.25            
10.05            378.25             -21.75            
10.04            378.25             -61.75            
10.02            378.25             -141.75           
10.01J           378.25             -181.75           
10.00            358.25             -181.75           
11.00            378.25             -221.75           
8.12J            278.25             -61.75            
8.11             278.25             -81.75            
8.10J            278.25             -121.75           
8.09             278.25             -181.75           
84.00            258.25             -61.75            
85.00            298.25             -61.75            
83.00            298.25             -121.75           
82.03            238.25             -181.75           
82.02            238.25             -221.75           
82.01            238.25             -261.75           
8.07             278.25             -261.75           
8.06E            278.25             -301.75           
8.05             318.25             -301.75           
8.04             358.25             -301.75           
8.08             278.25             -221.75           
8.03             398.25             -301.75           
8.02J            438.25             -301.75           
8.01             478.25             -261.75           
8.00             518.25             -221.75           
80.02            478.25             -301.75           
80.01J           498.25             -301.75           
80.00            518.25             -281.75           
81.00            518.25             -301.75           
1.14J            278.25             218.25            
1.15J            278.25             278.25            
1.16             278.25             318.25            
1.17E            278.25             358.25            
1.18             278.25             398.25            
1.19             278.25             438.25            
1.20J            278.25             478.25            
1.21             278.25             518.25            
13.05            238.25             478.25            
13.04J           198.25             478.25            
14.00            198.25             438.25            
13.03            178.25             478.25            
13.02J           138.25             478.25            
15.00            138.25             438.25            
13.01            98.25              478.25            
13.00            58.25              478.25            
1.13E            278.25             198.25            
16.02J           318.25             398.25            
16.01            358.25             398.25            
16.00            378.25             398.25            
30.00            318.25             318.25            
64.01            318.25             278.25            
64.00            358.25             278.25            
1.22             278.25             558.25            
1.23             278.25             598.25            
1.24E            278.25             638.25            
1.25             278.25             698.25            
1.26             278.25             738.25            
1.27E            278.25             778.25            
5.05             298.25             598.25            
5.04             338.25             598.25            
50.00            338.25             558.25            
5.03             358.25             598.25            
5.02             398.25             598.25            
5.01             418.25             598.25            
5.00             458.25             598.25            
17.00            318.25             418.25            
4.07J            318.25             698.25            
4.06             358.25             698.25            
4.05             398.25             698.25            
4.04             438.25             698.25            
4.03             458.25             698.25            
4.02             478.25             698.25            
4.01             498.25             698.25            
4.00             518.25             698.25            
40.01            338.25             738.25            
40.00            378.25             738.25            
6.14             318.25             218.25            
6.13             358.25             218.25            
6.12             398.25             218.25            
6.11             438.25             218.25            
6.10J            478.25             218.25            
63.00            478.25             258.25            
62.00            478.25             198.25            
6.09             498.25             218.25            
6.08             538.25             218.25            
65.09            358.25             178.25            
65.08            398.25             138.25            
65.07J           438.25             98.25             
65.06            438.25             58.25             
65.05E           438.25             18.25             
65.04            438.25             -21.75            
65.03J           478.25             -61.75            
65.02            498.25             -61.75            
65.01            538.25             -61.75            
65.00            538.25             -101.75           
68.00            478.25             -21.75            
66.01            498.25             -101.75           
66.00            498.25             -141.75           
67.02            438.25             -61.75            
67.01            438.25             -101.75           
67.00            438.25             -141.75           
6.07             578.25             198.25            
61.00            578.25             238.25            
6.06             578.25             158.25            
6.05             578.25             118.25            
6.04             578.25             78.25             
6.03E            578.25             38.25             
6.02             578.25             -1.75             
6.01             578.25             -41.75            
6.00             578.25             -81.75            
60.01            618.25             -1.75             
60.00            618.25             -41.75            
1.28J            278.25             818.25            
1.29J            278.25             858.25            
1.30             278.25             898.25            
1.31J            278.25             938.25            
1.32             278.25             978.25            
1.33E            278.25             1018.25           
1.34J            278.25             1058.25           
1.35             278.25             1098.25           
1.36J            278.25             1138.25           
2.22             238.25             818.25            
41.00            358.25             858.25            
41.01            318.25             858.25            
42.00            318.25             938.25            
43.00            318.25             978.25            
45.05            238.25             1058.25           
45.04J           218.25             1058.25           
47.00            178.25             958.25            
45.03J           198.25             1058.25           
46.00            198.25             1138.25           
45.02            178.25             1058.25           
45.01            158.25             1058.25           
45.00E           158.25             1098.25           
48.00            158.25             1138.25           
2.21J            198.25             818.25            
33.00            198.25             858.25            
2.20             178.25             818.25            
82.00            238.25             -301.75           
69.00            458.25             98.25             
3.07             158.25             858.25            
3.06E            138.25             898.25            
3.05             118.25             938.25            
3.04             98.25              978.25            
32.00            98.25              1018.25           
3.03J            78.25              978.25            
31.00            78.25              938.25            
3.02             38.25              978.25            
3.01             -1.75              978.25            
3.00             -41.75             978.25            
2.19             158.25             778.25            
2.18             138.25             738.25            
2.17             138.25             698.25            
2.15E            138.25             618.25            
2.14             118.25             618.25            
2.13J            78.25              618.25            
34.02            78.25              658.25            
34.01J           78.25              698.25            
34.00            78.25              738.25            
2.12             58.25              618.25            
2.11E            38.25              618.25            
36.00            18.25              578.25            
2.09J            -1.75              618.25            
37.00            -1.75              658.25            
2.08             -41.75             618.25            
2.07J            -81.75             578.25            
2.06             -121.75            618.25            
25.07            -101.75            518.25            
2.05J            -141.75            638.25            
2.04             -141.75            678.25            
2.03J            -141.75            718.25            
2.02             -141.75            758.25            
2.01J            -141.75            778.25            
2.00             -181.75            798.25            
20.00            -121.75            798.25            
21.02            -181.75            718.25            
23.02            -181.75            638.25            
23.01            -221.75            638.25            
23.00            -261.75            638.25            
21.01J           -221.75            718.25            
22.00            -221.75            778.25            
21.00            -261.75            718.25            
35.00            38.25              698.25            
25.06J           -121.75            458.25            
28.00            -121.75            418.25            
25.05J           -141.75            458.25            
27.00            -141.75            418.25            
25.04            -181.75            458.25            
25.03J           -221.75            458.25            
24.01            -221.75            498.25            
24.00            -261.75            498.25            
25.02            -261.75            458.25            
25.01J           -281.75            458.25            
26.00            -281.75            418.25            
25.00            -301.75            458.25            
10.03E           378.25             -101.75           
2.10             18.25              618.25            
2.16             138.25             658.25            
1.00L            17.64              37.64             
12.00L           77.64              57.64             
1.01L            17.64              57.64             
19.00L           -22.36             77.64             
1.02L            57.64              77.64             
89.00L           -22.36             117.64            
88.00L           -22.36             157.64            
94.00L           77.64              97.64             
87.00L           77.64              217.64            
1.05l            37.64              197.64            
95.00l           77.64              17.64             
96.00l           137.64             77.64             
95.02l           117.64             97.64             
1.06l            97.64              197.64            
99.00l           137.64             117.64            
18.00l           117.64             217.64            
18.01l           117.64             197.64            
1.08l            157.64             197.64            
98.00l           177.64             77.64             
97.00l           157.64             97.64             
1.10l            177.64             197.64            
1.11l            197.64             197.64            
9.01l            77.64              -242.36           
91.00l           157.64             -242.36           
9.02l            77.64              -222.36           
9.03l            77.64              -182.36           
92.00l           197.64             -102.36           
92.01l           157.64             -102.36           
9.05l            77.64              -102.36           
93.00l           37.64              -62.36            
94.00l_2         137.64             17.64             
9.07l            77.64              -22.36            
9.08l            157.64             -62.36            
9.09l            197.64             -62.36            
8.00l            537.64             -222.36           
8.01l            477.64             -222.36           
80.00l           537.64             -282.36           
81.00l           537.64             -302.36           
80.02l           477.64             -342.36           
8.03l            397.64             -342.36           
8.04l            357.64             -342.36           
8.05l            317.64             -342.36           
8.07l            297.64             -262.36           
8.08l            297.64             -222.36           
82.00l           217.64             -302.36           
82.01l           217.64             -262.36           
82.02l           217.64             -222.36           
82.03l           217.64             -182.36           
8.09l            297.64             -182.36           
83.00l           317.64             -122.36           
8.11l            317.64             -82.36            
85.00l           317.64             -62.36            
84.00l           237.64             -62.36            
10.00l           337.64             -182.36           
11.00l           357.64             -222.36           
10.02l           357.64             -142.36           
10.04l           357.64             -62.36            
10.05l           377.64             17.64             
10.06l           317.64             37.64             
8.15l            297.64             77.64             
86.00l           297.64             117.64            
1.12l            257.64             177.64            
67.00l           417.64             -142.36           
67.01l           417.64             -102.36           
68.00l           477.64             17.64             
66.00l           497.64             -182.36           
66.01l           517.64             -102.36           
65.00l           537.64             -122.36           
65.01l           557.64             -62.36            
65.02l           497.64             -42.36            
67.02l           417.64             -62.36            
65.04l           417.64             -22.36            
65.06l           417.64             57.64             
65.08l           397.64             97.64             
69.00l           477.64             97.64             
65.09l           357.64             137.64            
6.14l            317.64             177.64            
6.00l            577.64             -122.36           
6.01l            597.64             -42.36            
60.00l           617.64             -62.36            
60.01l           637.64             -2.36             
6.02l            557.64             -2.36             
6.04l            557.64             77.64             
6.05l            557.64             117.64            
6.06l            557.64             157.64            
61.00l           597.64             237.64            
6.07l            597.64             197.64            
6.08l            537.64             177.64            
6.09l            497.64             257.64            
62.00l           477.64             157.64            
63.00l           477.64             297.64            
6.11l            437.64             257.64            
6.12l            397.64             177.64            
6.13l            357.64             237.64            
64.01l           317.64             257.64            
64.00l           377.64             277.64            
30.00l           337.64             317.64            
1.16l            257.64             317.64            
16.00l           377.64             357.64            
16.01l           357.64             357.64            
17.00l           337.64             417.64            
1.18l            257.64             397.64            
1.19l            257.64             437.64            
13.00l           57.64              437.64            
13.01l           97.64              437.64            
15.00l           137.64             397.64            
13.03l           177.64             437.64            
14.00l           197.64             397.64            
13.05l           237.64             437.64            
1.21l            257.64             517.64            
1.22l            257.64             557.64            
5.00l            457.64             557.64            
5.01l            417.64             557.64            
5.02l            397.64             557.64            
5.03l            357.64             557.64            
50.00l           337.64             517.64            
5.04l            337.64             637.64            
5.05l            297.64             577.64            
1.23l            257.64             597.64            
4.00l            517.64             677.64            
4.01l            497.64             677.64            
4.02l            477.64             677.64            
4.03l            457.64             677.64            
4.04l            437.64             677.64            
4.05l            397.64             677.64            
4.06l            357.64             657.64            
40.00l           397.64             737.64            
40.01l           317.64             737.64            
1.25l            257.64             697.64            
1.26l            257.64             737.64            
26.00l           -282.36            377.64            
25.02l           -262.36            417.64            
24.01l           -222.36            517.64            
25.04l           -182.36            477.64            
27.00l           -162.36            417.64            
28.00l           -102.36            417.64            
25.07l           -122.36            517.64            
2.08l            -42.36             577.64            
2.06l            -122.36            577.64            
23.00l           -262.36            597.64            
21.00l           -262.36            757.64            
23.01l           -222.36            597.64            
22.00l           -222.36            817.64            
21.02l           -182.36            697.64            
2.04l            -122.36            677.64            
2.00l            -182.36            817.64            
21.00l_2         -122.36            817.64            
2.02l            -122.36            757.64            
23.02l           -182.36            677.64            
36.00l           -2.36              577.64            
37.00l           -22.36             657.64            
25.00l           -302.36            437.64            
24.00l           -262.36            517.64            

[MAP]
DIMENSIONS -302.36 -342.36 637.64 1138.25
Units      None

[REPORT]
SUBCATCHMENTS ALL
NODES ALL
LINKS ALL
