;; SWMM5 .inp converted from XPSWMM .xp file
;; Generated by XPSWMM Card Reader
;; Source format: XP_CARD | Original title: (none)
;; Links parsed from source: 4 | Routable in this .inp: 5

[TITLE]
;;Project Title/Notes
Converted from XPSWMM .xp file

[OPTIONS]
FLOW_UNITS           CFS
INFILTRATION         HORTON
FLOW_ROUTING         DYNWAVE
LINK_OFFSETS         DEPTH
MIN_SLOPE            0.0
ALLOW_PONDING        NO
SKIP_STEADY_STATE    NO
ROUTING_STEP         00:00:10
VARIABLE_STEP        0.75
INERTIAL_DAMPING     PARTIAL
NORMAL_FLOW_LIMITED  BOTH
MAX_TRIALS           100
START_DATE           01/01/2001
START_TIME           00:00:00
REPORT_START_DATE    01/01/2001
REPORT_START_TIME    00:00:00
END_DATE             01/02/2001
END_TIME             00:00:00
SWEEP_START          01/01
SWEEP_END            12/31
DRY_DAYS             0
REPORT_STEP          00:15:00
WET_STEP             00:05:00
DRY_STEP             01:00:00

[OUTFALLS]
;;Name           Elev       Type       Stage      Gated
;;-------------- ---------- ---------- ---------- -----
OUT_SYNTH        19.00      FREE                  NO

[STORAGE]
;;Name           Elev       MaxDepth   InitDepth  Shape      Curve/Params
;;-------------- ---------- ---------- ---------- ---------- ----------
A                20.00      10.00      0          FUNCTIONAL 1000.00 0          0
B                20.00      10.00      0          FUNCTIONAL 1000.00 0          0
E                20.00      10.00      0          FUNCTIONAL 1000.00 0          0
C                20.00      10.00      0          FUNCTIONAL 1000.00 0          0
D                20.00      10.00      0          FUNCTIONAL 1000.00 0          0

[CONDUITS]
;;Name           From             To               Length     Roughness  InOffset   OutOffset  InitFlow   MaxFlow
;;-------------- ---------------- ---------------- ---------- ---------- ---------- ---------- ---------- ----------
Chan1            E                B                1000.00    0.0140     10.00      9.95       0          0
Chan2            D                C                1000.00    0.0140     10.00      9.95       0          0
C_OUT_SYNTH      B                OUT_SYNTH        50.00      0.0130     0          0          0          0

[WEIRS]
;;Name           From             To               Type       CrestHt    Qcoeff     Gated    EndCon   EndCoeff   Surcharge
;;-------------- ---------------- ---------------- ---------- ---------- ---------- -------- -------- ---------- ----------
WeirAB           A                B                TRANSVERSE 12.00      1.840      NO       0        0          YES
WeirCA           C                A                TRANSVERSE 12.00      1.840      NO       0        0          YES

[XSECTIONS]
;;Link           Shape        Geom1      Geom2      Geom3      Geom4      Barrels
;;-------------- ------------ ---------- ---------- ---------- ---------- ----------
Chan1            CIRCULAR     4.00       0          0          0          1
Chan2            CIRCULAR     4.00       0          0          0          1
C_OUT_SYNTH      CIRCULAR     3.00       0          0          0          1
WeirAB           RECT_OPEN    1.00       2.00       0          0
WeirCA           RECT_OPEN    1.00       2.00       0          0

[LOSSES]
;;Link           Inlet      Outlet     Average    Flap Gate
;;-------------- ---------- ---------- ---------- ----------
Chan1            0          0          0          NO
Chan2            0          0          0          NO
C_OUT_SYNTH      0          0          0          NO

[INFLOWS]
;;Node           Constituent  Time Series      Type     Mfactor  Sfactor  Baseline Pattern
;;-------------- ------------ ---------------- -------- -------- -------- -------- --------
;; SYNTHETIC TEST INFLOWS — the source .xp carried no constant inflows
;; and RUNF hydrology is not converted; 1.00 CFS is applied at each
;; headwater node so the network runs wet for QA. Replace with real
;; hydrology or inflow hydrographs before using results.
E                FLOW         ""               FLOW     1.0      1.0      1.00
D                FLOW         ""               FLOW     1.0      1.0      1.00

[COORDINATES]
;;Node           X-Coord            Y-Coord
;;-------------- ------------------ ------------------
A                17.64              17.64             
B                17.64              57.64             
E                17.64              97.64             
C                37.64              37.64             
D                37.64              77.64             

[MAP]
DIMENSIONS 17.64 17.64 37.64 97.64
Units      None

[REPORT]
SUBCATCHMENTS ALL
NODES ALL
LINKS ALL
