;; SWMM5 .inp converted from XPSWMM .xp file
;; Generated by XPSWMM Card Reader
;; Source format: XP_CARD | Original title: Example of transport confluence using wieghted areas for
;; Links parsed from source: 7 | Routable in this .inp: 7

[TITLE]
;;Project Title/Notes
Example of transport confluence using wieghted areas for

[OPTIONS]
FLOW_UNITS           CFS
INFILTRATION         HORTON
FLOW_ROUTING         DYNWAVE
LINK_OFFSETS         DEPTH
MIN_SLOPE            0.0
ALLOW_PONDING        NO
SKIP_STEADY_STATE    NO
INERTIAL_DAMPING     PARTIAL
NORMAL_FLOW_LIMITED  BOTH
START_DATE           01/01/2001
START_TIME           00:00:00
REPORT_START_DATE    01/01/2001
REPORT_START_TIME    00:00:00
END_DATE             01/02/2001
END_TIME             00:00:00
SWEEP_START          01/01
SWEEP_END            12/31
DRY_DAYS             0
REPORT_STEP          00:15:00
WET_STEP             00:05:00
DRY_STEP             01:00:00

[JUNCTIONS]
;;Name           Elev       MaxDepth   InitDepth  SurDepth   Aponded
;;-------------- ---------- ---------- ---------- ---------- ----------
201              0          0          0          0          0
202              0          0          0          0          0
204              0          0          0          0          0
206              0          0          0          0          0
210              0          0          0          0          0
216.2            0          0          0          0          0
216.3            0          0          0          0          0

[OUTFALLS]
;;Name           Elev       Type       Stage      Gated
;;-------------- ---------- ---------- ---------- -----
208              0          FREE                  NO

[CONDUITS]
;;Name           From             To               Length     Roughness  InOffset   OutOffset  InitFlow   MaxFlow
;;-------------- ---------------- ---------------- ---------- ---------- ---------- ---------- ---------- ----------
dummy            201              202              10.00      0.0150     0          0          0          0
dummy_2          202              204              10.00      0.0150     0          0          0          0
Dummy_3          204              206              10.00      0.0150     0          0          0          0
dummy6           206              208              10.00      0.0150     0          0          0          0
DUMMY_4          202              210              10.00      0.0150     0          0          0          0
dUMMY4           210              206              10.00      0.0150     0          0          0          0
216.1            216.2            216.3            10.00      0.0150     0          0          0          0

[XSECTIONS]
;;Link           Shape        Geom1      Geom2      Geom3      Geom4      Barrels
;;-------------- ------------ ---------- ---------- ---------- ---------- ----------
dummy            CIRCULAR     4.00       0          0          0          1
dummy_2          CIRCULAR     8.00       0          0          0          1
Dummy_3          CIRCULAR     4.00       0          0          0          1
dummy6           CIRCULAR     8.00       0          0          0          1
DUMMY_4          CIRCULAR     4.00       0          0          0          1
dUMMY4           CIRCULAR     4.00       0          0          0          1
216.1            CIRCULAR     4.00       0          0          0          1

[LOSSES]
;;Link           Inlet      Outlet     Average    Flap Gate
;;-------------- ---------- ---------- ---------- ----------
dummy            0          0          0          NO
dummy_2          0          0          0          NO
Dummy_3          0          0          0          NO
dummy6           0          0          0          NO
DUMMY_4          0          0          0          NO
dUMMY4           0          0          0          NO
216.1            0          0          0          NO

[INFLOWS]
;;Node           Constituent  Time Series      Type     Mfactor  Sfactor  Baseline Pattern
;;-------------- ------------ ---------------- -------- -------- -------- -------- --------
;; SYNTHETIC TEST INFLOWS — the source .xp carried no constant inflows
;; and RUNF hydrology is not converted; 1.00 CFS is applied at each
;; headwater node so the network runs wet for QA. Replace with real
;; hydrology or inflow hydrographs before using results.
201              FLOW         ""               FLOW     1.0      1.0      1.00
216.2            FLOW         ""               FLOW     1.0      1.0      1.00

[COORDINATES]
;;Node           X-Coord            Y-Coord
;;-------------- ------------------ ------------------
201              -2.36              97.64             
202              37.64              97.64             
204              57.64              77.64             
206              77.64              97.64             
208              117.64             97.64             
210              59.19              117.42            

[MAP]
DIMENSIONS -2.36 77.64 117.64 117.42
Units      None

[REPORT]
SUBCATCHMENTS ALL
NODES ALL
LINKS ALL
