;; SWMM5 .inp converted from XPSWMM .xp file
;; Generated by XPSWMM Card Reader
;; Source format: XP_CARD | Original title: Interceptor Model - CSO002 AND 003 SEPARATED, JUDAY CREEK LS
;; Links parsed from source: 218 | Routable in this .inp: 218

[TITLE]
;;Project Title/Notes
Interceptor Model - CSO002 AND 003 SEPARATED, JUDAY CREEK LS

[OPTIONS]
FLOW_UNITS           CFS
INFILTRATION         HORTON
FLOW_ROUTING         DYNWAVE
LINK_OFFSETS         DEPTH
MIN_SLOPE            0.0
ALLOW_PONDING        NO
SKIP_STEADY_STATE    NO
ROUTING_STEP         00:00:10
VARIABLE_STEP        0.75
INERTIAL_DAMPING     PARTIAL
NORMAL_FLOW_LIMITED  BOTH
MAX_TRIALS           50
HEAD_TOLERANCE       0.0033
START_DATE           01/01/2001
START_TIME           00:00:00
REPORT_START_DATE    01/01/2001
REPORT_START_TIME    00:00:00
END_DATE             01/02/2001
END_TIME             00:00:00
SWEEP_START          01/01
SWEEP_END            12/31
DRY_DAYS             0
REPORT_STEP          00:15:00
WET_STEP             00:05:00
DRY_STEP             01:00:00

[JUNCTIONS]
;;Name           Elev       MaxDepth   InitDepth  SurDepth   Aponded
;;-------------- ---------- ---------- ---------- ---------- ----------
I021186N         715.00     0          0          0          0
I021185N         715.00     0          0          0          0
I021177N         716.00     0          0          0          0
I021175N         716.00     0          0          0          0
I021174N         715.00     0          0          0          0
I021172N         715.00     0          0          0          0
I021170N         716.00     0          0          0          0
I003166N         705.19     0          0          0          0
IWTP161N         715.00     0          0          0          0
IWTP161AN        695.00     0          0          0          0
WWTP             695.00     0          0          0          0
IWTP000N         696.00     0          0          0          0
IWTP001N         698.00     0          0          0          0
IWTPOO3N         697.00     0          0          0          0
IWTP004N         702.00     0          0          0          0
I009006N         694.00     0          0          0          0
I009009N         697.00     0          0          0          0
I010011N         701.00     0          0          0          0
T010005N         700.00     0          0          0          0
I010014N         710.00     0          0          0          0
I010015N         706.00     0          0          0          0
I010017N         709.00     0          0          0          0
I010018N         710.00     0          0          0          0
I014021N         707.00     0          0          0          0
I014023N         713.00     0          0          0          0
I014025N         715.00     0          0          0          0
I014027N         720.00     0          0          0          0
I014028N         722.00     0          0          0          0
I014029N         723.00     0          0          0          0
I014031N         722.00     0          0          0          0
I014033N         705.00     0          0          0          0
I014034N         705.00     0          0          0          0
I014035N         712.00     0          0          0          0
I014036N         712.00     0          0          0          0
I014037N         712.00     0          0          0          0
CSO018OF         713.12     0          0          0          0
CSO014OF1        699.54     0          0          0          0
CSO002OF         699.17     0          0          0          0
CSO18A           727.00     0          0          0          0
CSO18B           726.00     0          0          0          0
CSO18C           726.00     0          0          0          0
CSO18D           723.00     0          0          0          0
CSO18E           723.00     0          0          0          0
I18E045N         724.00     0          0          0          0
I18E046N         726.00     0          0          0          0
I18E047N         723.00     0          0          0          0
I18E049N         723.00     0          0          0          0
I18E052N         721.00     0          0          0          0
I18E054N         722.00     0          0          0          0
I18E062N         726.00     0          0          0          0
I18E064N         727.00     0          0          0          0
I18E066N         728.00     0          0          0          0
I18E067N         727.00     0          0          0          0
I18E068N         730.00     0          0          0          0
I18E071N         729.00     0          0          0          0
I18E072N         729.00     0          0          0          0
I18E074N         731.00     0          0          0          0
I18E075N         730.00     0          0          0          0
I18E078          730.00     0          0          0          0
I009217N         705.00     0          0          0          0
I009218N         698.00     0          0          0          0
I009216N         704.00     0          0          0          0
I009212N         716.00     0          0          0          0
I009208N         719.00     0          0          0          0
I009206N         721.00     0          0          0          0
I009202N         722.00     0          0          0          0
CSO0120F         715.09     0          0          0          0
I012088N         717.00     0          0          0          0
I12BO91N         722.00     0          0          0          0
CSO012AOF        714.65     0          0          0          0
I12B098N         723.00     0          0          0          0
I12B099N         724.00     0          0          0          0
I12B100N         722.00     0          0          0          0
I12B101N         723.00     0          0          0          0
I12B102N         724.00     0          0          0          0
I12B104N         725.00     0          0          0          0
I010187N         698.00     0          0          0          0
I010010N         696.00     0          0          0          0
CSO011OF         697.48     0          0          0          0
I010190N         707.00     0          0          0          0
CSO019OF         710.69     0          0          0          0
I010132N         712.00     0          0          0          0
I010133N         714.00     0          0          0          0
I010134N         720.00     0          0          0          0
I010135N         721.00     0          0          0          0
CSO016OF         722.82     0          0          0          0
I014020N         700.00     0          0          0          0
I015150N         703.00     0          0          0          0
CSO017           702.00     0          0          0          0
CSO015OFN        699.31     0          0          0          0
IWTP220N         692.00     0          0          0          0
IWTP221N         685.00     0          0          0          0
I004111N         716.00     0          0          0          0
I004112N         717.00     0          0          0          0
CSO004OF         711.33     0          0          0          0
I004110AN        716.00     0          0          0          0
I004110BN        716.00     0          0          0          0
CSO006OF         716.00     0          0          0          0
I004113N         716.00     0          0          0          0
I004114N         715.00     0          0          0          0
I004115N         717.00     0          0          0          0
I004116N         716.00     0          0          0          0
I004117N         718.00     0          0          0          0
CSO008OF         719.00     0          0          0          0
CSO007OF         714.04     0          0          0          0
CSO005OF         714.00     0          0          0          0
T003005N         710.31     0          0          0          0
T003010N         710.31     0          0          0          0
CSO003OFN        710.31     0          0          0          0
CSO004OFN        711.33     0          0          0          0
CSO009OFN        692.79     0          0          0          0
CSO009OF         692.79     0          0          0          0
CSO011OFN        697.48     0          0          0          0
T011020N         740.00     0          0          0          0
T011015N         735.00     0          0          0          0
T011198N         720.00     0          0          0          0
CSO0120FN        715.09     0          0          0          0
CSO012AOFN       714.65     0          0          0          0
T012A005N        714.65     0          0          0          0
T012010N         717.00     0          0          0          0
T012015N         721.01     0          0          0          0
CSO012BOFN       721.01     0          0          0          0
CSO012BOF        721.01     0          0          0          0
T013104N         725.00     0          0          0          0
CSO016OFN        722.82     0          0          0          0
T016137N         722.82     0          0          0          0
CSO018OFN        713.12     0          0          0          0
CSO020OFN        730.24     0          0          0          0
CSO020OF         730.24     0          0          0          0
CSO019OFN        710.69     0          0          0          0
CSO019N          710.69     0          0          0          0
CSO002OFN        699.17     0          0          0          0
409              721.82     0          0          0          0
T002005N         699.00     0          0          0          0
T002010N         699.00     0          0          0          0
I18E056N         727.00     0          0          0          0
CSO003OF         710.30     0          0          0          0
CSO009N          692.79     0          0          0          0
CSO011N          697.00     0          0          0          0
CSO020N          730.00     0          0          0          0
CSO006OFN        716.00     0          0          0          0
CSO014OF2        700.00     0          0          0          0
T021005N         715.00     0          0          0          0
T005005N         716.00     0          0          0          0
T007126N         715.00     0          0          0          0
T008005N         730.00     0          0          0          0
T006005N         715.00     0          0          0          0
T009005N         715.00     0          0          0          0
T019195N         716.00     0          0          0          0
T015005N         710.00     0          0          0          0
T014015N         722.00     0          0          0          0
T014020N         725.00     0          0          0          0
T020005N         730.00     0          0          0          0
I021169N         711.00     0          0          0          0
I003164N         710.00     0          0          0          0
CSO013OFN        725.00     0          0          0          0
CSO013OF         725.00     0          0          0          0
CSO015OF         699.31     0          0          0          0
POUT             695.00     0          0          0          0
WWTPN            695.00     0          0          0          0
03-GWTRN         740.00     0          0          0          0
11-1GWTRN        730.00     0          0          0          0
11-2GWTRN        750.00     0          0          0          0
I021165N         707.00     0          0          0          0
I010012N         698.10     0          0          0          0
19-GWTR          730.00     0          0          0          0
T003009N         710.31     0          0          0          0
T003008N         710.31     0          0          0          0
T011014N         735.00     0          0          0          0
T011013N         735.00     0          0          0          0
T011012N         735.00     0          0          0          0
T011011N         735.00     0          0          0          0
T011010N         735.00     0          0          0          0
T011009N         735.00     0          0          0          0
T011008N         735.00     0          0          0          0
T011007N         735.00     0          0          0          0
T002010AN        699.00     0          0          0          0
T002010BN        699.00     0          0          0          0
T002010CN        699.00     0          0          0          0
T002010DN        699.00     0          0          0          0
T002010EN        699.00     0          0          0          0
T002010FN        699.00     0          0          0          0
MH008#2          682.29     0          0          0          0

[OUTFALLS]
;;Name           Elev       Type       Stage      Gated
;;-------------- ---------- ---------- ---------- -----
I009008N         696.00     FREE                  NO

[STORAGE]
;;Name           Elev       MaxDepth   InitDepth  Shape      Curve/Params
;;-------------- ---------- ---------- ---------- ---------- ----------
CSO002           699.00     10.00      0          FUNCTIONAL 13.00 0          0
CSO021           705.19     10.00      0          FUNCTIONAL 13.00 0          0
CSO003N          710.00     10.00      0          FUNCTIONAL 32.00 0          0
CSO009           692.79     10.00      0          FUNCTIONAL 13.00 0          0
CSO010           696.00     10.00      0          FUNCTIONAL 63.00 0          0
CSO014           701.00     10.00      0          FUNCTIONAL 13.00 0          0
I014019N         698.00     10.00      0          FUNCTIONAL 13.00 0          0
CSO018           713.12     10.00      0          FUNCTIONAL 13.00 0          0
CSO020           730.00     10.00      0          FUNCTIONAL 13.00 0          0
I009220N         695.00     10.00      0          FUNCTIONAL 13.00 0          0
I009210N         717.00     10.00      0          FUNCTIONAL 13.00 0          0
CSO012           715.09     10.00      0          FUNCTIONAL 13.00 0          0
CSO012A          714.65     10.00      0          FUNCTIONAL 30.00 0          0
CSO12B           721.00     10.00      0          FUNCTIONAL 60.00 0          0
I12B093N         722.00     10.00      0          FUNCTIONAL 13.00 0          0
I12B097N         721.00     10.00      0          FUNCTIONAL 13.00 0          0
CSO013           725.00     10.00      0          FUNCTIONAL 25.00 0          0
CSO011           697.00     10.00      0          FUNCTIONAL 16.00 0          0
CSO019           710.69     10.00      0          FUNCTIONAL 13.00 0          0
CSO015N          699.00     10.00      0          FUNCTIONAL 13.00 0          0
CSO006           716.00     10.00      0          FUNCTIONAL 13.00 0          0
CSO008           719.00     10.00      0          FUNCTIONAL 13.00 0          0
CSO007           714.04     10.00      0          FUNCTIONAL 50.00 0          0
CSO005           714.06     10.00      0          FUNCTIONAL 13.00 0          0
CSO003           710.31     10.00      0          FUNCTIONAL 42.00 0          0
CSO004           711.33     10.00      0          FUNCTIONAL 26.00 0          0
CSO015           699.31     10.00      0          FUNCTIONAL 13.00 0          0
CSO016           722.82     10.00      0          FUNCTIONAL 26.00 0          0
CSO004N          711.00     10.00      0          FUNCTIONAL 26.00 0          0
CSO014N          700.00     10.00      0          FUNCTIONAL 13.00 0          0
CSO016N          722.00     10.00      0          FUNCTIONAL 13.00 0          0
CSO018N          713.00     10.00      0          FUNCTIONAL 13.00 0          0
03-GWTR          724.00     10.00      0          FUNCTIONAL 1000.00 0          0
11-1GWTR         730.00     10.00      0          FUNCTIONAL 1000.00 0          0
11-2GWTR         750.00     10.00      0          FUNCTIONAL 1000.00 0          0
19-GWTRN         720.00     10.00      0          FUNCTIONAL 1000.00 0          0

[CONDUITS]
;;Name           From             To               Length     Roughness  InOffset   OutOffset  InitFlow   MaxFlow
;;-------------- ---------------- ---------------- ---------- ---------- ---------- ---------- ---------- ----------
609              409              I021186N         500.00     0.0140     687.32     701.77     0          0
202              I021186N         I021185N         560.00     0.0140     701.77     701.47     0          0
203              I021185N         I021177N         558.00     0.0140     701.47     700.30     0          0
211              I021177N         I021175N         599.00     0.0140     700.30     699.16     0          0
213              I021175N         I021174N         337.00     0.0140     699.16     698.37     0          0
215              I021174N         I021172N         773.00     0.0140     698.37     696.93     0          0
217              I021172N         I021170N         632.00     0.0140     696.93     695.38     0          0
684              I021169N         CSO021           475.00     0.0140     694.94     692.06     0          0
221              CSO021           I003166N         300.00     0.0054     691.89     690.58     0          0
223              I003166N         I021165N         350.00     0.0140     690.58     690.52     0          0
225              CSO003N          IWTP161N         550.00     0.0140     689.53     688.54     0          0
227              IWTP161N         IWTP161AN        585.00     0.0140     688.54     687.55     0          0
229              IWTP161AN        WWTP             300.00     0.0140     679.13     678.83     0          0
629              CSO009N          IWTP004N         366.00     0.0140     680.49     680.19     0          0
239              IWTP004N         IWTPOO3N         602.00     0.0140     680.19     679.69     0          0
237              IWTPOO3N         IWTP001N         572.00     0.0140     679.69     679.21     0          0
235              IWTP001N         IWTP000N         394.00     0.0140     679.21     678.66     0          0
233              IWTP000N         IWTP161AN        300.00     0.0090     679.21     679.13     0          0
253              I009006N         CSO009           708.00     0.0160     681.86     681.21     0          0
255              I009009N         I009008N         225.00     0.0160     682.96     682.29     0          0
MH008#1          MH008#2          I009006N         771.00     0.0140     682.29     681.86     0          0
263              I010014N         I010012N         438.00     0.0160     687.07     686.57     0          0
717              I010012N         I010011N         480.00     0.0160     686.57     685.90     0          0
270              I010018N         I010017N         366.00     0.0160     688.43     688.17     0          0
269              I010017N         I010015N         763.00     0.0160     688.17     687.39     0          0
268              I010015N         I010014N         316.00     0.0160     687.39     687.07     0          0
275              I014019N         CSO014           423.00     0.0160     690.66     689.94     0          0
282              I014028N         I014027N         283.00     0.0160     694.37     694.00     0          0
281              I014027N         I014025N         567.00     0.0160     694.00     693.21     0          0
280              I014025N         I014023N         603.00     0.0160     693.21     692.35     0          0
279              I014023N         I014021N         617.00     0.0160     692.35     691.49     0          0
278              I014021N         I014019N         266.00     0.0160     691.49     690.66     0          0
291              I014034N         I014033N         575.00     0.0160     696.62     696.01     0          0
290              I014033N         I014031N         570.00     0.0160     696.01     695.41     0          0
289              I014031N         I014029N         505.00     0.0160     695.41     694.88     0          0
288              I014029N         I014028N         363.00     0.0160     694.88     694.37     0          0
638              CSO018N          I014037N         436.00     0.0160     699.59     699.02     0          0
298              I014037N         I014036N         448.00     0.0160     699.02     698.21     0          0
297              I014036N         I014035N         463.00     0.0160     698.21     697.70     0          0
296              I014035N         I014034N         557.00     0.0160     697.70     696.62     0          0
596              CSO018OFN        CSO018OF         300.00     0.0140     699.52     693.00     0          0
608              CSO002OFN        CSO002OF         300.00     0.0140     687.32     680.00     0          0
319              CSO18D           CSO18C           371.00     0.0140     707.39     706.70     0          0
318              CSO18C           CSO18B           450.00     0.0140     706.70     704.87     0          0
317              CSO18B           CSO18A           300.00     0.0140     704.87     704.30     0          0
316              CSO18A           CSO018           335.00     0.0140     704.30     699.82     0          0
332              CSO18E           CSO18D           300.00     0.0096     707.52     707.39     0          0
336              I18E045N         CSO18E           300.00     0.0054     707.39     707.52     0          0
340              I18E049N         I18E047N         565.00     0.0140     708.54     707.95     0          0
339              I18E047N         I18E046N         420.00     0.0140     707.95     707.62     0          0
338              I18E046N         I18E045N         416.00     0.0140     707.62     707.39     0          0
348              I18E054N         I18E052N         493.00     0.0140     709.74     708.91     0          0
364              I18E066N         I18E064N         513.00     0.0140     712.39     711.72     0          0
363              I18E064N         I18E062N         455.00     0.0140     711.72     711.35     0          0
370              I18E071N         I18E068N         300.00     0.0095     713.34     713.13     0          0
369              I18E068N         I18E067N         432.00     0.0140     713.13     712.57     0          0
368              I18E067N         I18E066N         382.00     0.0140     712.57     712.39     0          0
376              I18E075N         I18E074N         318.00     0.0140     714.54     714.25     0          0
375              I18E074N         I18E072N         482.00     0.0140     714.25     713.82     0          0
374              I18E072N         I18E071N         428.00     0.0140     713.82     713.34     0          0
640              CSO020N          I18E078          300.00     0.0043     716.14     715.30     0          0
380              I18E078          I18E075N         713.00     0.0140     715.16     714.54     0          0
386              I009220N         I009006N         341.00     0.0140     686.42     681.86     0          0
390              I009216N         I009217N         375.00     0.0140     691.20     689.74     0          0
388              I009217N         I009218N         370.00     0.0140     689.09     687.17     0          0
389              I009218N         I009220N         383.00     0.0140     687.17     686.92     0          0
394              I009212N         I009216N         331.00     0.0140     697.51     691.65     0          0
399              I009202N         I009206N         471.00     0.0140     702.18     700.43     0          0
398              I009206N         I009208N         286.00     0.0140     700.43     699.51     0          0
397              I009208N         I009210N         333.00     0.0140     699.51     698.18     0          0
396              I009210N         I009212N         370.00     0.0140     698.18     698.26     0          0
404              CSO012           I009202N         300.00     0.0120     703.62     702.28     0          0
563              CSO0120FN        CSO0120F         300.00     0.0140     702.95     692.00     0          0
408              CSO012A          CSO012           300.00     0.0052     704.06     703.37     0          0
412              I12BO91N         CSO12B           531.00     0.0140     710.53     709.93     0          0
411              CSO12B           I012088N         366.00     0.0140     709.61     706.47     0          0
410              I012088N         CSO012           349.00     0.0140     706.47     703.49     0          0
416              I12B093N         I12BO91N         473.00     0.0140     711.27     710.53     0          0
565              CSO012AOFN       CSO012AOF        300.00     0.0140     703.80     692.20     0          0
427              CSO013           I12B104N         300.00     0.0028     715.19     714.63     0          0
426              I12B104N         I12B102N         425.00     0.0140     713.76     713.48     0          0
425              I12B102N         I12B101N         411.00     0.0140     713.48     712.93     0          0
424              I12B101N         I12B100N         328.00     0.0140     712.93     712.60     0          0
423              I12B100N         I12B099N         315.00     0.0140     712.60     712.19     0          0
422              I12B099N         I12B098N         315.00     0.0140     712.19     711.84     0          0
421              I12B098N         I12B097N         326.00     0.0140     711.84     711.42     0          0
420              I12B097N         I12B093N         297.00     0.0140     711.42     711.27     0          0
436              I010187N         CSO010           300.00     0.0087     692.91     692.09     0          0
631              CSO011N          CSO010           267.00     0.0100     687.98     687.76     0          0
261              I010011N         I010010N         695.00     0.0160     685.90     684.98     0          0
440              I010010N         CSO010           300.00     0.0085     684.98     684.86     0          0
551              CSO011OFN        CSO011OF         300.00     0.0140     688.58     681.90     0          0
605              CSO019N          I010190N         271.00     0.0140     696.78     695.90     0          0
446              I010190N         I010187N         430.00     0.0140     695.90     692.91     0          0
604              CSO019OFN        CSO019OF         300.00     0.0140     696.39     681.90     0          0
636              CSO016N          I010135N         300.00     0.0108     704.24     704.14     0          0
457              I010135N         I010134N         320.00     0.0140     704.14     703.25     0          0
456              I010134N         I010133N         285.00     0.0140     701.35     700.75     0          0
455              I010133N         I010132N         534.00     0.0140     700.75     699.65     0          0
454              I010132N         I010018N         527.00     0.0140     699.65     698.72     0          0
589              CSO016OFN        CSO016OF         300.00     0.0140     704.24     693.00     0          0
469              CSO017           I015150N         457.00     0.0140     692.79     692.57     0          0
468              I015150N         CSO015N          980.00     0.0140     692.57     691.31     0          0
467              CSO015N          I014020N         218.00     0.0140     691.21     691.29     0          0
466              I014020N         I014019N         284.00     0.0140     691.29     690.66     0          0
479              CSO021           IWTP220N         315.00     0.0140     681.96     681.33     0          0
478              IWTP220N         IWTP000N         300.00     0.0108     681.33     680.97     0          0
536              CSO004OFN        CSO004OF         300.00     0.0140     684.40     682.00     0          0
486              I004112N         I004111N         362.00     0.0140     698.21     697.08     0          0
485              I004111N         CSO004           584.00     0.0140     697.08     684.58     0          0
493              CSO006           I004110BN        417.00     0.0140     699.60     697.29     0          0
492              I004110BN        I004110AN        324.00     0.0140     697.29     695.35     0          0
491              I004110AN        CSO004N          329.00     0.0140     695.35     684.16     0          0
642              CSO006OFN        CSO006OF         300.00     0.0140     699.82     682.00     0          0
502              I004116N         I004115N         355.00     0.0140     703.16     701.76     0          0
501              I004115N         I004114N         359.00     0.0140     701.76     700.31     0          0
500              I004114N         I004113N         362.00     0.0140     700.31     699.71     0          0
499              I004113N         I004112N         378.00     0.0140     699.71     698.21     0          0
510              CSO008           I004117N         466.00     0.0140     706.48     704.49     0          0
509              I004117N         I004116N         363.00     0.0140     704.49     703.16     0          0
510_2            CSO008           CSO008OF         300.00     0.0140     707.34     681.50     0          0
515              CSO007           I004116N         287.00     0.0140     705.32     704.61     0          0
515_2            CSO007           CSO007OF         300.00     0.0111     706.64     682.00     0          0
519              CSO005           I004111N         359.00     0.0140     703.41     702.08     0          0
519_2            CSO005           CSO005OF         240.00     0.0140     704.27     682.00     0          0
529              T003010N         T003009N         700.00     0.0140     700.91     700.58     0          0
528              T003005N         CSO003           950.00     0.0140     699.94     696.14     0          0
543              CSO009OFN        CSO009OF         300.00     0.0140     678.89     678.59     0          0
556              T011020N         T011015N         560.00     0.0140     719.32     714.34     0          0
557              T011015N         T011014N         500.00     0.0140     714.34     712.59     0          0
558              T011198N         CSO011           340.00     0.0140     699.22     688.68     0          0
567              T012A005N        CSO012A          224.00     0.0140     704.11     704.07     0          0
569              T012010N         I012088N         200.00     0.0140     706.77     706.47     0          0
571              T012015N         CSO12B           200.00     0.0140     710.15     709.93     0          0
573              CSO012BOFN       CSO012BOF        300.00     0.0140     709.71     708.81     0          0
579              T013104N         CSO013           297.00     0.0140     715.58     715.19     0          0
592              T016137N         CSO016           300.00     0.0025     704.35     704.24     0          0
599              CSO020OFN        CSO020OF         300.00     0.0140     716.11     693.00     0          0
613              T002010N         T002010AN        500.00     0.0140     695.70     695.42     0          0
612              T002005N         CSO002           300.00     0.0089     693.66     687.32     0          0
362              I18E062N         I18E056N         878.00     0.0140     711.35     710.22     0          0
616              I18E056N         I18E054N         711.00     0.0140     710.22     709.74     0          0
347              I18E052N         I18E049N         832.00     0.0140     708.91     708.54     0          0
533              CSO003OFN        CSO003OF         300.00     0.0140     696.20     681.00     0          0
274_2            CSO014           CSO014OF1        300.00     0.0140     697.54     693.00     0          0
633              CSO014N          CSO014OF2        300.00     0.0140     698.04     693.00     0          0
647              T021005N         CSO021           300.00     0.0082     691.94     691.89     0          0
651              T005005N         CSO005           300.00     0.0081     703.53     703.27     0          0
653              T007126N         CSO007           300.00     0.0052     705.77     705.32     0          0
655              T008005N         CSO008           300.00     0.0081     706.68     706.44     0          0
661              T006005N         CSO006           300.00     0.0101     699.73     699.60     0          0
663              T009005N         I009220N         300.00     0.0081     686.70     686.42     0          0
667              T019195N         CSO019           300.00     0.0091     697.60     696.34     0          0
673              T015005N         CSO015           300.00     0.0098     694.91     693.51     0          0
675              T014015N         I014028N         900.00     0.0160     695.36     694.37     0          0
677              T014020N         T014015N         1000.00    0.0160     698.06     695.36     0          0
679              T020005N         CSO020           305.00     0.0140     716.45     716.14     0          0
633_2            CSO014N          I010018N         422.00     0.0527     689.89     688.56     0          0
260              CSO010           I009009N         675.00     0.0201     684.86     682.96     0          0
627              CSO004N          IWTP221N         416.00     0.0133     684.59     681.96     0          0
219              I021170N         I021169N         329.00     0.0140     695.38     694.94     0          0
686              I003164N         CSO003N          300.00     0.0079     690.14     689.53     0          0
690              CSO013OFN        CSO013OF         300.00     0.0140     714.24     713.94     0          0
474              CSO015OFN        CSO015OF         300.00     0.0140     693.51     693.00     0          0
705              WWTPN            POUT             150.00     0.0140     681.15     681.00     0          0
709              03-GWTRN         03-GWTR          150.00     0.0050     727.00     721.00     0          0
711              11-1GWTRN        11-1GWTR         150.00     0.0140     723.25     721.00     0          0
713              11-2GWTRN        11-2GWTR         150.00     0.0140     743.25     741.00     0          0
715              I021165N         I003164N         352.00     0.0140     690.52     690.14     0          0
262              T010005N         I010012N         300.00     0.0140     690.67     688.57     0          0
719              19-GWTR          19-GWTRN         150.00     0.0050     716.50     715.00     0          0
723              T003009N         T003008N         700.00     0.0140     700.58     700.26     0          0
724              T003008N         T003005N         700.00     0.0140     700.26     699.94     0          0
727              T011014N         T011013N         500.00     0.0140     712.59     710.84     0          0
728              T011013N         T011012N         500.00     0.0140     710.84     709.09     0          0
729              T011012N         T011011N         500.00     0.0140     709.09     707.34     0          0
730              T011011N         T011010N         500.00     0.0140     707.34     705.59     0          0
731              T011010N         T011009N         500.00     0.0140     705.59     703.84     0          0
732              T011009N         T011008N         500.00     0.0140     703.84     702.09     0          0
733              T011008N         T011007N         500.00     0.0140     702.09     700.34     0          0
734              T011007N         T011198N         320.00     0.0140     700.34     699.22     0          0
744              T002010AN        T002010BN        500.00     0.0140     695.42     695.15     0          0
745              T002010BN        T002010CN        500.00     0.0140     695.15     694.87     0          0
746              T002010CN        T002010DN        500.00     0.0140     694.87     694.60     0          0
747              T002010DN        T002010EN        500.00     0.0140     694.60     694.32     0          0
748              T002010EN        T002010FN        500.00     0.0140     694.32     694.05     0          0
749              T002010FN        T002005N         700.00     0.0140     694.05     693.66     0          0

[ORIFICES]
;;Name           From             To               Type       Offset     Qcoeff     Gated    CloseTime
;;-------------- ---------------- ---------------- ---------- ---------- ---------- -------- ----------
527              CSO003           CSO003N          SIDE       0          0.650      NO       0
584              CSO015           CSO015N          SIDE       0          0.650      NO       0
447_2            CSO019           CSO019N          SIDE       0          0.650      NO       0
535_2            CSO004           CSO004N          SIDE       0          0.650      NO       0
241_2            CSO009           CSO009N          SIDE       0          0.650      NO       0
437_2            CSO011           CSO011N          SIDE       0          0.650      NO       0
274              CSO014           CSO014N          SIDE       0          0.650      NO       0
588_2            CSO016           CSO016N          SIDE       0          0.650      NO       0
meter            CSO018           CSO018N          SIDE       699.82     0.650      NO       0
381_2            CSO020           CSO020N          SIDE       0          0.650      NO       0

[WEIRS]
;;Name           From             To               Type       CrestHt    Qcoeff     Gated    EndCon   EndCoeff   Surcharge
;;-------------- ---------------- ---------------- ---------- ---------- ---------- -------- -------- ---------- ----------
535              CSO004           CSO004OFN        TRANSVERSE 685.78     1.840      NO       0        0          YES
241              CSO009           CSO009OFN        TRANSVERSE 686.00     1.840      NO       0        0          YES
437              CSO011           CSO011OFN        TRANSVERSE 690.48     1.840      NO       0        0          YES
404_2            CSO012           CSO0120FN        TRANSVERSE 704.81     1.840      NO       0        0          YES
408_2            CSO012A          CSO012AOFN       TRANSVERSE 704.55     1.840      NO       0        0          YES
411_2            CSO12B           CSO012BOFN       TRANSVERSE 711.54     1.840      NO       0        0          YES
588              CSO016           CSO016OFN        TRANSVERSE 705.54     1.840      NO       0        0          YES
299              CSO018           CSO018OFN        TRANSVERSE 702.82     1.840      NO       0        0          YES
381              CSO020           CSO020OFN        TRANSVERSE 717.34     1.840      NO       0        0          YES
447              CSO019           CSO019OFN        TRANSVERSE 699.84     1.840      NO       0        0          YES
201              CSO002           CSO002OFN        TRANSVERSE 688.67     1.840      NO       0        0          YES
h                CSO003           CSO003OFN        TRANSVERSE 697.81     1.840      NO       0        0          YES
584_2            CSO015           CSO015OFN        TRANSVERSE 695.21     1.840      NO       0        0          YES
493_2            CSO006           CSO006OFN        TRANSVERSE 700.18     1.840      NO       0        0          YES
649              03-GWTR          T003010N         TRANSVERSE 722.00     1.840      NO       0        0          YES
670              11-2GWTR         T011020N         TRANSVERSE 742.00     1.840      NO       0        0          YES
669              11-1GWTR         T011198N         TRANSVERSE 722.00     1.840      NO       0        0          YES
427_2            CSO013           CSO013OFN        V-NOTCH    716.86     1.840      NO       0        0          YES
721              19-GWTRN         T019195N         TRANSVERSE 716.00     1.840      NO       0        0          YES

[PUMPS]
;;Name           From             To               PumpCurve  Status   Startup    Shutoff
;;-------------- ---------------- ---------------- ---------- -------- ---------- ----------
201_2            CSO002           409              PC_201_2   ON       1.00       0         
231              WWTP             WWTPN            PC_231     ON       1.00       0         

[CURVES]
;;Name           Type       X-Value    Y-Value
;;-------------- ---------- ---------- ----------
;; Synthesized generic pump curves — replace with actual pump data
PC_201_2         Pump1      0          5
PC_201_2                    10         10
PC_231           Pump1      0          5
PC_231                      10         10

[XSECTIONS]
;;Link           Shape        Geom1      Geom2      Geom3      Geom4      Barrels
;;-------------- ------------ ---------- ---------- ---------- ---------- ----------
609              CIRCULAR     0.75       0          0          0          1
202              CIRCULAR     0.83       0          0          0          1
203              CIRCULAR     1.00       0          0          0          1
211              CIRCULAR     1.25       0          0          0          1
213              CIRCULAR     1.25       0          0          0          1
215              CIRCULAR     1.25       0          0          0          1
217              CIRCULAR     1.50       0          0          0          1
684              CIRCULAR     1.50       0          0          0          1
221              CIRCULAR     1.25       0          0          0          1
223              CIRCULAR     1.25       0          0          0          1
225              CIRCULAR     2.00       0          0          0          1
227              CIRCULAR     2.00       0          0          0          1
229              CIRCULAR     4.00       0          0          0          1
629              CIRCULAR     3.50       0          0          0          1
239              CIRCULAR     3.50       0          0          0          1
237              CIRCULAR     3.50       0          0          0          1
235              CIRCULAR     3.50       0          0          0          1
233              CIRCULAR     4.00       0          0          0          1
253              CIRCULAR     7.00       0          0          0          1
255              CIRCULAR     3.00       0          0          0          1
MH008#1          CIRCULAR     3.00       0          0          0          1
263              CIRCULAR     3.00       0          0          0          1
717              CIRCULAR     3.00       0          0          0          1
270              CIRCULAR     3.00       0          0          0          1
269              CIRCULAR     3.00       0          0          0          1
268              CIRCULAR     3.00       0          0          0          1
275              CIRCULAR     4.00       0          0          0          1
282              CIRCULAR     4.00       0          0          0          1
281              CIRCULAR     4.00       0          0          0          1
280              CIRCULAR     4.00       0          0          0          1
279              CIRCULAR     4.00       0          0          0          1
278              CIRCULAR     4.00       0          0          0          1
291              CIRCULAR     2.50       0          0          0          1
290              CIRCULAR     2.50       0          0          0          1
289              CIRCULAR     2.50       0          0          0          1
288              CIRCULAR     2.50       0          0          0          1
638              CIRCULAR     2.50       0          0          0          1
298              CIRCULAR     2.50       0          0          0          1
297              CIRCULAR     2.50       0          0          0          1
296              CIRCULAR     2.50       0          0          0          1
596              CIRCULAR     5.00       0          0          0          1
608              CIRCULAR     2.00       0          0          0          1
319              CIRCULAR     5.00       0          0          0          1
318              CIRCULAR     5.00       0          0          0          1
317              CIRCULAR     5.00       0          0          0          1
316              CIRCULAR     5.00       0          0          0          1
332              CIRCULAR     5.00       0          0          0          1
336              CIRCULAR     3.00       0          0          0          1
340              CIRCULAR     3.00       0          0          0          1
339              CIRCULAR     3.00       0          0          0          1
338              CIRCULAR     3.00       0          0          0          1
348              CIRCULAR     2.00       0          0          0          1
364              CIRCULAR     2.00       0          0          0          1
363              CIRCULAR     2.00       0          0          0          1
370              CIRCULAR     1.50       0          0          0          1
369              CIRCULAR     1.50       0          0          0          1
368              CIRCULAR     1.50       0          0          0          1
376              CIRCULAR     1.50       0          0          0          1
375              CIRCULAR     1.50       0          0          0          1
374              CIRCULAR     1.50       0          0          0          1
640              CIRCULAR     1.25       0          0          0          1
380              CIRCULAR     1.50       0          0          0          1
386              CIRCULAR     5.50       0          0          0          1
390              CIRCULAR     3.50       0          0          0          1
388              CIRCULAR     4.00       0          0          0          1
389              CIRCULAR     4.00       0          0          0          1
394              CIRCULAR     3.00       0          0          0          1
399              CIRCULAR     1.50       0          0          0          1
398              CIRCULAR     1.50       0          0          0          1
397              CIRCULAR     1.50       0          0          0          1
396              CIRCULAR     1.50       0          0          0          1
404              CIRCULAR     1.25       0          0          0          1
563              CIRCULAR     2.00       0          0          0          1
408              CIRCULAR     1.50       0          0          0          1
412              CIRCULAR     3.00       0          0          0          1
411              CIRCULAR     1.50       0          0          0          1
410              CIRCULAR     1.50       0          0          0          1
416              CIRCULAR     3.00       0          0          0          1
565              CIRCULAR     1.50       0          0          0          1
427              CIRCULAR     1.50       0          0          0          1
426              CIRCULAR     3.00       0          0          0          1
425              CIRCULAR     3.00       0          0          0          1
424              CIRCULAR     3.00       0          0          0          1
423              CIRCULAR     3.00       0          0          0          1
422              CIRCULAR     3.00       0          0          0          1
421              CIRCULAR     3.00       0          0          0          1
420              CIRCULAR     3.00       0          0          0          1
436              CIRCULAR     1.00       0          0          0          1
631              CIRCULAR     2.00       0          0          0          1
261              CIRCULAR     3.00       0          0          0          1
440              CIRCULAR     3.00       0          0          0          1
551              CIRCULAR     3.00       0          0          0          1
605              CIRCULAR     1.25       0          0          0          1
446              CIRCULAR     1.00       0          0          0          1
604              CIRCULAR     3.00       0          0          0          1
636              CIRCULAR     1.50       0          0          0          1
457              CIRCULAR     1.50       0          0          0          1
456              CIRCULAR     1.50       0          0          0          1
455              CIRCULAR     1.50       0          0          0          1
454              CIRCULAR     1.50       0          0          0          1
589              CIRCULAR     1.50       0          0          0          1
469              CIRCULAR     1.50       0          0          0          1
468              CIRCULAR     1.50       0          0          0          1
467              CIRCULAR     2.00       0          0          0          1
466              CIRCULAR     2.00       0          0          0          1
479              CIRCULAR     1.25       0          0          0          1
478              CIRCULAR     1.25       0          0          0          1
536              CIRCULAR     2.50       0          0          0          1
486              CIRCULAR     2.00       0          0          0          1
485              CIRCULAR     2.50       0          0          0          1
493              CIRCULAR     1.00       0          0          0          1
492              CIRCULAR     1.25       0          0          0          1
491              CIRCULAR     1.25       0          0          0          1
642              CIRCULAR     2.00       0          0          0          1
502              CIRCULAR     2.00       0          0          0          1
501              CIRCULAR     2.00       0          0          0          1
500              CIRCULAR     2.00       0          0          0          1
499              CIRCULAR     2.00       0          0          0          1
510              CIRCULAR     2.00       0          0          0          1
509              CIRCULAR     2.00       0          0          0          1
510_2            CIRCULAR     1.67       0          0          0          1
515              CIRCULAR     1.00       0          0          0          1
515_2            CIRCULAR     1.00       0          0          0          1
519              CIRCULAR     1.00       0          0          0          1
519_2            CIRCULAR     1.00       0          0          0          1
529              CIRCULAR     3.00       0          0          0          1
528              CIRCULAR     3.50       0          0          0          1
543              CIRCULAR     7.50       0          0          0          1
556              CIRCULAR     2.50       0          0          0          1
557              CIRCULAR     3.00       0          0          0          1
558              CIRCULAR     3.00       0          0          0          1
567              CIRCULAR     1.50       0          0          0          1
569              CIRCULAR     1.25       0          0          0          1
571              CIRCULAR     3.00       0          0          0          1
573              CIRCULAR     3.00       0          0          0          1
579              CIRCULAR     2.50       0          0          0          1
592              CIRCULAR     1.25       0          0          0          1
599              CIRCULAR     2.00       0          0          0          1
613              CIRCULAR     2.75       0          0          0          1
612              CIRCULAR     2.00       0          0          0          1
362              CIRCULAR     2.00       0          0          0          1
616              CIRCULAR     2.00       0          0          0          1
347              CIRCULAR     3.00       0          0          0          1
533              CIRCULAR     3.50       0          0          0          1
274_2            CIRCULAR     2.00       0          0          0          1
633              CIRCULAR     1.50       0          0          0          1
647              CIRCULAR     3.00       0          0          0          1
651              CIRCULAR     0.83       0          0          0          1
653              CIRCULAR     1.00       0          0          0          1
655              CIRCULAR     2.00       0          0          0          1
661              CIRCULAR     2.00       0          0          0          1
663              CIRCULAR     5.50       0          0          0          1
667              CIRCULAR     4.00       0          0          0          1
673              CIRCULAR     3.50       0          0          0          1
675              CIRCULAR     5.50       0          0          0          1
677              CIRCULAR     5.00       0          0          0          1
679              CIRCULAR     2.00       0          0          0          1
633_2            CIRCULAR     2.70       0          0          0          1
260              CIRCULAR     2.74       0          0          0          1
627              CIRCULAR     0.88       0          0          0          1
219              CIRCULAR     1.50       0          0          0          1
686              CIRCULAR     1.25       0          0          0          1
690              CIRCULAR     4.00       0          0          0          1
474              CIRCULAR     4.00       0          0          0          1
705              CIRCULAR     4.00       0          0          0          1
709              CIRCULAR     3.00       0          0          0          1
711              CIRCULAR     3.00       0          0          0          1
713              CIRCULAR     3.50       0          0          0          1
715              CIRCULAR     1.25       0          0          0          1
262              CIRCULAR     1.00       0          0          0          1
719              CIRCULAR     4.00       0          0          0          1
723              CIRCULAR     3.00       0          0          0          1
724              CIRCULAR     3.00       0          0          0          1
727              CIRCULAR     3.00       0          0          0          1
728              CIRCULAR     3.00       0          0          0          1
729              CIRCULAR     3.00       0          0          0          1
730              CIRCULAR     3.00       0          0          0          1
731              CIRCULAR     3.00       0          0          0          1
732              CIRCULAR     3.00       0          0          0          1
733              CIRCULAR     3.00       0          0          0          1
734              CIRCULAR     3.00       0          0          0          1
744              CIRCULAR     2.75       0          0          0          1
745              CIRCULAR     2.75       0          0          0          1
746              CIRCULAR     2.75       0          0          0          1
747              CIRCULAR     2.75       0          0          0          1
748              CIRCULAR     2.75       0          0          0          1
749              CIRCULAR     2.75       0          0          0          1
527              RECT_CLOSED  1.50       1.50       0          0
584              RECT_CLOSED  1.00       1.00       0          0
447_2            RECT_CLOSED  0.83       0.83       0          0
535_2            RECT_CLOSED  1.00       1.00       0          0
241_2            RECT_CLOSED  2.00       2.00       0          0
437_2            RECT_CLOSED  0.83       0.83       0          0
274              RECT_CLOSED  2.50       2.50       0          0
588_2            RECT_CLOSED  1.25       1.25       0          0
meter            RECT_CLOSED  1.50       1.50       0          0
381_2            RECT_CLOSED  0.72       0.72       0          0
535              RECT_OPEN    1.00       7.50       0          0
241              RECT_OPEN    1.00       10.00      0          0
437              RECT_OPEN    1.00       4.00       0          0
404_2            RECT_OPEN    1.00       4.00       0          0
408_2            RECT_OPEN    1.00       4.00       0          0
411_2            RECT_OPEN    1.00       4.00       0          0
588              RECT_OPEN    1.00       4.00       0          0
299              RECT_OPEN    1.00       10.00      0          0
381              RECT_OPEN    1.00       2.50       0          0
447              RECT_OPEN    1.00       7.00       0          0
201              RECT_OPEN    1.00       2.00       0          0
h                RECT_OPEN    1.00       3.50       0          0
584_2            RECT_OPEN    1.00       3.00       0          0
493_2            RECT_OPEN    1.00       4.00       0          0
649              RECT_OPEN    1.00       1.00       0          0
670              RECT_OPEN    1.00       5.00       0          0
669              RECT_OPEN    1.00       5.00       0          0
427_2            TRIANGULAR   1.00       5.50       0          0
721              RECT_OPEN    1.00       1.00       0          0

[LOSSES]
;;Link           Inlet      Outlet     Average    Flap Gate
;;-------------- ---------- ---------- ---------- ----------
609              0          0          0          NO
202              0          0          0          NO
203              0          0          0          NO
211              0          0          0          NO
213              0          0          0          NO
215              0          0          0          NO
217              0          0          0          NO
684              0          0          0          NO
221              0          0          0          NO
223              0          0          0          NO
225              0          0          0          NO
227              0          0          0          NO
229              0          0          0          NO
629              0          0          0          NO
239              0          0          0          NO
237              0          0          0          NO
235              0          0          0          NO
233              0          0          0          NO
253              0          0          0          NO
255              0          0          0          NO
MH008#1          0          0          0          NO
263              0          0          0          NO
717              0          0          0          NO
270              0          0          0          NO
269              0          0          0          NO
268              0          0          0          NO
275              0          0          0          NO
282              0          0          0          NO
281              0          0          0          NO
280              0          0          0          NO
279              0          0          0          NO
278              0          0          0          NO
291              0          0          0          NO
290              0          0          0          NO
289              0          0          0          NO
288              0          0          0          NO
638              0          0          0          NO
298              0          0          0          NO
297              0          0          0          NO
296              0          0          0          NO
596              0          0          0          NO
608              0          0          0          NO
319              0          0          0          NO
318              0          0          0          NO
317              0          0          0          NO
316              0          0          0          NO
332              0          0          0          NO
336              0          0          0          NO
340              0          0          0          NO
339              0          0          0          NO
338              0          0          0          NO
348              0          0          0          NO
364              0          0          0          NO
363              0          0          0          NO
370              0          0          0          NO
369              0          0          0          NO
368              0          0          0          NO
376              0          0          0          NO
375              0          0          0          NO
374              0          0          0          NO
640              0          0          0          NO
380              0          0          0          NO
386              0          0          0          NO
390              0          0          0          NO
388              0          0          0          NO
389              0          0          0          NO
394              0          0          0          NO
399              0          0          0          NO
398              0          0          0          NO
397              0          0          0          NO
396              0          0          0          NO
404              0          0          0          NO
563              0          0          0          NO
408              0          0          0          NO
412              0          0          0          NO
411              0          0          0          NO
410              0          0          0          NO
416              0          0          0          NO
565              0          0          0          NO
427              0          0          0          NO
426              0          0          0          NO
425              0          0          0          NO
424              0          0          0          NO
423              0          0          0          NO
422              0          0          0          NO
421              0          0          0          NO
420              0          0          0          NO
436              0          0          0          NO
631              0          0          0          NO
261              0          0          0          NO
440              0          0          0          NO
551              0          0          0          NO
605              0          0          0          NO
446              0          0          0          NO
604              0          0          0          NO
636              0          0          0          NO
457              0          0          0          NO
456              0          0          0          NO
455              0          0          0          NO
454              0          0          0          NO
589              0          0          0          NO
469              0          0          0          NO
468              0          0          0          NO
467              0          0          0          NO
466              0          0          0          NO
479              0          0          0          NO
478              0          0          0          NO
536              0          0          0          NO
486              0          0          0          NO
485              0          0          0          NO
493              0          0          0          NO
492              0          0          0          NO
491              0          0          0          NO
642              0          0          0          NO
502              0          0          0          NO
501              0          0          0          NO
500              0          0          0          NO
499              0          0          0          NO
510              0          0          0          NO
509              0          0          0          NO
510_2            0          0          0          NO
515              0          0          0          NO
515_2            0          0          0          NO
519              0          0          0          NO
519_2            0          0          0          NO
529              0          0          0          NO
528              0          0          0          NO
543              0          0          0          NO
556              0          0          0          NO
557              0          0          0          NO
558              0          0          0          NO
567              0          0          0          NO
569              0          0          0          NO
571              0          0          0          NO
573              0          0          0          NO
579              0          0          0          NO
592              0          0          0          NO
599              0          0          0          NO
613              0          0          0          NO
612              0          0          0          NO
362              0          0          0          NO
616              0          0          0          NO
347              0          0          0          NO
533              0          0          0          NO
274_2            0          0          0          NO
633              0          0          0          NO
647              0          0          0          NO
651              0          0          0          NO
653              0          0          0          NO
655              0          0          0          NO
661              0          0          0          NO
663              0          0          0          NO
667              0          0          0          NO
673              0          0          0          NO
675              0          0          0          NO
677              0          0          0          NO
679              0          0          0          NO
633_2            0          0          0          NO
260              0          0          0          NO
627              0          0          0          NO
219              0          0          0          NO
686              0          0          0          NO
690              0          0          0          NO
474              0          0          0          NO
705              0          0          0          NO
709              0          0          0          NO
711              0          0          0          NO
713              0          0          0          NO
715              0          0          0          NO
262              0          0          0          NO
719              0          0          0          NO
723              0          0          0          NO
724              0          0          0          NO
727              0          0          0          NO
728              0          0          0          NO
729              0          0          0          NO
730              0          0          0          NO
731              0          0          0          NO
732              0          0          0          NO
733              0          0          0          NO
734              0          0          0          NO
744              0          0          0          NO
745              0          0          0          NO
746              0          0          0          NO
747              0          0          0          NO
748              0          0          0          NO
749              0          0          0          NO

[INFLOWS]
;;Node           Constituent  Time Series      Type     Mfactor  Sfactor  Baseline Pattern
;;-------------- ------------ ---------------- -------- -------- -------- -------- --------
WWTP             FLOW         ""               FLOW     1.0      1.0      0.74000
I009006N         FLOW         ""               FLOW     1.0      1.0      0.62000
T010005N         FLOW         ""               FLOW     1.0      1.0      0.08000
I014019N         FLOW         ""               FLOW     1.0      1.0      0.37000
CSO18A           FLOW         ""               FLOW     1.0      1.0      0.96000
I18E049N         FLOW         ""               FLOW     1.0      1.0      0.56000
I18E066N         FLOW         ""               FLOW     1.0      1.0      0.13000
I009218N         FLOW         ""               FLOW     1.0      1.0      0.23000
CSO017           FLOW         ""               FLOW     1.0      1.0      0.16000
I004111N         FLOW         ""               FLOW     1.0      1.0      0.09000
T003005N         FLOW         ""               FLOW     1.0      1.0      0.61000
T003010N         FLOW         ""               FLOW     1.0      1.0      0.37000
T011020N         FLOW         ""               FLOW     1.0      1.0      2.74000
T011198N         FLOW         ""               FLOW     1.0      1.0      0.65000
T012A005N        FLOW         ""               FLOW     1.0      1.0      0.04000
T012010N         FLOW         ""               FLOW     1.0      1.0      0.08000
T012015N         FLOW         ""               FLOW     1.0      1.0      0.56000
T013104N         FLOW         ""               FLOW     1.0      1.0      0.64000
T016137N         FLOW         ""               FLOW     1.0      1.0      1.08000
T002005N         FLOW         ""               FLOW     1.0      1.0      0.39000
T002010N         FLOW         ""               FLOW     1.0      1.0      0.01000
T021005N         FLOW         ""               FLOW     1.0      1.0      0.19000
T005005N         FLOW         ""               FLOW     1.0      1.0      0.01000
T008005N         FLOW         ""               FLOW     1.0      1.0      0.22000
T006005N         FLOW         ""               FLOW     1.0      1.0      0.31000
T009005N         FLOW         ""               FLOW     1.0      1.0      0.61000
T019195N         FLOW         ""               FLOW     1.0      1.0      0.46000
T015005N         FLOW         ""               FLOW     1.0      1.0      0.29000
T014020N         FLOW         ""               FLOW     1.0      1.0      1.20000
T020005N         FLOW         ""               FLOW     1.0      1.0      0.68000

[COORDINATES]
;;Node           X-Coord            Y-Coord
;;-------------- ------------------ ------------------
CSO002           80.14              -4.03             
I021186N         82.48              59.10             
I021185N         82.39              97.28             
I021177N         82.95              129.56            
I021175N         82.95              164.17            
I021174N         83.42              192.10            
I021172N         83.54              220.59            
I021170N         83.54              235.91            
CSO021           83.54              272.81            
I003166N         83.02              286.79            
CSO003N          83.30              321.04            
IWTP161N         83.53              346.50            
IWTP161AN        83.40              371.75            
WWTP             66.26              371.75            
IWTP000N         83.40              394.50            
IWTP001N         83.40              406.26            
IWTPOO3N         83.40              422.21            
IWTP004N         83.98              438.62            
CSO009           83.86              468.13            
I009006N         82.37              488.77            
I009008N         83.71              512.34            
I009009N         83.09              534.83            
CSO010           82.99              550.21            
I010011N         82.78              583.93            
T010005N         58.19              604.56            
I010014N         82.78              627.61            
I010015N         82.78              649.83            
I010017N         82.78              672.06            
I010018N         82.78              692.47            
CSO014           83.37              721.60            
I014019N         81.74              733.25            
I014021N         82.78              759.15            
I014023N         82.78              781.12            
I014025N         82.78              802.83            
I014027N         82.78              826.86            
I014028N         82.78              845.98            
I014029N         82.77              859.01            
I014031N         82.77              874.07            
I014033N         82.57              888.29            
I014034N         82.57              902.35            
I014035N         82.37              916.08            
I014036N         82.17              927.05            
I014037N         81.98              938.69            
CSO018           81.62              957.45            
CSO018OF         66.80              957.48            
CSO014OF1        109.44             723.05            
CSO002OF         46.26              -4.02             
CSO18A           90.00              955.90            
CSO18B           100.92             957.26            
CSO18C           109.73             957.53            
CSO18D           117.79             957.51            
CSO18E           124.76             956.38            
I18E045N         126.98             978.62            
I18E046N         127.09             997.34            
I18E047N         128.26             1015.80           
I18E049N         127.07             1035.92           
I18E052N         126.91             1060.84           
I18E054N         126.91             1087.93           
I18E062N         127.17             1138.15           
I18E064N         127.37             1164.19           
I18E066N         126.14             1177.63           
I18E067N         109.73             1179.59           
I18E068N         97.84              1179.76           
I18E071N         84.80              1179.82           
I18E072N         84.04              1205.11           
I18E074N         83.48              1223.37           
I18E075N         83.77              1242.10           
I18E078          84.06              1263.26           
CSO020           84.73              1299.96           
I009220N         112.61             490.24            
I009217N         169.49             487.28            
I009218N         138.21             485.64            
I009216N         198.84             486.26            
I009212N         225.19             481.69            
I009210N         249.91             482.18            
I009208N         249.95             533.17            
I009206N         246.42             576.92            
I009202N         245.57             606.24            
CSO012           244.26             673.18            
CSO0120F         173.45             668.04            
CSO012A          245.15             723.02            
I012088N         298.66             671.02            
CSO12B           381.45             665.77            
I12BO91N         379.08             780.90            
I12B093N         428.78             772.38            
CSO012AOF        187.09             726.44            
I12B097N         484.99             771.89            
I12B098N         532.43             771.97            
I12B099N         585.97             775.95            
I12B100N         644.85             771.93            
I12B101N         699.10             771.13            
I12B102N         779.58             772.36            
I12B104N         836.60             772.11            
CSO013           900.13             767.13            
I010187N         65.56              544.13            
CSO011           47.13              565.29            
I010010N         82.77              566.82            
CSO011OF         48.44              585.62            
I010190N         52.46              540.90            
CSO019           23.23              541.07            
CSO019OF         23.04              512.00            
I010132N         49.40              691.72            
I010133N         29.96              691.55            
I010134N         11.17              691.55            
I010135N         -7.00              691.55            
CSO016OF         -45.33             738.36            
I014020N         59.40              734.39            
CSO015N          33.43              734.72            
I015150N         13.87              734.39            
CSO017           -9.05              733.39            
CSO015OFN        64.14              723.85            
IWTP220N         71.74              394.35            
IWTP221N         59.44              394.53            
I004111N         -0.48              391.16            
I004112N         -21.63             394.17            
CSO004OF         17.06              426.73            
I004110AN        35.28              417.81            
I004110BN        35.72              436.52            
CSO006           34.33              460.03            
CSO006OF         57.69              463.72            
I004113N         -38.57             392.56            
I004114N         -72.45             391.58            
I004115N         -71.49             426.04            
I004116N         -72.47             448.59            
I004117N         -72.17             478.21            
CSO008           -71.84             512.24            
CSO008OF         -34.70             514.56            
CSO007           -55.95             449.80            
CSO007OF         -34.24             450.17            
CSO005           3.09               429.12            
CSO005OF         4.13               455.81            
CSO003           97.51              321.15            
T003005N         113.61             320.10            
T003010N         137.94             320.06            
CSO003OFN        74.71              312.95            
CSO004           24.81              393.00            
CSO004OFN        18.97              409.14            
CSO009OFN        65.82              468.16            
CSO009OF         47.37              467.68            
CSO011OFN        48.57              573.32            
T011020N         -36.38             563.33            
T011015N         -23.40             565.02            
T011198N         33.49              564.01            
CSO0120FN        218.97             668.46            
CSO012AOFN       218.43             724.62            
T012A005N        279.94             721.23            
T012010N         297.40             634.67            
T012015N         379.90             612.06            
CSO012BOFN       347.44             608.97            
CSO012BOF        279.10             610.73            
T013104N         955.48             765.17            
CSO015           33.99              748.91            
CSO016           -46.47             691.05            
CSO016OFN        -45.85             711.12            
T016137N         -47.47             661.53            
CSO018OFN        75.48              957.55            
CSO020OFN        72.27              1298.74           
CSO020OF         62.06              1297.48           
CSO019OFN        23.04              528.05            
CSO019N          41.49              540.33            
CSO002OFN        64.39              -3.51             
409              81.62              40.51             
T002005N         95.50              -5.85             
T002010N         237.79             -5.22             
I18E056N         127.20             1114.23           
CSO003OF         61.37              301.15            
CSO004N          36.06              394.11            
CSO009N          83.78              454.84            
CSO011N          57.82              561.07            
CSO014N          82.85              708.40            
CSO016N          -28.15             691.27            
CSO018N          81.96              949.71            
CSO020N          84.55              1282.44           
CSO006OFN        45.08              462.75            
CSO014OF2        105.47             709.12            
T021005N         106.73             271.76            
03-GWTR          138.37             345.44            
T005005N         -23.83             428.05            
T007126N         -57.18             476.95            
T008005N         -72.63             542.71            
T006005N         9.93               458.74            
T009005N         112.20             443.48            
T019195N         0.58               539.67            
11-1GWTR         33.52              584.19            
11-2GWTR         -36.46             590.28            
T015005N         32.54              776.94            
T014015N         109.41             845.06            
T014020N         109.11             872.71            
T020005N         112.77             1298.94           
I021169N         83.41              256.83            
I003164N         82.90              305.54            
CSO013OFN        900.08             813.29            
CSO013OF         900.08             857.75            
CSO015OF         64.91              707.55            
POUT             34.96              370.47            
WWTPN            48.62              370.07            
03-GWTRN         138.30             369.89            
11-1GWTRN        33.56              597.40            
11-2GWTRN        -36.51             611.69            
I021165N         83.72              296.38            
I010012N         82.77              605.92            
19-GWTR          -49.39             539.13            
19-GWTRN         -21.32             540.87            
T003009N         129.36             319.97            
T003008N         121.23             319.97            
T011014N         -18.28             565.08            
T011013N         -11.99             565.30            
T011012N         -6.22              565.51            
T011011N         -0.45              565.51            
T011010N         6.11               565.73            
T011009N         13.19              565.95            
T011008N         20.01              565.95            
T011007N         25.79              565.73            
T002010AN        218.81             -7.27             
T002010BN        202.10             -7.90             
T002010CN        182.36             -7.90             
T002010DN        162.62             -8.53             
T002010EN        142.87             -8.53             
T002010FN        120.85             -7.90             

[MAP]
DIMENSIONS -72.63 -8.53 955.48 1299.96
Units      None

[REPORT]
SUBCATCHMENTS ALL
NODES ALL
LINKS ALL
