;; SWMM5 .inp converted from XPSWMM .xp file
;; Generated by XPSWMM Card Reader
;; Source format: XP_CARD | Original title: Inverted syphon example from Vanslambrouck et al. (1986)
;; Links parsed from source: 10 | Routable in this .inp: 10

[TITLE]
;;Project Title/Notes
Inverted syphon example from Vanslambrouck et al. (1986)

[OPTIONS]
FLOW_UNITS           CMS
INFILTRATION         HORTON
FLOW_ROUTING         DYNWAVE
LINK_OFFSETS         DEPTH
MIN_SLOPE            0.0
ALLOW_PONDING        NO
SKIP_STEADY_STATE    NO
ROUTING_STEP         00:00:10
VARIABLE_STEP        0.75
INERTIAL_DAMPING     PARTIAL
NORMAL_FLOW_LIMITED  BOTH
MAX_TRIALS           50
HEAD_TOLERANCE       1e-3
START_DATE           01/01/2001
START_TIME           00:00:00
REPORT_START_DATE    01/01/2001
REPORT_START_TIME    00:00:00
END_DATE             01/02/2001
END_TIME             00:00:00
SWEEP_START          01/01
SWEEP_END            12/31
DRY_DAYS             0
REPORT_STEP          00:15:00
WET_STEP             00:05:00
DRY_STEP             01:00:00

[JUNCTIONS]
;;Name           Elev       MaxDepth   InitDepth  SurDepth   Aponded
;;-------------- ---------- ---------- ---------- ---------- ----------
Inflow           100.00     0          0          0          0
K4.2             100.00     0          0          0          0
Outfall          100.00     0          0          0          0
213              100.00     0          0          0          0
215              100.00     0          0          0          0
217              100.00     0          0          0          0
219              100.00     0          0          0          0
222              120.00     0          0          0          0
224              120.00     0          0          0          0
212.2            75.00      0          0          0          0
212.3            75.00      0          0          0          0

[OUTFALLS]
;;Name           Elev       Type       Stage      Gated
;;-------------- ---------- ---------- ---------- -----
K4.3             100.00     FREE                  NO

[CONDUITS]
;;Name           From             To               Length     Roughness  InOffset   OutOffset  InitFlow   MaxFlow
;;-------------- ---------------- ---------------- ---------- ---------- ---------- ---------- ---------- ----------
pipe1            Inflow           213              200.00     0.0140     91.00      90.00      0          0
pipe2            215              Outfall          100.00     0.0140     85.00      84.00      0          0
212.1            212.2            212.3            100.00     0.0140     75.00      75.00      0          0
214              213              K4.3             100.00     0.0140     90.00      75.00      0          0
CHME216          K4.2             215              24.00      0.0140     75.00      85.00      0          0
218              213              217              100.00     0.0140     90.00      75.00      0          0
syphon2          217              219              100.00     0.0140     75.00      75.00      0          0
221              219              215              100.00     0.0140     75.00      85.00      0          0

[WEIRS]
;;Name           From             To               Type       CrestHt    Qcoeff     Gated    EndCon   EndCoeff   Surcharge
;;-------------- ---------------- ---------------- ---------- ---------- ---------- -------- -------- ---------- ----------
WEIR1            213              222              TRANSVERSE 92.00      1.840      NO       0        0          YES
WEIR2            213              224              TRANSVERSE 92.00      1.840      NO       0        0          YES

[XSECTIONS]
;;Link           Shape        Geom1      Geom2      Geom3      Geom4      Barrels
;;-------------- ------------ ---------- ---------- ---------- ---------- ----------
pipe1            CIRCULAR     3.00       0          0          0          1
pipe2            CIRCULAR     3.00       0          0          0          1
212.1            CIRCULAR     2.00       2.00       0          0          3
214              CIRCULAR     2.00       0          0          0          1
CHME216          CIRCULAR     2.00       0          0          0          1
218              CIRCULAR     2.00       0          0          0          1
syphon2          CIRCULAR     2.00       2.00       0          0          1
221              CIRCULAR     2.00       0          0          0          1
WEIR1            RECT_OPEN    1.00       4.00       0          0
WEIR2            RECT_OPEN    1.00       4.00       0          0

[LOSSES]
;;Link           Inlet      Outlet     Average    Flap Gate
;;-------------- ---------- ---------- ---------- ----------
pipe1            0          0          0          NO
pipe2            0          0          0          NO
212.1            0          0          0          NO
214              0          0          0          NO
CHME216          0          0          0          NO
218              0          0          0          NO
syphon2          0          0          0          NO
221              0          0          0          NO

[INFLOWS]
;;Node           Constituent  Time Series      Type     Mfactor  Sfactor  Baseline Pattern
;;-------------- ------------ ---------------- -------- -------- -------- -------- --------
;; SYNTHETIC TEST INFLOWS — the source .xp carried no constant inflows
;; and RUNF hydrology is not converted; 0.03 CMS is applied at each
;; headwater node so the network runs wet for QA. Replace with real
;; hydrology or inflow hydrographs before using results.
Inflow           FLOW         ""               FLOW     1.0      1.0      0.03
K4.2             FLOW         ""               FLOW     1.0      1.0      0.03
212.2            FLOW         ""               FLOW     1.0      1.0      0.03

[COORDINATES]
;;Node           X-Coord            Y-Coord
;;-------------- ------------------ ------------------
Inflow           -39.02             27.41             
K4.3             -21.80             59.37             
K4.2             -21.30             95.98             
Outfall          -45.69             136.47            
213              -42.77             47.17             
215              -44.55             106.23            
217              -2.70              36.70             
219              -1.45              114.87            
222              -67.91             57.70             
224              -62.56             75.71             

[MAP]
DIMENSIONS -67.91 27.41 -1.45 136.47
Units      None

[REPORT]
SUBCATCHMENTS ALL
NODES ALL
LINKS ALL
