;; SWMM5 .inp converted from XPSWMM .xp file
;; Generated by XPSWMM Card Reader
;; Source format: XP_CARD | Original title: Inverted syphon example from Vanslambrouck et al. (1986)

[TITLE]
;;Project Title/Notes
Inverted syphon example from Vanslambrouck et al. (1986)

[OPTIONS]
FLOW_UNITS           CMS
INFILTRATION         HORTON
FLOW_ROUTING         DYNWAVE
LINK_OFFSETS         DEPTH
MIN_SLOPE            0.0
ALLOW_PONDING        NO
SKIP_STEADY_STATE    NO
ROUTING_STEP         00:00:01
VARIABLE_STEP        0.75
INERTIAL_DAMPING     NONE
NORMAL_FLOW_LIMITED  BOTH
MAX_TRIALS           30
HEAD_TOLERANCE       1e-3
START_DATE           01/01/2001
START_TIME           00:00:00
REPORT_START_DATE    01/01/2001
REPORT_START_TIME    00:00:00
END_DATE             01/02/2001
END_TIME             00:00:00
SWEEP_START          01/01
SWEEP_END            12/31
DRY_DAYS             0
REPORT_STEP          00:15:00
WET_STEP             00:05:00
DRY_STEP             01:00:00

[JUNCTIONS]
;;Name           Elev       MaxDepth   InitDepth  SurDepth   Aponded
;;-------------- ---------- ---------- ---------- ---------- ----------
Inflow           100.00     0          0          0          0
K4.2             100.00     0          0          0          0
Outfall          100.00     0          0          0          0
213              100.00     0          0          0          0
215              100.00     0          0          0          0
217              100.00     0          0          0          0
219              100.00     0          0          0          0
222              120.00     0          0          0          0
224              120.00     0          0          0          0
newroute         1.00       0          0          0          0
212.2            75.00      0          0          0          0
212.3            75.00      0          0          0          0

[OUTFALLS]
;;Name           Elev       Type       Stage      Gated
;;-------------- ---------- ---------- ---------- -----
K4.3             100.00     FREE                  NO

[CONDUITS]
;;Name           From             To               Length     Roughness  InOffset   OutOffset  InitFlow   MaxFlow
;;-------------- ---------------- ---------------- ---------- ---------- ---------- ---------- ---------- ----------
pipe1            Inflow           213              200.00     0.0140     91.00      90.00      0          0
pipe2            215              Outfall          100.00     0.0140     85.00      84.00      0          0
212.1            212.2            212.3            100.00     0.0140     75.00      75.00      0          0
214              213              K4.3             100.00     0.0140     90.00      75.00      0          0
CHME216          K4.2             215              24.00      0.0140     75.00      85.00      0          0
218              213              217              100.00     0.0140     90.00      75.00      0          0
syphon2          217              219              100.00     0.0140     75.00      75.00      0          0
221              219              215              100.00     0.0140     75.00      85.00      0          0

[WEIRS]
;;Name           From             To               Type       CrestHt    Qcoeff     Gated    EndCon   EndCoeff   Surcharge
;;-------------- ---------------- ---------------- ---------- ---------- ---------- -------- -------- ---------- ----------
WEIR1            213              222              TRANSVERSE 92.00      1.840      NO       0        0          YES
WEIR2            213              224              TRANSVERSE 92.00      1.840      NO       0        0          YES

[XSECTIONS]
;;Link           Shape        Geom1      Geom2      Geom3      Geom4      Barrels
;;-------------- ------------ ---------- ---------- ---------- ---------- ----------
pipe1            CIRCULAR     3.00       0          0          0          1
pipe2            CIRCULAR     3.00       0          0          0          1
212.1            RECT_CLOSED  1.20       2.00       0          0          3
214              CIRCULAR     2.00       0          0          0          1
CHME216          CIRCULAR     2.00       0          0          0          1
218              CIRCULAR     2.00       0          0          0          1
syphon2          RECT_CLOSED  1.20       2.00       0          0          1
221              CIRCULAR     2.00       0          0          0          1
WEIR1            RECT_OPEN    1.00       4.00       0          0
WEIR2            RECT_OPEN    1.00       4.00       0          0

[LOSSES]
;;Link           Inlet      Outlet     Average    Flap Gate
;;-------------- ---------- ---------- ---------- ----------
pipe1            0          0          0          NO
pipe2            0          0          0          NO
212.1            0          0          0          NO
214              0          0          0          NO
CHME216          0          0          0          NO
218              0          0          0          NO
syphon2          0          0          0          NO
221              0          0          0          NO

[COORDINATES]
;;Node           X-Coord            Y-Coord
;;-------------- ------------------ ------------------
Inflow           -29.88             244.66            
K4.3             9.05               280.71            
K4.2             10.73              323.79            
Outfall          -28.67             372.00            
213              -30.10             280.48            
215              -24.83             342.98            
217              25.10              248.26            
219              27.83              341.89            
222              -54.11             310.98            
224              -63.20             275.10            
newroute         -17.55             303.54            

[MAP]
DIMENSIONS -63.20 244.66 27.83 372.00
Units      None

[REPORT]
SUBCATCHMENTS ALL
NODES ALL
LINKS ALL
