;; SWMM5 .inp converted from XPSWMM .xp file
;; Generated by XPSWMM Card Reader
;; Source format: XP_CARD | Original title: Lexington Expansion Area 2A, B, and C
;; Links parsed from source: 96 | Routable in this .inp: 97

[TITLE]
;;Project Title/Notes
Lexington Expansion Area 2A, B, and C

[OPTIONS]
FLOW_UNITS           CFS
INFILTRATION         HORTON
FLOW_ROUTING         DYNWAVE
LINK_OFFSETS         DEPTH
MIN_SLOPE            0.0
ALLOW_PONDING        NO
SKIP_STEADY_STATE    NO
ROUTING_STEP         00:00:15
VARIABLE_STEP        0.75
INERTIAL_DAMPING     PARTIAL
NORMAL_FLOW_LIMITED  BOTH
MAX_TRIALS           50
START_DATE           01/01/2001
START_TIME           00:00:00
REPORT_START_DATE    01/01/2001
REPORT_START_TIME    00:00:00
END_DATE             01/02/2001
END_TIME             00:00:00
SWEEP_START          01/01
SWEEP_END            12/31
DRY_DAYS             0
REPORT_STEP          00:15:00
WET_STEP             00:05:00
DRY_STEP             01:00:00

[JUNCTIONS]
;;Name           Elev       MaxDepth   InitDepth  SurDepth   Aponded
;;-------------- ---------- ---------- ---------- ---------- ----------
b1004            1016.00    0          0          0          0
b1005            1037.00    0          0          0          0
b1006            1009.00    0          0          0          0
b1007            1033.00    0          0          0          0
b1008            1022.00    0          0          0          0
b1011            1073.00    0          0          0          0
b1012            1019.00    0          0          0          0
b101i            1071.00    0          0          0          0
b102i            1036.00    0          0          0          0
b103i            1071.00    0          0          0          0
b104i            1034.00    0          0          0          0
b105i            1081.00    0          0          0          0
b106i            1054.00    0          0          0          0
b107i            1075.00    0          0          0          0
b108i            1036.00    0          0          0          0
b109i            1045.00    0          0          0          0
b110i            1038.00    0          0          0          0
b111i            1074.00    0          0          0          0
b112i            1040.00    0          0          0          0
b113i            1045.00    0          0          0          0
b2001            1035.00    0          0          0          0
b2002            1052.00    0          0          0          0
b2003            1026.00    0          0          0          0
b2004            1047.00    0          0          0          0
b2005            1020.00    0          0          0          0
b2006            1043.00    0          0          0          0
b201i            1052.00    0          0          0          0
b202i            1068.00    0          0          0          0
b203i            1046.00    0          0          0          0
b204i            1074.00    0          0          0          0
b205i            1054.00    0          0          0          0
b206i            1073.00    0          0          0          0
b207i            1048.00    0          0          0          0
b208i            1058.00    0          0          0          0
b209i            1038.00    0          0          0          0
b210i            1077.00    0          0          0          0
b3002            1024.00    0          0          0          0
b3003            1046.00    0          0          0          0
b3004            1017.00    0          0          0          0
b3005            1037.00    0          0          0          0
b3006            1010.00    0          0          0          0
b3007            1031.00    0          0          0          0
b3008            1000.00    0          0          0          0
b3010            1020.00    0          0          0          0
b301i            1051.00    0          0          0          0
b302i            1077.00    0          0          0          0
b303i            1048.00    0          0          0          0
b304i            1075.00    0          0          0          0
b305i            1046.00    0          0          0          0
b306i            1067.00    0          0          0          0
b307i            1040.00    0          0          0          0
b308i            1057.00    0          0          0          0
b309i            1026.00    0          0          0          0
b310i            1047.00    0          0          0          0
b4001            1004.00    0          0          0          0
b4002            1028.00    0          0          0          0
b4009            995.00     0          0          0          0
b4011            1014.00    0          0          0          0
b4012            1000.00    0          0          0          0
b4013            1042.00    0          0          0          0
b4014            1025.00    0          0          0          0
b4015            1044.00    0          0          0          0
b4016            1050.00    0          0          0          0
b4017            1041.00    0          0          0          0
b4018            997.00     0          0          0          0
b401i            1069.00    0          0          0          0
b402i            1028.00    0          0          0          0
b403i            1053.00    0          0          0          0
b404i            1058.00    0          0          0          0
b405i            1069.00    0          0          0          0
b406i            1054.00    0          0          0          0
b407i            1058.00    0          0          0          0
b408i            1022.00    0          0          0          0
b409i            1049.00    0          0          0          0
b410i            1026.00    0          0          0          0
b411i            1075.00    0          0          0          0
b412i            1038.00    0          0          0          0
b413i            1049.00    0          0          0          0
b414i            1024.00    0          0          0          0
b415i            1056.00    0          0          0          0
b416i            1022.00    0          0          0          0
b417i            1045.00    0          0          0          0
b418i            1020.00    0          0          0          0

[OUTFALLS]
;;Name           Elev       Type       Stage      Gated
;;-------------- ---------- ---------- ---------- -----
OUT_SYNTH        1048.00    FREE                  NO

[STORAGE]
;;Name           Elev       MaxDepth   InitDepth  Shape      Curve/Params
;;-------------- ---------- ---------- ---------- ---------- ----------
b1001            1057.00    10.00      6.00       FUNCTIONAL 1000.00 0          0
b1003            1049.00    10.00      6.00       FUNCTIONAL 1000.00 0          0
b1009            1059.00    10.00      4.00       FUNCTIONAL 1000.00 0          0
b1010            1047.00    10.00      4.00       FUNCTIONAL 1000.00 0          0
b2007            1037.00    10.00      0          FUNCTIONAL 1000.00 0          0
b3001            1056.00    10.00      4.00       FUNCTIONAL 1000.00 0          0
b3009            1022.00    10.00      0          FUNCTIONAL 1000.00 0          0
b4003            1027.00    10.00      0          FUNCTIONAL 1000.00 0          0
b4004            1041.00    10.00      0          FUNCTIONAL 1000.00 0          0
b4005            1054.00    10.00      4.00       FUNCTIONAL 1000.00 0          0
b4006            1026.00    10.00      3.00       FUNCTIONAL 1000.00 0          0
b4007            1024.00    10.00      3.00       FUNCTIONAL 1000.00 0          0
b4008            1021.00    10.00      0          FUNCTIONAL 1000.00 0          0
b4010            1015.00    10.00      0          FUNCTIONAL 1000.00 0          0

[CONDUITS]
;;Name           From             To               Length     Roughness  InOffset   OutOffset  InitFlow   MaxFlow
;;-------------- ---------------- ---------------- ---------- ---------- ---------- ---------- ---------- ----------
b10001           b1001            b1003            170.00     0.0500     1032.00    1024.00    0          0
b10002           b1003            b1004            163.10     0.0500     1024.00    1016.00    0          0
b10003           b1004            b1005            441.70     0.0500     1016.00    1012.00    0          0
b10004           b1005            b1006            279.60     0.0500     1012.00    1009.00    0          0
b10005           b1006            b1007            170.50     0.0500     1009.00    1008.00    0          0
b10006           b1008            b1007            482.50     0.0350     1022.00    1008.00    0          0
b10007           b1009            b1008            437.70     0.0350     1034.00    1022.00    0          0
b10008           b1007            b4001            512.00     0.0500     1008.00    1004.00    0          0
b10009           b1011            b1010            1398.40    0.0300     1048.00    1022.00    0          0
b10010           b1010            b1004            218.90     0.0300     1022.00    1016.00    0          0
b10011           b1012            b1005            187.90     0.0320     1019.00    1012.00    0          0
b101c            b101i            b1001            875.00     0.0320     1046.00    1032.00    0          0
b102c            b102i            b1001            380.00     0.0320     1036.00    1032.00    0          0
b103c            b103i            b1003            1300.00    0.0320     1046.00    1024.00    0          0
b104c            b104i            b1003            195.00     0.0320     1034.00    1024.00    0          0
b105c            b105i            b1011            306.50     0.0320     1056.00    1048.00    0          0
b106c            b106i            b1010            1266.80    0.0320     1054.00    1022.00    0          0
b107c            b107i            b1004            1469.60    0.0320     1050.00    1016.00    0          0
b108c            b108i            b1012            574.10     0.0320     1036.00    1019.00    0          0
b109c            b109i            b1005            199.50     0.0300     1020.00    1012.00    0          0
b110c            b110i            b1006            431.40     0.0320     1038.00    1009.00    0          0
b111c            b111i            b1009            315.00     0.0320     1049.00    1034.00    0          0
b112c            b112i            b1008            618.60     0.0320     1040.00    1022.00    0          0
b113c            b113i            b1007            375.20     0.0320     1020.00    1008.00    0          0
b20001           b2001            b2002            431.70     0.0500     1035.00    1027.00    0          0
b20002           b2002            b2003            66.50      0.0500     1027.00    1026.00    0          0
b20003           b2003            b2004            332.60     0.0500     1026.00    1022.00    0          0
b20004           b2004            b2005            263.50     0.0500     1022.00    1020.00    0          0
b20005           b2005            b2006            500.60     0.0500     1020.00    1018.00    0          0
b20006           b2006            b2007            431.60     0.0500     1018.00    1012.00    0          0
b20007           b2007            b4001            638.10     0.0500     1012.00    1004.00    0          0
b201c            b201i            b2001            661.20     0.0320     1052.00    1035.00    0          0
b202c            b202i            b2001            423.50     0.0320     1043.00    1035.00    0          0
b203c            b203i            b2002            710.90     0.0320     1046.00    1027.00    0          0
b204c            b204i            b2003            602.10     0.0320     1049.00    1026.00    0          0
b205c            b205i            b2002            1015.00    0.0320     1054.00    1027.00    0          0
b206c            b206i            b2004            518.40     0.0320     1048.00    1022.00    0          0
b207c            b207i            b2005            1044.00    0.0320     1048.00    1020.00    0          0
b208c            b208i            b2006            553.90     0.0320     1033.00    1018.00    0          0
209c             b209i            b2006            670.60     0.0320     1038.00    1018.00    0          0
210c             b210i            b4001            1704.00    0.0320     1052.00    1004.00    0          0
30001            b3001            b3002            224.30     0.0350     1031.00    1024.00    0          0
30002            b3002            b3003            239.40     0.0350     1024.00    1021.00    0          0
30003            b3003            b3004            332.20     0.0400     1021.00    1017.00    0          0
30004            b3004            b3005            551.80     0.0400     1017.00    1012.00    0          0
30005            b3005            b3006            190.30     0.0350     1012.00    1010.00    0          0
30006            b3006            b3007            384.50     0.0350     1010.00    1006.00    0          0
30007            b3007            b3008            826.50     0.0350     1006.00    1000.00    0          0
30008            b3008            b3009            206.00     0.0350     1000.00    997.00     0          0
30009            b3009            b3010            270.30     0.0200     997.00     995.00     0          0
30010            b3010            b4012            626.80     0.0350     995.00     987.00     0          0
301c             b301i            b3001            610.00     0.0320     1051.00    1031.00    0          0
302c             b302i            b3002            972.60     0.0320     1052.00    1024.00    0          0
303c             b303i            b3003            1064.00    0.0320     1048.00    1021.00    0          0
304c             b304i            b3004            749.60     0.0320     1050.00    1017.00    0          0
305c             b305i            b3004            733.50     0.0320     1046.00    1017.00    0          0
306c             b306i            b3005            789.30     0.0320     1042.00    1012.00    0          0
307c             b307i            b3006            880.00     0.0320     1040.00    1010.00    0          0
308c             b308i            b3007            484.40     0.0320     1032.00    1006.00    0          0
309c             b309i            b3007            251.20     0.0320     1026.00    1006.00    0          0
310c             b310i            b3008            622.20     0.0320     1022.00    1000.00    0          0
40001            b4001            b4002            130.20     0.0500     1004.00    1003.00    0          0
40002            b4002            b4003            209.40     0.0500     1003.00    1002.00    0          0
40003            b4004            b4003            343.60     0.0350     1016.00    1002.00    0          0
40004            b4005            b4004            277.80     0.0350     1029.00    1016.00    0          0
40005            b4003            b4006            200.00     0.0350     1002.00    1001.00    0          0
40006            b4006            b4007            365.00     0.0350     1001.00    999.00     0          0
40007            b4018            b4008            207.90     0.0500     997.00     996.00     0          0
40008            b4008            b4009            131.90     0.0500     996.00     995.00     0          0
40009            b4009            b4010            634.40     0.0500     995.00     990.00     0          0
40010            b4010            b4011            257.80     0.0020     990.00     989.00     0          0
40011            b4011            b4012            325.50     0.0350     989.00     987.00     0          0
40012            b4013            b4002            903.10     0.0300     1017.00    1003.00    0          0
40013            b4014            b4013            340.50     0.0300     1025.00    1017.00    0          0
40014            b4015            b4013            125.10     0.0300     1019.00    1017.00    0          0
40015            b4016            b4015            1126.10    0.0300     1050.00    1019.00    0          0
40016            b4007            b4018            195.50     0.0400     999.00     997.00     0          0
40017            b4017            b4008            920.80     0.0300     1016.00    996.00     0          0
401c             b401i            b4005            425.00     0.0320     1044.00    1029.00    0          0
402c             b402i            b4004            219.80     0.0320     1028.00    1016.00    0          0
403c             b403i            b4003            530.00     0.0320     1028.00    1002.00    0          0
404c             b404i            b4016            206.50     0.0320     1058.00    1050.00    0          0
405c             b405i            b4015            1434.90    0.0320     1044.00    1019.00    0          0
406c             b406i            b4014            724.10     0.0320     1054.00    1025.00    0          0
407c             b407i            b4002            906.10     0.0320     1033.00    1003.00    0          0
408c             b408i            b4006            295.00     0.0320     1022.00    1001.00    0          0
409c             b409i            b4007            748.90     0.0320     1024.00    999.00     0          0
410c             b410i            b4018            696.50     0.0320     1026.00    997.00     0          0
411c             b411i            b4017            859.20     0.0320     1050.00    1016.00    0          0
412c             b412i            b4017            427.10     0.0320     1038.00    1016.00    0          0
413c             b413i            b4008            796.00     0.0320     1024.00    996.00     0          0
414c             b414i            b4018            261.20     0.0320     1024.00    997.00     0          0
415c             b415i            b4009            1582.60    0.0320     1031.00    995.00     0          0
416c             b416i            b4009            638.10     0.0320     1022.00    995.00     0          0
417c             b417i            b4010            1162.00    0.0320     1020.00    990.00     0          0
418c             b418i            b4011            1252.40    0.0320     1020.00    989.00     0          0
C_OUT_SYNTH      b1003            OUT_SYNTH        50.00      0.0130     0          0          0          0

[XSECTIONS]
;;Link           Shape        Geom1      Geom2      Geom3      Geom4      Barrels
;;-------------- ------------ ---------- ---------- ---------- ---------- ----------
b10001           TRAPEZOIDAL  3.00       5.00       1          1          1
b10002           TRAPEZOIDAL  1.00       10.00      2          2          1
b10003           TRAPEZOIDAL  1.00       10.00      2          2          1
b10004           TRAPEZOIDAL  1.00       10.00      2          2          1
b10005           TRAPEZOIDAL  1.00       10.00      2          2          1
b10006           TRAPEZOIDAL  3.00       4.00       1          1          1
b10007           TRAPEZOIDAL  3.00       4.00       1          1          1
b10008           TRAPEZOIDAL  1.00       10.00      2          2          1
b10009           TRAPEZOIDAL  1.00       5.00       1          1          1
b10010           TRAPEZOIDAL  2.00       8.00       1          1          1
b10011           TRAPEZOIDAL  4.00       1.00       1          1          1
b101c            TRAPEZOIDAL  4.00       1.00       1          1          1
b102c            TRAPEZOIDAL  4.00       1.00       1          1          1
b103c            TRAPEZOIDAL  4.00       1.00       1          1          1
b104c            TRAPEZOIDAL  4.00       1.00       1          1          1
b105c            TRAPEZOIDAL  4.00       1.00       1          1          1
b106c            TRAPEZOIDAL  4.00       1.00       1          1          1
b107c            TRAPEZOIDAL  4.00       1.00       1          1          1
b108c            TRAPEZOIDAL  4.00       1.00       1          1          1
b109c            TRAPEZOIDAL  4.00       1.00       1          1          1
b110c            TRAPEZOIDAL  4.00       1.00       1          1          1
b111c            TRAPEZOIDAL  4.00       1.00       1          1          1
b112c            TRAPEZOIDAL  4.00       1.00       1          1          1
b113c            TRAPEZOIDAL  4.00       1.00       1          1          1
b20001           TRAPEZOIDAL  1.00       10.00      2          2          1
b20002           TRAPEZOIDAL  1.00       10.00      2          2          1
b20003           TRAPEZOIDAL  1.00       10.00      2          2          1
b20004           TRAPEZOIDAL  1.00       10.00      2          2          1
b20005           TRAPEZOIDAL  1.00       10.00      2          2          1
b20006           TRAPEZOIDAL  1.00       10.00      2          2          1
b20007           TRAPEZOIDAL  1.00       10.00      2          2          1
b201c            TRAPEZOIDAL  4.00       1.00       1          1          1
b202c            TRAPEZOIDAL  4.00       1.00       1          1          1
b203c            TRAPEZOIDAL  4.00       1.00       1          1          1
b204c            TRAPEZOIDAL  4.00       1.00       1          1          1
b205c            TRAPEZOIDAL  4.00       1.00       1          1          1
b206c            TRAPEZOIDAL  4.00       1.00       1          1          1
b207c            TRAPEZOIDAL  4.00       1.00       1          1          1
b208c            TRAPEZOIDAL  4.00       1.00       1          1          1
209c             TRAPEZOIDAL  4.00       1.00       1          1          1
210c             TRAPEZOIDAL  4.00       1.00       1          1          1
30001            TRAPEZOIDAL  2.00       8.00       1          1          1
30002            TRAPEZOIDAL  1.00       10.00      2          2          1
30003            TRAPEZOIDAL  1.00       10.00      2          2          1
30004            TRAPEZOIDAL  1.00       10.00      2          2          1
30005            TRAPEZOIDAL  1.00       10.00      2          2          1
30006            TRAPEZOIDAL  1.00       10.00      2          2          1
30007            TRAPEZOIDAL  1.00       10.00      2          2          1
30008            TRAPEZOIDAL  1.00       10.00      2          2          1
30009            RECT_CLOSED  4.00       5.00       0          0          1
30010            TRAPEZOIDAL  10.00      10.00      1          1          1
301c             TRAPEZOIDAL  4.00       1.00       1          1          1
302c             TRAPEZOIDAL  4.00       1.00       1          1          1
303c             TRAPEZOIDAL  4.00       1.00       1          1          1
304c             TRAPEZOIDAL  4.00       1.00       1          1          1
305c             TRAPEZOIDAL  4.00       1.00       1          1          1
306c             TRAPEZOIDAL  4.00       1.00       1          1          1
307c             TRAPEZOIDAL  4.00       1.00       1          1          1
308c             TRAPEZOIDAL  4.00       1.00       1          1          1
309c             TRAPEZOIDAL  4.00       1.00       1          1          1
310c             TRAPEZOIDAL  4.00       1.00       1          1          1
40001            TRAPEZOIDAL  1.00       10.00      2          2          1
40002            TRAPEZOIDAL  1.00       10.00      2          2          1
40003            TRAPEZOIDAL  3.00       4.00       1          1          1
40004            TRAPEZOIDAL  3.00       4.00       1          1          1
40005            TRAPEZOIDAL  1.00       10.00      2          2          1
40006            TRAPEZOIDAL  1.00       10.00      2          2          1
40007            TRAPEZOIDAL  1.00       10.00      2          2          1
40008            TRAPEZOIDAL  1.00       10.00      2          2          1
40009            TRAPEZOIDAL  1.00       10.00      2          2          1
40010            RECT_CLOSED  5.00       10.00      0          0          1
40011            TRAPEZOIDAL  10.00      10.00      1          1          1
40012            TRAPEZOIDAL  2.50       11.00      1          1          1
40013            TRAPEZOIDAL  1.50       6.00       1          1          1
40014            TRAPEZOIDAL  2.00       9.00       1          1          1
40015            TRAPEZOIDAL  1.00       5.00       1          1          1
40016            TRAPEZOIDAL  1.00       10.00      2          2          1
40017            TRAPEZOIDAL  2.00       8.00       1          1          1
401c             TRAPEZOIDAL  4.00       1.00       1          1          1
402c             TRAPEZOIDAL  4.00       1.00       1          1          1
403c             TRAPEZOIDAL  4.00       1.00       1          1          1
404c             TRAPEZOIDAL  4.00       1.00       1          1          1
405c             TRAPEZOIDAL  4.00       1.00       1          1          1
406c             TRAPEZOIDAL  4.00       1.00       1          1          1
407c             TRAPEZOIDAL  4.00       1.00       1          1          1
408c             TRAPEZOIDAL  4.00       1.00       1          1          1
409c             TRAPEZOIDAL  4.00       1.00       1          1          1
410c             TRAPEZOIDAL  4.00       1.00       1          1          1
411c             TRAPEZOIDAL  4.00       1.00       1          1          1
412c             TRAPEZOIDAL  4.00       1.00       1          1          1
413c             TRAPEZOIDAL  4.00       1.00       1          1          1
414c             TRAPEZOIDAL  4.00       1.00       1          1          1
415c             TRAPEZOIDAL  4.00       1.00       1          1          1
416c             TRAPEZOIDAL  4.00       1.00       1          1          1
417c             TRAPEZOIDAL  4.00       1.00       1          1          1
418c             TRAPEZOIDAL  4.00       1.00       1          1          1
C_OUT_SYNTH      CIRCULAR     3.00       0          0          0          1

[LOSSES]
;;Link           Inlet      Outlet     Average    Flap Gate
;;-------------- ---------- ---------- ---------- ----------
b10001           0          0          0          NO
b10002           0          0          0          NO
b10003           0          0          0          NO
b10004           0          0          0          NO
b10005           0          0          0          NO
b10006           0          0          0          NO
b10007           0          0          0          NO
b10008           0          0          0          NO
b10009           0          0          0          NO
b10010           0          0          0          NO
b10011           0          0          0          NO
b101c            0          0          0          NO
b102c            0          0          0          NO
b103c            0          0          0          NO
b104c            0          0          0          NO
b105c            0          0          0          NO
b106c            0          0          0          NO
b107c            0          0          0          NO
b108c            0          0          0          NO
b109c            0          0          0          NO
b110c            0          0          0          NO
b111c            0          0          0          NO
b112c            0          0          0          NO
b113c            0          0          0          NO
b20001           0          0          0          NO
b20002           0          0          0          NO
b20003           0          0          0          NO
b20004           0          0          0          NO
b20005           0          0          0          NO
b20006           0          0          0          NO
b20007           0          0          0          NO
b201c            0          0          0          NO
b202c            0          0          0          NO
b203c            0          0          0          NO
b204c            0          0          0          NO
b205c            0          0          0          NO
b206c            0          0          0          NO
b207c            0          0          0          NO
b208c            0          0          0          NO
209c             0          0          0          NO
210c             0          0          0          NO
30001            0          0          0          NO
30002            0          0          0          NO
30003            0          0          0          NO
30004            0          0          0          NO
30005            0          0          0          NO
30006            0          0          0          NO
30007            0          0          0          NO
30008            0          0          0          NO
30009            0          0          0          NO
30010            0          0          0          NO
301c             0          0          0          NO
302c             0          0          0          NO
303c             0          0          0          NO
304c             0          0          0          NO
305c             0          0          0          NO
306c             0          0          0          NO
307c             0          0          0          NO
308c             0          0          0          NO
309c             0          0          0          NO
310c             0          0          0          NO
40001            0          0          0          NO
40002            0          0          0          NO
40003            0          0          0          NO
40004            0          0          0          NO
40005            0          0          0          NO
40006            0          0          0          NO
40007            0          0          0          NO
40008            0          0          0          NO
40009            0          0          0          NO
40010            0          0          0          NO
40011            0          0          0          NO
40012            0          0          0          NO
40013            0          0          0          NO
40014            0          0          0          NO
40015            0          0          0          NO
40016            0          0          0          NO
40017            0          0          0          NO
401c             0          0          0          NO
402c             0          0          0          NO
403c             0          0          0          NO
404c             0          0          0          NO
405c             0          0          0          NO
406c             0          0          0          NO
407c             0          0          0          NO
408c             0          0          0          NO
409c             0          0          0          NO
410c             0          0          0          NO
411c             0          0          0          NO
412c             0          0          0          NO
413c             0          0          0          NO
414c             0          0          0          NO
415c             0          0          0          NO
416c             0          0          0          NO
417c             0          0          0          NO
418c             0          0          0          NO
C_OUT_SYNTH      0          0          0          NO

[INFLOWS]
;;Node           Constituent  Time Series      Type     Mfactor  Sfactor  Baseline Pattern
;;-------------- ------------ ---------------- -------- -------- -------- -------- --------
;; SYNTHETIC TEST INFLOWS — the source .xp carried no constant inflows
;; and RUNF hydrology is not converted; 1.00 CFS is applied at each
;; headwater node so the network runs wet for QA. Replace with real
;; hydrology or inflow hydrographs before using results.
b101i            FLOW         ""               FLOW     1.0      1.0      1.00
b102i            FLOW         ""               FLOW     1.0      1.0      1.00
b103i            FLOW         ""               FLOW     1.0      1.0      1.00
b104i            FLOW         ""               FLOW     1.0      1.0      1.00
b105i            FLOW         ""               FLOW     1.0      1.0      1.00
b106i            FLOW         ""               FLOW     1.0      1.0      1.00
b107i            FLOW         ""               FLOW     1.0      1.0      1.00
b108i            FLOW         ""               FLOW     1.0      1.0      1.00
b109i            FLOW         ""               FLOW     1.0      1.0      1.00
b110i            FLOW         ""               FLOW     1.0      1.0      1.00
b111i            FLOW         ""               FLOW     1.0      1.0      1.00
b112i            FLOW         ""               FLOW     1.0      1.0      1.00
b113i            FLOW         ""               FLOW     1.0      1.0      1.00
b201i            FLOW         ""               FLOW     1.0      1.0      1.00
b202i            FLOW         ""               FLOW     1.0      1.0      1.00
b203i            FLOW         ""               FLOW     1.0      1.0      1.00
b204i            FLOW         ""               FLOW     1.0      1.0      1.00
b205i            FLOW         ""               FLOW     1.0      1.0      1.00
b206i            FLOW         ""               FLOW     1.0      1.0      1.00
b207i            FLOW         ""               FLOW     1.0      1.0      1.00
b208i            FLOW         ""               FLOW     1.0      1.0      1.00
b209i            FLOW         ""               FLOW     1.0      1.0      1.00
b210i            FLOW         ""               FLOW     1.0      1.0      1.00
b301i            FLOW         ""               FLOW     1.0      1.0      1.00
b302i            FLOW         ""               FLOW     1.0      1.0      1.00
b303i            FLOW         ""               FLOW     1.0      1.0      1.00
b304i            FLOW         ""               FLOW     1.0      1.0      1.00
b305i            FLOW         ""               FLOW     1.0      1.0      1.00
b306i            FLOW         ""               FLOW     1.0      1.0      1.00
b307i            FLOW         ""               FLOW     1.0      1.0      1.00
b308i            FLOW         ""               FLOW     1.0      1.0      1.00
b309i            FLOW         ""               FLOW     1.0      1.0      1.00
b310i            FLOW         ""               FLOW     1.0      1.0      1.00
b401i            FLOW         ""               FLOW     1.0      1.0      1.00
b402i            FLOW         ""               FLOW     1.0      1.0      1.00
b403i            FLOW         ""               FLOW     1.0      1.0      1.00
b404i            FLOW         ""               FLOW     1.0      1.0      1.00
b405i            FLOW         ""               FLOW     1.0      1.0      1.00
b406i            FLOW         ""               FLOW     1.0      1.0      1.00
b407i            FLOW         ""               FLOW     1.0      1.0      1.00
b408i            FLOW         ""               FLOW     1.0      1.0      1.00
b409i            FLOW         ""               FLOW     1.0      1.0      1.00
b410i            FLOW         ""               FLOW     1.0      1.0      1.00
b411i            FLOW         ""               FLOW     1.0      1.0      1.00
b412i            FLOW         ""               FLOW     1.0      1.0      1.00
b413i            FLOW         ""               FLOW     1.0      1.0      1.00
b414i            FLOW         ""               FLOW     1.0      1.0      1.00
b415i            FLOW         ""               FLOW     1.0      1.0      1.00
b416i            FLOW         ""               FLOW     1.0      1.0      1.00
b417i            FLOW         ""               FLOW     1.0      1.0      1.00
b418i            FLOW         ""               FLOW     1.0      1.0      1.00

[COORDINATES]
;;Node           X-Coord            Y-Coord
;;-------------- ------------------ ------------------
b1001            -182910.03         1601579.95        
b1003            -182541.13         1600928.10        
b1004            -182494.80         1600775.78        
b1005            -182403.31         1600381.76        
b1006            -182360.24         1600116.64        
b1007            -182325.50         1599953.81        
b1008            -181885.08         1600109.91        
b1009            -181518.37         1600345.56        
b1010            -182688.47         1600882.86        
b1011            -183913.98         1600529.82        
b1012            -182242.16         1600477.48        
b101i            -183783.73         1601054.32        
b102i            -183450.69         1602194.58        
b103i            -182091.81         1602362.45        
b104i            -182990.47         1601238.90        
b105i            -184155.62         1600739.98        
b106i            -183674.88         1600491.90        
b107i            -181337.16         1601318.11        
b108i            -181826.88         1600837.92        
b109i            -182210.26         1600405.80        
b110i            -182785.24         1600121.50        
b111i            -181073.72         1600700.46        
b112i            -181530.23         1600559.62        
b113i            -182000.92         1599951.57        
b2001            -184699.33         1599464.63        
b2002            -184294.42         1599560.87        
b2003            -184223.49         1599566.03        
b2004            -183902.49         1599569.56        
b2005            -183637.81         1599603.06        
b2006            -183182.57         1599599.28        
b2007            -182798.91         1599490.26        
b201i            -185099.21         1598952.47        
b202i            -185009.16         1599661.32        
b203i            -184860.47         1600039.12        
b204i            -184384.22         1599065.08        
b205i            -184391.51         1600458.36        
b206i            -183904.79         1600090.79        
b207i            -184125.04         1598880.50        
b208i            -183541.67         1599917.81        
b209i            -183206.34         1598992.80        
b210i            -183665.42         1600237.68        
b3001            -184922.83         1597776.62        
b3002            -184724.16         1597846.70        
b3003            -184493.15         1597797.46        
b3004            -184185.73         1597742.31        
b3005            -183674.13         1597663.67        
b3006            -183489.99         1597611.78        
b3007            -183165.27         1597472.74        
b3008            -182399.74         1597222.81        
b3009            -182223.97         1597153.76        
b3010            -181956.48         1597070.68        
b301i            -185365.84         1598479.90        
b302i            -184788.00         1598715.76        
b303i            -185044.63         1596973.43        
b304i            -184311.30         1598430.02        
b305i            -184461.56         1597101.14        
b306i            -183403.45         1598343.51        
b307i            -184081.98         1597042.07        
b308i            -183149.29         1597914.24        
b309i            -183215.97         1597219.84        
b310i            -182191.04         1597712.10        
b4001            -182204.58         1599484.65        
b4002            -182122.86         1599380.89        
b4003            -182018.13         1599205.56        
b4004            -182318.23         1599096.70        
b4005            -182467.02         1598917.17        
b4006            -181784.39         1598945.56        
b4007            -181558.01         1598592.06        
b4008            -181541.63         1598306.97        
b4009            -181552.83         1598187.20        
b4010            -181348.59         1597602.36        
b4011            -181363.44         1597336.12        
b4012            -181310.72         1597025.08        
b4013            -181373.37         1599759.24        
b4014            -181152.04         1600015.89        
b4015            -181254.03         1599737.23        
b4016            -180365.95         1599823.16        
b4017            -180718.42         1598443.56        
b4018            -181455.49         1598467.34        
b401i            -183049.19         1598669.82        
b402i            -182374.21         1598899.91        
b403i            -182483.28         1599237.66        
b404i            -180178.04         1599904.94        
b405i            -179915.61         1599343.24        
b406i            -180474.82         1600034.21        
b407i            -181412.38         1599531.68        
b408i            -181566.65         1599221.11        
b409i            -181134.53         1599184.63        
b410i            -181061.40         1598974.24        
b411i            -180253.43         1598908.40        
b412i            -180351.38         1598569.62        
b413i            -180829.42         1598037.48        
b414i            -181211.52         1598560.76        
b415i            -182917.21         1598321.59        
b416i            -182141.68         1598028.01        
b417i            -180274.81         1598035.70        
b418i            -180245.63         1597882.42        

[MAP]
DIMENSIONS -185365.84 1596973.43 -179915.61 1602362.45
Units      None

[REPORT]
SUBCATCHMENTS ALL
NODES ALL
LINKS ALL
