;; SWMM5 .inp converted from XPSWMM .xp file
;; Generated by XPSWMM Card Reader
;; Source format: XP_CARD | Original title: (none)
;; Links parsed from source: 8 | Routable in this .inp: 8

[TITLE]
;;Project Title/Notes
Converted from XPSWMM .xp file

[OPTIONS]
FLOW_UNITS           CMS
INFILTRATION         HORTON
FLOW_ROUTING         DYNWAVE
LINK_OFFSETS         DEPTH
MIN_SLOPE            0.0
ALLOW_PONDING        NO
SKIP_STEADY_STATE    NO
ROUTING_STEP         00:00:05
VARIABLE_STEP        0.75
INERTIAL_DAMPING     PARTIAL
NORMAL_FLOW_LIMITED  BOTH
START_DATE           01/01/2001
START_TIME           00:00:00
REPORT_START_DATE    01/01/2001
REPORT_START_TIME    00:00:00
END_DATE             01/02/2001
END_TIME             00:00:00
SWEEP_START          01/01
SWEEP_END            12/31
DRY_DAYS             0
REPORT_STEP          00:15:00
WET_STEP             00:05:00
DRY_STEP             01:00:00

[JUNCTIONS]
;;Name           Elev       MaxDepth   InitDepth  SurDepth   Aponded
;;-------------- ---------- ---------- ---------- ---------- ----------
Node1            10.00      0          0          0          0
C1_u/s           49.00      0          0          0          0
C3_u/s           42.50      0          0          0          0
C3_d/s           42.50      0          0          0          0
96               42.20      0          0          0          0
MH-06            48.06      0          0          0          0
MH-02            42.30      0          0          0          0
MH-03            43.11      0          0          0          0
MH-01            42.08      0          0          0          0
MH-04            43.80      0          0          0          0
MH-05            48.85      0          0          0          0

[OUTFALLS]
;;Name           Elev       Type       Stage      Gated
;;-------------- ---------- ---------- ---------- -----
C1_d/s           48.91      FREE                  NO

[CONDUITS]
;;Name           From             To               Length     Roughness  InOffset   OutOffset  InitFlow   MaxFlow
;;-------------- ---------------- ---------------- ---------- ---------- ---------- ---------- ---------- ----------
202              C1_u/s           C1_d/s           10.00      0.0150     44.47      44.42      0          0
204              C3_u/s           C3_d/s           10.00      0.0150     37.75      37.50      0          0
209              MH-06            MH-02            151.98     0.0130     44.00      39.66      0          0
210              MH-02            MH-01            94.31      0.0130     39.66      39.52      0          0
211              MH-03            MH-02            111.32     0.0130     40.00      39.66      0          0
212              MH-01            96               20.68      0.0130     39.52      39.50      0          0
213              MH-04            MH-03            149.39     0.0130     40.50      40.00      0          0
214              MH-05            MH-03            154.93     0.0130     45.00      40.00      0          0

[XSECTIONS]
;;Link           Shape        Geom1      Geom2      Geom3      Geom4      Barrels
;;-------------- ------------ ---------- ---------- ---------- ---------- ----------
202              RECT_CLOSED  1.80       1.80       0          0          3
204              RECT_CLOSED  1.20       2.40       0          0          5
209              CIRCULAR     1.00       0          0          0          1
210              CIRCULAR     1.25       0          0          0          1
211              CIRCULAR     1.00       0          0          0          1
212              CIRCULAR     1.50       0          0          0          1
213              CIRCULAR     0.75       0          0          0          1
214              CIRCULAR     0.75       0          0          0          1

[LOSSES]
;;Link           Inlet      Outlet     Average    Flap Gate
;;-------------- ---------- ---------- ---------- ----------
202              0          0          0          NO
204              0          0          0          NO
209              0          0          0          NO
210              0          0          0          NO
211              0          0          0          NO
212              0          0          0          NO
213              0          0          0          NO
214              0          0          0          NO

[INFLOWS]
;;Node           Constituent  Time Series      Type     Mfactor  Sfactor  Baseline Pattern
;;-------------- ------------ ---------------- -------- -------- -------- -------- --------
;; SYNTHETIC TEST INFLOWS — the source .xp carried no constant inflows
;; and RUNF hydrology is not converted; 0.03 CMS is applied at each
;; headwater node so the network runs wet for QA. Replace with real
;; hydrology or inflow hydrographs before using results.
C1_u/s           FLOW         ""               FLOW     1.0      1.0      0.03
C3_u/s           FLOW         ""               FLOW     1.0      1.0      0.03
MH-06            FLOW         ""               FLOW     1.0      1.0      0.03
MH-04            FLOW         ""               FLOW     1.0      1.0      0.03
MH-05            FLOW         ""               FLOW     1.0      1.0      0.03

[COORDINATES]
;;Node           X-Coord            Y-Coord
;;-------------- ------------------ ------------------
Node1            -6177845.37        293729.53         
C1_u/s           -6177204.99        293101.47         
C1_d/s           -6177223.11        293146.01         
C3_u/s           -6177689.27        293284.20         
C3_d/s           -6177709.19        293288.66         
96               -6177524.94        293256.55         
MH-06            -6177399.34        293105.22         
MH-02            -6177546.24        293144.17         
MH-03            -6177575.23        293036.68         
MH-01            -6177524.29        293235.88         
MH-04            -6177721.90        293064.54         
MH-05            -6177423.69        293004.45         

[MAP]
DIMENSIONS -6177845.37 293004.45 -6177204.99 293729.53
Units      None

[REPORT]
SUBCATCHMENTS ALL
NODES ALL
LINKS ALL
