;; SWMM5 .inp converted from XPSWMM .xp file
;; Generated by XPSWMM Card Reader
;; Source format: XP_CARD | Original title: EXTRAN USER'S MANUAL EXAMPLE PROBLEM 80
;; Links parsed from source: 5 | Routable in this .inp: 5

[TITLE]
;;Project Title/Notes
EXTRAN USER'S MANUAL EXAMPLE PROBLEM 80

[OPTIONS]
FLOW_UNITS           CMS
INFILTRATION         HORTON
FLOW_ROUTING         DYNWAVE
LINK_OFFSETS         DEPTH
MIN_SLOPE            0.0
ALLOW_PONDING        NO
SKIP_STEADY_STATE    NO
ROUTING_STEP         00:00:20
VARIABLE_STEP        0.75
INERTIAL_DAMPING     PARTIAL
NORMAL_FLOW_LIMITED  BOTH
MAX_TRIALS           100
HEAD_TOLERANCE       .00001
START_DATE           01/01/2001
START_TIME           00:00:00
REPORT_START_DATE    01/01/2001
REPORT_START_TIME    00:00:00
END_DATE             01/02/2001
END_TIME             00:00:00
SWEEP_START          01/01
SWEEP_END            12/31
DRY_DAYS             0
REPORT_STEP          00:15:00
WET_STEP             00:05:00
DRY_STEP             01:00:00

[JUNCTIONS]
;;Name           Elev       MaxDepth   InitDepth  SurDepth   Aponded
;;-------------- ---------- ---------- ---------- ---------- ----------
Inflow           130.00     0          0          0          0
Node2            130.00     0          0          0          0
Node3            130.00     0          0          0          0
Node4            130.00     0          0          0          0
Node5            130.00     0          0          0          0

[OUTFALLS]
;;Name           Elev       Type       Stage      Gated
;;-------------- ---------- ---------- ---------- -----
Outfal           130.00     FREE                  NO

[CONDUITS]
;;Name           From             To               Length     Roughness  InOffset   OutOffset  InitFlow   MaxFlow
;;-------------- ---------------- ---------------- ---------- ---------- ---------- ---------- ---------- ----------
1                Inflow           Node2            1000.00    0.0200     108.00     103.00     0          0
2                Node2            Node3            1000.00    0.0200     103.00     102.00     0          0
3                Node3            Node4            1000.00    0.0200     102.00     101.00     0          0
4                Node4            Node5            1000.00    0.0200     101.00     100.00     0          0
5                Node5            Outfal           1000.00    0.0200     100.00     99.00      0          0

[XSECTIONS]
;;Link           Shape        Geom1      Geom2      Geom3      Geom4      Barrels
;;-------------- ------------ ---------- ---------- ---------- ---------- ----------
1                CIRCULAR     20.00      0          0          0          1
2                CIRCULAR     1.00       0          0          0          1
3                CIRCULAR     20.00      0          0          0          1
4                CIRCULAR     1.00       0          0          0          1
5                CIRCULAR     20.00      0          0          0          1

[LOSSES]
;;Link           Inlet      Outlet     Average    Flap Gate
;;-------------- ---------- ---------- ---------- ----------
1                0          0          0          NO
2                0          0          0          NO
3                0          0          0          NO
4                0          0          0          NO
5                0          0          0          NO

[INFLOWS]
;;Node           Constituent  Time Series      Type     Mfactor  Sfactor  Baseline Pattern
;;-------------- ------------ ---------------- -------- -------- -------- -------- --------
;; SYNTHETIC TEST INFLOWS — the source .xp carried no constant inflows
;; and RUNF hydrology is not converted; 0.03 CMS is applied at each
;; headwater node so the network runs wet for QA. Replace with real
;; hydrology or inflow hydrographs before using results.
Inflow           FLOW         ""               FLOW     1.0      1.0      0.03

[COORDINATES]
;;Node           X-Coord            Y-Coord
;;-------------- ------------------ ------------------
Inflow           -322.36            -282.36           
Node2            -322.36            -142.36           
Node3            -322.36            17.64             
Node4            -282.36            17.64             
Node5            -282.36            -142.36           
Outfal           -282.36            -282.36           

[MAP]
DIMENSIONS -322.36 -282.36 -282.36 17.64
Units      None

[REPORT]
SUBCATCHMENTS ALL
NODES ALL
LINKS ALL
