;; SWMM5 .inp converted from XPSWMM .xp file
;; Generated by XPSWMM Card Reader
;; Source format: XP_CARD | Original title: (none)
;; Links parsed from source: 1491 | Routable in this .inp: 1491

[TITLE]
;;Project Title/Notes
Converted from XPSWMM .xp file

[OPTIONS]
FLOW_UNITS           CMS
INFILTRATION         HORTON
FLOW_ROUTING         DYNWAVE
LINK_OFFSETS         DEPTH
MIN_SLOPE            0.0
ALLOW_PONDING        NO
SKIP_STEADY_STATE    NO
ROUTING_STEP         00:01:00
VARIABLE_STEP        0.75
INERTIAL_DAMPING     PARTIAL
NORMAL_FLOW_LIMITED  BOTH
MAX_TRIALS           500
HEAD_TOLERANCE       .001
START_DATE           01/01/2001
START_TIME           00:00:00
REPORT_START_DATE    01/01/2001
REPORT_START_TIME    00:00:00
END_DATE             01/02/2001
END_TIME             00:00:00
SWEEP_START          01/01
SWEEP_END            12/31
DRY_DAYS             0
REPORT_STEP          00:15:00
WET_STEP             00:05:00
DRY_STEP             01:00:00

[JUNCTIONS]
;;Name           Elev       MaxDepth   InitDepth  SurDepth   Aponded
;;-------------- ---------- ---------- ---------- ---------- ----------
STMH18650        116.42     0          0          0          0
STMH18649        115.12     0          0          0          0
STMH18651        124.04     0          0          0          0
STMH18652        126.73     0          0          0          0
STMH18653        127.40     0          0          0          0
STMH18453        114.24     0          0          0          0
STMH18677        123.00     0          0          0          0
STMH18654        128.66     0          0          0          0
STMH18676        120.99     0          0          0          0
STMH18702        119.48     0          0          0          0
STMH18701        120.62     0          0          0          0
STMH19072        97.44      0          0          0          0
STMH19181        62.49      0          0          0          0
STMH19176        68.66      0          0          0          0
STMH19182        62.41      0          0          0          0
STMH19063        94.65      0          0          0          0
STMH19177        68.27      0          0          0          0
STMH19179        64.97      0          0          0          0
STMH19180        64.26      0          0          0          0
STMH19178        67.75      0          0          0          0
STMH18485        4.78       0          0          0          0
STMH18148        125.29     0          0          0          0
STMH18574        63.87      0          0          0          0
STMH18464        118.98     0          0          0          0
STMH18461        118.52     0          0          0          0
STMH18462        118.69     0          0          0          0
STMH19122        140.88     0          0          0          0
STMH19124        144.43     0          0          0          0
STMH19128        152.44     0          0          0          0
STMH19126        149.41     0          0          0          0
STMH19123        141.92     0          0          0          0
STMH19125        146.79     0          0          0          0
STMH19127        151.49     0          0          0          0
STMH19148        42.14      0          0          0          0
STMH19146        42.20      0          0          0          0
STMH19145        50.58      0          0          0          0
STMH19143        37.52      0          0          0          0
STMH19142        40.92      0          0          0          0
STMH19144        35.64      0          0          0          0
STMH19147        45.61      0          0          0          0
STMH18368        72.97      0          0          0          0
STMH19169        47.00      0          0          0          0
STMH19164        56.02      0          0          0          0
STMH19163        61.44      0          0          0          0
STMH19166        50.21      0          0          0          0
STMH19165        51.21      0          0          0          0
STMH19168        46.00      0          0          0          0
STMH18585        41.02      0          0          0          0
STMH15420        74.40      0          0          0          0
STMH15417        66.55      0          0          0          0
STMH15437        83.89      0          0          0          0
STMH15407        78.22      0          0          0          0
STMH15434        69.97      0          0          0          0
STMH15424        64.36      0          0          0          0
STMH15422        64.26      0          0          0          0
STMH15423        64.50      0          0          0          0
STMH14988        102.08     0          0          0          0
STMH14985        120.07     0          0          0          0
STMH19183        61.73      0          0          0          0
STMH15777        171.92     0          0          0          0
STMH15828        214.77     0          0          0          0
STMH15827        212.14     0          0          0          0
STMH15826        201.34     0          0          0          0
STMH15825        196.38     0          0          0          0
STMH15824        183.02     0          0          0          0
STMH15823        183.16     0          0          0          0
STMH15822        206.79     0          0          0          0
STMH15821        207.60     0          0          0          0
STMH15820        203.38     0          0          0          0
STMH15819        199.35     0          0          0          0
STMH15818        191.44     0          0          0          0
STMH15817        187.12     0          0          0          0
STMH15815        159.09     0          0          0          0
STMH15814        166.50     0          0          0          0
STMH15806        158.00     0          0          0          0
STMH15871        34.96      0          0          0          0
STMH15875        31.09      0          0          0          0
STMH15861        44.96      0          0          0          0
STMH15857        33.29      0          0          0          0
STMH18138        139.64     0          0          0          0
STMH18500        67.08      0          0          0          0
STMH18499        68.24      0          0          0          0
STMH18497        63.93      0          0          0          0
STMH18498        56.45      0          0          0          0
STMH18496        63.00      0          0          0          0
STMH18577        60.38      0          0          0          0
STMH18571        64.22      0          0          0          0
STMH18004        60.30      0          0          0          0
STMH18572        64.85      0          0          0          0
STMH18569        71.65      0          0          0          0
STMH18563        90.44      0          0          0          0
STMH17576        51.25      0          0          0          0
STMH17580        46.99      0          0          0          0
STMH17583        44.40      0          0          0          0
STMH18912        164.12     0          0          0          0
STMH18899        123.54     0          0          0          0
STMH17865        90.15      0          0          0          0
STMH17864        89.85      0          0          0          0
STMH17861        90.63      0          0          0          0
STMH18902        118.44     0          0          0          0
STMH17863        89.86      0          0          0          0
STMH17859        91.19      0          0          0          0
STMH17858        89.18      0          0          0          0
STMH17860        90.73      0          0          0          0
STMH18901        119.74     0          0          0          0
STMH17862        89.77      0          0          0          0
STMH18273        35.96      0          0          0          0
STMH18271        42.47      0          0          0          0
STMH18272        38.83      0          0          0          0
STMH18900        120.70     0          0          0          0
STMH17941        89.21      0          0          0          0
STMH17951        28.60      0          0          0          0
STMH18143        127.27     0          0          0          0
STMH17968        151.44     0          0          0          0
STMH17970        157.21     0          0          0          0
STMH18134        136.64     0          0          0          0
STMH18117        148.48     0          0          0          0
STMH17992        137.84     0          0          0          0
STMH17978        144.45     0          0          0          0
STMH18114        158.02     0          0          0          0
STMH17989        139.03     0          0          0          0
STMH17957        159.29     0          0          0          0
STMH18131        141.59     0          0          0          0
STMH17964        151.37     0          0          0          0
STMH17982        142.07     0          0          0          0
STMH18136        135.45     0          0          0          0
STMH17973        157.83     0          0          0          0
STMH17993        136.61     0          0          0          0
STMH17986        137.55     0          0          0          0
STMH17955        164.09     0          0          0          0
STMH17981        143.32     0          0          0          0
STMH18151        131.95     0          0          0          0
STMH17983        140.44     0          0          0          0
STMH17963        152.69     0          0          0          0
STMH18124        146.19     0          0          0          0
STMH18156        121.51     0          0          0          0
STMH18123        148.76     0          0          0          0
STMH18160        121.46     0          0          0          0
STMH17994        135.36     0          0          0          0
STMH18121        144.15     0          0          0          0
STMH18128        141.87     0          0          0          0
STMH18122        150.57     0          0          0          0
STMH18354        76.08      0          0          0          0
STMH18376        88.79      0          0          0          0
STMH18381        89.34      0          0          0          0
STMH18754        118.50     0          0          0          0
STMH18382        89.96      0          0          0          0
STMH18369        69.34      0          0          0          0
STMH18383        90.34      0          0          0          0
STMH18384        90.48      0          0          0          0
STMH18385        90.67      0          0          0          0
STMH18297        100.09     0          0          0          0
STMH18296        109.05     0          0          0          0
STMH18019        53.50      0          0          0          0
STMH18203        155.26     0          0          0          0
STMH19076        165.89     0          0          0          0
STMH18406        117.17     0          0          0          0
STMH18400        26.12      0          0          0          0
STMH18392        170.80     0          0          0          0
STMH18173        28.33      0          0          0          0
STMH17952        28.66      0          0          0          0
STMH18021        50.05      0          0          0          0
STMH18039        40.95      0          0          0          0
STMH18026        49.32      0          0          0          0
STMH18313        92.72      0          0          0          0
STMH18314        91.73      0          0          0          0
STMH18310        90.79      0          0          0          0
STMH18245        46.86      0          0          0          0
STMH18249        43.40      0          0          0          0
STMH18325        108.75     0          0          0          0
STMH14800        113.95     0          0          0          0
STMH18334        94.60      0          0          0          0
STMH18306        93.72      0          0          0          0
STMH18332        100.24     0          0          0          0
STMH18326        110.83     0          0          0          0
STMH18027        41.18      0          0          0          0
STMH18022        48.70      0          0          0          0
STMH18020        50.77      0          0          0          0
STMH18145        125.58     0          0          0          0
STMH18150        121.90     0          0          0          0
STMH18141        130.97     0          0          0          0
STMH18120        144.45     0          0          0          0
STMH17988        139.72     0          0          0          0
STMH18165        134.96     0          0          0          0
STMH17990        137.51     0          0          0          0
STMH18153        121.71     0          0          0          0
STMH18125        146.19     0          0          0          0
STMH18162        121.75     0          0          0          0
STMH18168        135.27     0          0          0          0
STMH18157        122.28     0          0          0          0
STMH18159        121.13     0          0          0          0
STMH18154        121.37     0          0          0          0
STMH18199        162.64     0          0          0          0
STMH18031        40.68      0          0          0          0
STMH18028        46.19      0          0          0          0
STMH18196        167.81     0          0          0          0
STMH18220        153.40     0          0          0          0
STMH18489        153.47     0          0          0          0
STMH18210        170.43     0          0          0          0
STMH18205        154.68     0          0          0          0
STMH18491        151.01     0          0          0          0
STMH18494        179.95     0          0          0          0
STMH18492        150.59     0          0          0          0
STMH18253        41.08      0          0          0          0
STMH18207        179.47     0          0          0          0
STMH18200        161.93     0          0          0          0
STMH18211        166.49     0          0          0          0
STMH18221        153.21     0          0          0          0
STMH18202        156.62     0          0          0          0
STMH18201        160.68     0          0          0          0
STMH18212        164.27     0          0          0          0
STMH18198        165.94     0          0          0          0
STMH18216        158.83     0          0          0          0
STMH18193        158.28     0          0          0          0
STMH19014        49.62      0          0          0          0
STMH19015        46.93      0          0          0          0
STMH18230        57.04      0          0          0          0
STMH19047        131.33     0          0          0          0
STMH18229        62.04      0          0          0          0
STMH18268        30.23      0          0          0          0
STMH18264        24.76      0          0          0          0
STMH18262        27.71      0          0          0          0
STMH18261        28.29      0          0          0          0
STMH18267        29.39      0          0          0          0
STMH18454        115.20     0          0          0          0
STMH18455        117.07     0          0          0          0
STMH18458        117.55     0          0          0          0
STMH17944        51.20      0          0          0          0
STMH18255        22.87      0          0          0          0
STMH18278        35.40      0          0          0          0
STMH18274        33.08      0          0          0          0
STMH18277        35.28      0          0          0          0
STMH18270        23.01      0          0          0          0
STMH17997        126.80     0          0          0          0
STMH18765        133.65     0          0          0          0
STMH19011        58.22      0          0          0          0
STMH18897        128.00     0          0          0          0
STMH18898        125.33     0          0          0          0
STMH18295        109.33     0          0          0          0
STMH18293        113.75     0          0          0          0
STMH18303        110.11     0          0          0          0
STMH18301        113.26     0          0          0          0
STMH15866        72.62      0          0          0          0
STMH18728        200.38     0          0          0          0
STMH18732        181.06     0          0          0          0
STMH18740        198.18     0          0          0          0
STMH18783        120.44     0          0          0          0
STMH18785        124.13     0          0          0          0
STMH18784        122.16     0          0          0          0
STMH18782        117.83     0          0          0          0
STMH18265        27.58      0          0          0          0
STMH15833        188.84     0          0          0          0
STMH18308        92.72      0          0          0          0
STMH18317        92.13      0          0          0          0
STMH18179        18.42      0          0          0          0
STMH18307        93.90      0          0          0          0
STMH18311        93.87      0          0          0          0
STMH18545        52.70      0          0          0          0
STMH18007        73.08      0          0          0          0
STMH18000        71.83      0          0          0          0
STMH18001        69.09      0          0          0          0
STMH18655        111.43     0          0          0          0
STMH18656        108.12     0          0          0          0
STMH18657        107.24     0          0          0          0
STMH18658        107.91     0          0          0          0
STMH18659        110.03     0          0          0          0
STMH18660        112.33     0          0          0          0
STMH18661        113.72     0          0          0          0
STMH18662        116.45     0          0          0          0
STMH18663        119.08     0          0          0          0
STMH18664        121.17     0          0          0          0
STMH18668        111.69     0          0          0          0
STMH15851        26.60      0          0          0          0
STMH15852        24.86      0          0          0          0
STMH15864        62.96      0          0          0          0
STMH18930        133.11     0          0          0          0
STMH18982        132.17     0          0          0          0
STMH18931        135.63     0          0          0          0
STMH18933        138.20     0          0          0          0
STMH18935        157.83     0          0          0          0
STMH18932        136.99     0          0          0          0
STMH18934        148.15     0          0          0          0
STMH15426        61.35      0          0          0          0
STMH15425        61.35      0          0          0          0
STMH15421        74.41      0          0          0          0
STMH15419        72.33      0          0          0          0
STMH15418        71.89      0          0          0          0
STMH15416        88.95      0          0          0          0
STMH18988        147.22     0          0          0          0
STMH18985        149.27     0          0          0          0
STMH18987        147.01     0          0          0          0
STMH18984        143.76     0          0          0          0
STMH18986        145.79     0          0          0          0
STMH18997        152.00     0          0          0          0
STMH18625        53.78      0          0          0          0
STMH18996        150.43     0          0          0          0
STMH18631        50.60      0          0          0          0
STMH18628        51.75      0          0          0          0
STMH18626        55.87      0          0          0          0
STMH18627        51.63      0          0          0          0
STMH18629        50.19      0          0          0          0
STMH19020        143.43     0          0          0          0
STMH19019        140.00     0          0          0          0
STMH19017        134.82     0          0          0          0
STMH15411        73.05      0          0          0          0
STMH15410        70.30      0          0          0          0
STMH15409        68.28      0          0          0          0
STMH15408        79.42      0          0          0          0
STMH15436        74.70      0          0          0          0
STMH18459        117.99     0          0          0          0
STMH18460        118.55     0          0          0          0
STMH18463        118.89     0          0          0          0
STMH15435        79.38      0          0          0          0
STMH15406        83.76      0          0          0          0
STMH15405        84.90      0          0          0          0
STMH18648        131.63     0          0          0          0
STMH18639        111.03     0          0          0          0
STMH18640        113.08     0          0          0          0
STMH15776        172.99     0          0          0          0
STMH15830        132.11     0          0          0          0
STMH15829        201.68     0          0          0          0
STMH15834        205.09     0          0          0          0
STMH15816        162.35     0          0          0          0
STMH15856        33.38      0          0          0          0
STMH18637        106.68     0          0          0          0
STMH18634        105.39     0          0          0          0
STMH18641        122.06     0          0          0          0
STMH18643        128.71     0          0          0          0
STMH18632        107.52     0          0          0          0
STMH18633        107.03     0          0          0          0
STMH18259        32.28      0          0          0          0
STMH18260        28.35      0          0          0          0
STMH18242        40.23      0          0          0          0
STMH18235        51.19      0          0          0          0
STMH18234        53.00      0          0          0          0
STMH18233        54.52      0          0          0          0
STMH17911        79.10      0          0          0          0
STMH17855        86.64      0          0          0          0
STMH17850        90.21      0          0          0          0
STMH17851        88.99      0          0          0          0
STMH17852        90.68      0          0          0          0
STMH17853        88.26      0          0          0          0
STMH17854        88.19      0          0          0          0
STMH18006        62.69      0          0          0          0
STMH18002        58.98      0          0          0          0
STMH18005        59.14      0          0          0          0
STMH18337        74.92      0          0          0          0
STMH18014        72.92      0          0          0          0
STMH18338        81.95      0          0          0          0
STMH18018        78.54      0          0          0          0
STMH18346        84.50      0          0          0          0
STMH18349        85.41      0          0          0          0
STMH18352        82.48      0          0          0          0
STMH18348        85.42      0          0          0          0
STMH18353        77.60      0          0          0          0
STMH18351        83.60      0          0          0          0
STMH18350        84.73      0          0          0          0
STMH18016        76.12      0          0          0          0
STMH18017        75.63      0          0          0          0
STMH18341        79.73      0          0          0          0
STMH18345        66.57      0          0          0          0
STMH18344        72.24      0          0          0          0
STMH18343        76.74      0          0          0          0
STMH18009        65.19      0          0          0          0
STMH18013        72.21      0          0          0          0
STMH18363        76.35      0          0          0          0
STMH18359        73.66      0          0          0          0
STMH18361        76.39      0          0          0          0
STMH18377        91.57      0          0          0          0
STMH18635        99.52      0          0          0          0
STMH18636        93.44      0          0          0          0
STMH18644        129.83     0          0          0          0
STMH18646        132.37     0          0          0          0
STMH18647        132.12     0          0          0          0
STMH18693        116.59     0          0          0          0
STMH18692        115.58     0          0          0          0
STMH18694        119.64     0          0          0          0
STMH18695        122.88     0          0          0          0
STMH18691        115.69     0          0          0          0
STMH19103        138.44     0          0          0          0
STMH19099        126.75     0          0          0          0
STMH19098        134.10     0          0          0          0
STMH19052        77.94      0          0          0          0
STMH19081        73.53      0          0          0          0
STMH19100        127.70     0          0          0          0
STMH19105        134.20     0          0          0          0
STMH19104        135.72     0          0          0          0
STMH19024        129.01     0          0          0          0
STMH19023        141.00     0          0          0          0
STMH19021        133.39     0          0          0          0
STMH19022        138.24     0          0          0          0
STMH18305        131.47     0          0          0          0
STMH18139        137.90     0          0          0          0
STMH19018        136.78     0          0          0          0
STMH15404        66.41      0          0          0          0
STMH15403        66.95      0          0          0          0
STMH17976        145.43     0          0          0          0
STMH17966        147.04     0          0          0          0
STMH17980        144.56     0          0          0          0
STMH17985        137.89     0          0          0          0
STMH17987        135.58     0          0          0          0
STMH17984        139.05     0          0          0          0
STMH18030        41.13      0          0          0          0
STMH18133        135.61     0          0          0          0
STMH18135        135.30     0          0          0          0
STMH18129        140.92     0          0          0          0
STMH18032        39.79      0          0          0          0
STMH18038        39.23      0          0          0          0
STMH18197        167.10     0          0          0          0
STMH18217        155.71     0          0          0          0
STMH18204        154.83     0          0          0          0
STMH18493        182.60     0          0          0          0
STMH18192        159.14     0          0          0          0
STMH18347        82.95      0          0          0          0
STMH18761        120.72     0          0          0          0
STMH18760        123.58     0          0          0          0
STMH18753        115.87     0          0          0          0
STMH18759        137.15     0          0          0          0
STMH18752        114.90     0          0          0          0
STMH18762        123.55     0          0          0          0
STMH18894        59.34      0          0          0          0
STMH18360        76.76      0          0          0          0
STMH17999        72.71      0          0          0          0
STMH18979        122.45     0          0          0          0
STMH18981        127.73     0          0          0          0
STMH18980        126.44     0          0          0          0
STMH17856        88.26      0          0          0          0
STMH18218        153.87     0          0          0          0
STMH18219        153.42     0          0          0          0
STMH18195        153.11     0          0          0          0
STMH18194        155.45     0          0          0          0
STMH18209        174.82     0          0          0          0
STMH18208        177.95     0          0          0          0
STMH18206        181.24     0          0          0          0
STMH18215        159.30     0          0          0          0
STMH18214        159.57     0          0          0          0
STMH18213        161.12     0          0          0          0
STMH18183        26.14      0          0          0          0
STMH18407        118.45     0          0          0          0
STMH18408        119.20     0          0          0          0
STMH18258        35.49      0          0          0          0
STMH18266        29.28      0          0          0          0
STMH18466        119.25     0          0          0          0
STMH18163        132.86     0          0          0          0
STMH18164        126.18     0          0          0          0
STMH19150        60.00      0          0          0          0
STMH19149        56.94      0          0          0          0
STMH19151        60.00      0          0          0          0
STMH18730        194.93     0          0          0          0
STMH18741        169.41     0          0          0          0
STMH18744        192.10     0          0          0          0
STMH18731        183.46     0          0          0          0
STMH18831        193.92     0          0          0          0
STMH18739        189.06     0          0          0          0
STMH18721        186.32     0          0          0          0
STMH18745        199.28     0          0          0          0
STMH18722        193.64     0          0          0          0
STMH18735        188.05     0          0          0          0
STMH18720        182.39     0          0          0          0
STMH17947        38.93      0          0          0          0
STMH18515        114.15     0          0          0          0
STMH18726        193.42     0          0          0          0
STMH18254        41.30      0          0          0          0
STMH18758        127.02     0          0          0          0
STMH18330        102.70     0          0          0          0
STMH18003        62.18      0          0          0          0
STMH18756        128.48     0          0          0          0
STMH18763        125.35     0          0          0          0
STMH18755        122.10     0          0          0          0
STMH17979        161.84     0          0          0          0
STMH17575        51.26      0          0          0          0
STMH17574        51.40      0          0          0          0
STMH17581        44.64      0          0          0          0
STMH17582        45.15      0          0          0          0
STMH17584        45.33      0          0          0          0
STMH17573        51.26      0          0          0          0
STMH17577        46.12      0          0          0          0
STMH18456        117.49     0          0          0          0
STMH18457        117.81     0          0          0          0
STMH18171        36.42      0          0          0          0
STMH18035        44.23      0          0          0          0
STMH18336        65.92      0          0          0          0
STMH18706        30.91      0          0          0          0
STMH18938        23.90      0          0          0          0
STMH18707        30.75      0          0          0          0
STMH18705        22.23      0          0          0          0
STMH18709        34.18      0          0          0          0
STMH18708        33.37      0          0          0          0
STMH18335        70.50      0          0          0          0
STMH18340        80.57      0          0          0          0
STMH18011        71.91      0          0          0          0
STMH18339        84.29      0          0          0          0
STMH18012        72.48      0          0          0          0
STMH18015        75.22      0          0          0          0
STMH18342        81.77      0          0          0          0
STMH18757        126.27     0          0          0          0
STMH18251        42.74      0          0          0          0
STMH17945        45.76      0          0          0          0
STMH17943        60.82      0          0          0          0
STMH17946        42.05      0          0          0          0
STMH18036        41.46      0          0          0          0
STMH17857        88.92      0          0          0          0
STMH18994        151.19     0          0          0          0
STMH18298        90.87      0          0          0          0
STMH18246        45.58      0          0          0          0
STMH18244        52.85      0          0          0          0
STMH18248        44.49      0          0          0          0
STMH18247        49.33      0          0          0          0
STMH18391        167.29     0          0          0          0
STMH17961        153.16     0          0          0          0
STMH17962        152.97     0          0          0          0
STMH17960        153.05     0          0          0          0
STMH17972        156.02     0          0          0          0
STMH17971        153.13     0          0          0          0
STMH17958        147.03     0          0          0          0
STMH17959        149.00     0          0          0          0
STMH17967        155.62     0          0          0          0
STMH18130        148.47     0          0          0          0
STMH18118        146.80     0          0          0          0
STMH17975        147.89     0          0          0          0
STMH17974        163.88     0          0          0          0
STMH17956        160.05     0          0          0          0
STMH17954        167.51     0          0          0          0
STMH18172        35.26      0          0          0          0
STMH18033        41.76      0          0          0          0
STMH18034        39.03      0          0          0          0
STMH18399        40.10      0          0          0          0
STMH18025        41.71      0          0          0          0
STMH18166        124.97     0          0          0          0
STMH18167        128.54     0          0          0          0
STMH18158        123.36     0          0          0          0
STMH18155        124.81     0          0          0          0
STMH18161        121.37     0          0          0          0
STMH18481        122.63     0          0          0          0
STMH18147        124.92     0          0          0          0
STMH17950        30.23      0          0          0          0
STMH17996        122.24     0          0          0          0
STMH18479        131.07     0          0          0          0
STMH17998        129.04     0          0          0          0
STMH18140        132.03     0          0          0          0
STMH17995        131.82     0          0          0          0
STMH18169        130.36     0          0          0          0
STMH18170        129.13     0          0          0          0
STMH18144        126.23     0          0          0          0
STMH18152        133.36     0          0          0          0
STMH18132        137.13     0          0          0          0
STMH18127        139.71     0          0          0          0
STMH18300        114.00     0          0          0          0
STMH18304        109.34     0          0          0          0
STMH18302        111.87     0          0          0          0
STMH18294        110.83     0          0          0          0
STMH18263        26.37      0          0          0          0
STMH18115        154.49     0          0          0          0
STMH18137        145.59     0          0          0          0
STMH18119        152.13     0          0          0          0
STMH17969        160.58     0          0          0          0
STMH18983        136.86     0          0          0          0
STMH18269        33.22      0          0          0          0
STMH18378        97.25      0          0          0          0
STMH18299        122.24     0          0          0          0
STMH18292        122.07     0          0          0          0
STMH18379        106.45     0          0          0          0
STMH18380        111.75     0          0          0          0
STMH18010        68.76      0          0          0          0
STMH18331        101.51     0          0          0          0
STMH18328        104.94     0          0          0          0
STMH18386        90.76      0          0          0          0
STMH18581        90.50      0          0          0          0
STMH18580        90.29      0          0          0          0
STMH18355        75.79      0          0          0          0
STMH18373        76.16      0          0          0          0
STMH18375        86.77      0          0          0          0
STMH18374        80.88      0          0          0          0
STMH18008        63.12      0          0          0          0
STMH18358        75.63      0          0          0          0
STMH18357        79.88      0          0          0          0
STMH18366        76.14      0          0          0          0
STMH18367        73.48      0          0          0          0
STMH18371        73.98      0          0          0          0
STMH18370        73.11      0          0          0          0
STMH18365        78.42      0          0          0          0
STMH18362        74.51      0          0          0          0
STMH18820        92.39      0          0          0          0
STMH18565        84.93      0          0          0          0
STMH18951        55.44      0          0          0          0
STMH18954        51.09      0          0          0          0
STMH18952        52.76      0          0          0          0
STMH18953        51.26      0          0          0          0
STMH18950        47.39      0          0          0          0
STMH18989        148.88     0          0          0          0
STMH18990        149.22     0          0          0          0
STMH18995        150.78     0          0          0          0
STMH19016        148.69     0          0          0          0
STMH18991        149.71     0          0          0          0
STMH18992        150.13     0          0          0          0
STMH18993        150.72     0          0          0          0
STMH19046        150.68     0          0          0          0
STMH19045        147.08     0          0          0          0
STMH19044        132.53     0          0          0          0
STMH19043        130.37     0          0          0          0
STMH18869        81.80      0          0          0          0
STMH18958        50.00      0          0          0          0
STMH18866        86.45      0          0          0          0
STMH18960        60.20      0          0          0          0
STMH18957        44.94      0          0          0          0
STMH18959        64.95      0          0          0          0
STMH18961        56.57      0          0          0          0
STMH14802        108.15     0          0          0          0
STMH14801        119.65     0          0          0          0
STMH15014        113.60     0          0          0          0
STMH15808        151.36     0          0          0          0
STMH15807        151.95     0          0          0          0
STMH15873        39.86      0          0          0          0
STMH15872        44.92      0          0          0          0
STMH15878        28.75      0          0          0          0
STMH15877        79.53      0          0          0          0
STMH15867        77.09      0          0          0          0
STMH15865        67.55      0          0          0          0
STMH15863        24.23      0          0          0          0
STMH15862        27.08      0          0          0          0
STMH15874        31.29      0          0          0          0
STMH15876        47.04      0          0          0          0
STMH15860        38.75      0          0          0          0
STMH15859        50.60      0          0          0          0
STMH15858        47.74      0          0          0          0
STMH15855        29.76      0          0          0          0
STMH15854        26.82      0          0          0          0
STMH15853        27.51      0          0          0          0
STMH18924        145.71     0          0          0          0
STMH18925        151.13     0          0          0          0
STMH18356        82.55      0          0          0          0
STMH18372        74.62      0          0          0          0
STMH18364        76.32      0          0          0          0
STMH18449        114.11     0          0          0          0
STMH18451        113.37     0          0          0          0
STMH18452        113.76     0          0          0          0
STMH18821        92.85      0          0          0          0
STMH18469        128.31     0          0          0          0
STMH18445        104.49     0          0          0          0
STMH18439        91.78      0          0          0          0
STMH18448        113.30     0          0          0          0
STMH18470        130.48     0          0          0          0
STMH18440        92.05      0          0          0          0
STMH18467        119.85     0          0          0          0
STMH18446        109.91     0          0          0          0
STMH18468        123.07     0          0          0          0
STMH18441        92.05      0          0          0          0
STMH18442        93.84      0          0          0          0
STMH18447        112.87     0          0          0          0
STMH18471        130.67     0          0          0          0
STMH18438        91.46      0          0          0          0
STMH18116        155.16     0          0          0          0
STMH18329        102.70     0          0          0          0
STMH18327        109.38     0          0          0          0
STMH18787        117.94     0          0          0          0
STMH18575        62.41      0          0          0          0
STMH18315        93.26      0          0          0          0
STMH18786        124.83     0          0          0          0
STMH18309        91.49      0          0          0          0
STMH18788        119.88     0          0          0          0
STMH18444        101.24     0          0          0          0
STMH18725        197.17     0          0          0          0
STMH18724        201.88     0          0          0          0
STMH18734        175.88     0          0          0          0
STMH18723        207.96     0          0          0          0
STMH18737        205.89     0          0          0          0
STMH18736        200.75     0          0          0          0
STMH18727        215.96     0          0          0          0
STMH18830        200.60     0          0          0          0
STMH18738        210.54     0          0          0          0
STMH18718        170.33     0          0          0          0
STMH18829        200.96     0          0          0          0
STMH18729        207.45     0          0          0          0
STMH18742        179.84     0          0          0          0
STMH18719        173.49     0          0          0          0
STMH18743        181.89     0          0          0          0
STMH18717        166.37     0          0          0          0
STMH18976        119.80     0          0          0          0
STMH18978        121.50     0          0          0          0
STMH18733        171.01     0          0          0          0
STMH18716        161.93     0          0          0          0
STMH18699        117.82     0          0          0          0
STMH18697        129.12     0          0          0          0
STMH18696        129.81     0          0          0          0
STMH18698        120.70     0          0          0          0
STMH18700        122.30     0          0          0          0
STMH18780        113.50     0          0          0          0
STMH18791        119.76     0          0          0          0
STMH18792        123.02     0          0          0          0
STMH18781        117.83     0          0          0          0
STMH18312        93.09      0          0          0          0
STMH18567        87.49      0          0          0          0
STMH18578        58.84      0          0          0          0
STMH18566        87.39      0          0          0          0
STMH18573        64.93      0          0          0          0
STMH18794        123.57     0          0          0          0
STMH18579        58.22      0          0          0          0
STMH18789        122.67     0          0          0          0
STMH18793        121.89     0          0          0          0
STMH18570        69.99      0          0          0          0
STMH18568        72.56      0          0          0          0
STMH18790        123.42     0          0          0          0
STMH18712        24.76      0          0          0          0
STMH18318        119.64     0          0          0          0
STMH18324        110.96     0          0          0          0
STMH18320        112.87     0          0          0          0
STMH18488        153.47     0          0          0          0
STMH18746        200.67     0          0          0          0
STMH18126        151.11     0          0          0          0
STMH18256        21.67      0          0          0          0
STMH18257        18.73      0          0          0          0
STMH18276        22.18      0          0          0          0
STMH18275        23.51      0          0          0          0
STMH18146        128.13     0          0          0          0
STMH18862        72.32      0          0          0          0
STMH18843        121.56     0          0          0          0
STMH18319        117.00     0          0          0          0
STMH18333        100.48     0          0          0          0
STMH18844        120.53     0          0          0          0
STMH18896        129.65     0          0          0          0
STMH18860        73.07      0          0          0          0
STMH18893        65.87      0          0          0          0
STMH17942        76.92      0          0          0          0
STMH18867        86.30      0          0          0          0
STMH18863        70.99      0          0          0          0
STMH18868        82.79      0          0          0          0
STMH18184        29.73      0          0          0          0
STMH17953        20.10      0          0          0          0
STMH17965        147.61     0          0          0          0
STMH17977        145.28     0          0          0          0
STMH18764        125.75     0          0          0          0
STMH18870        81.28      0          0          0          0
STMH19170        69.75      0          0          0          0
STMH18624        58.70      0          0          0          0
STMH18861        76.28      0          0          0          0
STMH18864        69.75      0          0          0          0
STMH18665        105.00     0          0          0          0
STMH18671        129.27     0          0          0          0
STMH18645        132.51     0          0          0          0
STMH18679        125.08     0          0          0          0
STMH18681        127.70     0          0          0          0
STMH18683        102.17     0          0          0          0
STMH18689        122.45     0          0          0          0
STMH18688        119.16     0          0          0          0
STMH18674        121.27     0          0          0          0
STMH18666        108.43     0          0          0          0
STMH18678        121.82     0          0          0          0
STMH18669        113.89     0          0          0          0
STMH18672        127.71     0          0          0          0
STMH18685        113.48     0          0          0          0
STMH18670        131.79     0          0          0          0
STMH18680        126.15     0          0          0          0
STMH18667        109.33     0          0          0          0
STMH18682        128.14     0          0          0          0
STMH18687        114.97     0          0          0          0
STMH18673        124.53     0          0          0          0
STMH18686        117.05     0          0          0          0
STMH18690        122.45     0          0          0          0
STMH18684        107.25     0          0          0          0
STMH18675        121.17     0          0          0          0
STMH18948        42.99      0          0          0          0
STMH18949        41.46      0          0          0          0
STMH18974        115.35     0          0          0          0
STMH18975        118.60     0          0          0          0
STMH18977        120.92     0          0          0          0
STMH18973        108.23     0          0          0          0
STMH18972        106.68     0          0          0          0
STMH18711        26.80      0          0          0          0
STMH18710        34.51      0          0          0          0
STMH19174        165.16     0          0          0          0
STMH19173        158.10     0          0          0          0
STMH18919        164.79     0          0          0          0
STMH18914        141.47     0          0          0          0
STMH18913        138.74     0          0          0          0
STMH18906        137.62     0          0          0          0
STMH18916        145.22     0          0          0          0
STMH18917        168.04     0          0          0          0
STMH18915        144.95     0          0          0          0
STMH18928        157.67     0          0          0          0
STMH18923        167.12     0          0          0          0
STMH18927        155.39     0          0          0          0
STMH18920        148.08     0          0          0          0
STMH18921        151.39     0          0          0          0
STMH18922        157.05     0          0          0          0
STMH18918        165.95     0          0          0          0
STMH18562        91.38      0          0          0          0
STMH18237        40.21      0          0          0          0
STMH18241        41.05      0          0          0          0
STMH18240        43.84      0          0          0          0
STMH18239        45.04      0          0          0          0
STMH18252        42.24      0          0          0          0
STMH18250        42.17      0          0          0          0
STMH18238        36.52      0          0          0          0
STMH18231        56.10      0          0          0          0
STMH18236        45.35      0          0          0          0
STMH18232        54.91      0          0          0          0
STMH19175        151.71     0          0          0          0
STMH19064        91.48      0          0          0          0
STMH19065        91.95      0          0          0          0
STMH19061        97.79      0          0          0          0
STMH19060        103.26     0          0          0          0
STMH19059        105.55     0          0          0          0
STMH19058        111.30     0          0          0          0
STMH19057        113.30     0          0          0          0
STMH19056        116.48     0          0          0          0
STMH19055        120.47     0          0          0          0
STMH19062        96.91      0          0          0          0
STMH19079        167.55     0          0          0          0
STMH19077        169.00     0          0          0          0
STMH19078        164.28     0          0          0          0
STMH19083        129.53     0          0          0          0
STMH19084        128.30     0          0          0          0
STMH19085        130.89     0          0          0          0
STMH19086        133.22     0          0          0          0
STMH19087        136.65     0          0          0          0
STMH19088        137.79     0          0          0          0
STMH19089        138.37     0          0          0          0
STMH19082        129.32     0          0          0          0
STMH19090        137.35     0          0          0          0
STMH19091        143.23     0          0          0          0
STMH19092        146.67     0          0          0          0
STMH19093        147.35     0          0          0          0
STMH19094        148.58     0          0          0          0
STMH19095        142.93     0          0          0          0
STMH19096        139.53     0          0          0          0
STMH19097        138.67     0          0          0          0
STMH19152        118.01     0          0          0          0
STMH18905        135.99     0          0          0          0
STMH18903        135.17     0          0          0          0
STMH18908        148.83     0          0          0          0
STMH18907        141.61     0          0          0          0
STMH18910        161.94     0          0          0          0
STMH18904        135.82     0          0          0          0
STMH18909        160.24     0          0          0          0
STMH18854        24.80      0          0          0          0
STMH18853        25.75      0          0          0          0
STMH18911        163.43     0          0          0          0
STMH18848        59.03      0          0          0          0
STMH18845        67.55      0          0          0          0
STMH18846        62.99      0          0          0          0
STMH18847        59.56      0          0          0          0
STMH18942        80.04      0          0          0          0
STMH18947        84.15      0          0          0          0
STMH18946        86.11      0          0          0          0
STMH18945        70.14      0          0          0          0
STMH18943        76.53      0          0          0          0
STMH18944        72.60      0          0          0          0
STMH19029        132.90     0          0          0          0
STMH19026        135.47     0          0          0          0
STMH19025        131.05     0          0          0          0
STMH19031        141.48     0          0          0          0
STMH19028        128.13     0          0          0          0
STMH19027        126.96     0          0          0          0
STMH18142        126.69     0          0          0          0
STMH19030        135.00     0          0          0          0
STMH18849        192.41     0          0          0          0
STMH18548        66.84      0          0          0          0
STMH18549        68.91      0          0          0          0
STMH18937        65.38      0          0          0          0
STMH18850        189.29     0          0          0          0
STMH18550        72.02      0          0          0          0
STMH18865        86.39      0          0          0          0
STMH18955        49.68      0          0          0          0
STMH18926        162.52     0          0          0          0
STMH17866        89.72      0          0          0          0
STMH15443        62.60      0          0          0          0
STMH14987        115.10     0          0          0          0
STMH14986        115.56     0          0          0          0
STMH14984        116.63     0          0          0          0
STMH14983        116.12     0          0          0          0
STMH19102        139.58     0          0          0          0
STMH19101        127.45     0          0          0          0
STMH15778        163.18     0          0          0          0
STMH17991        137.07     0          0          0          0
STMH18149        125.20     0          0          0          0
STMH18037        39.98      0          0          0          0
STMH18316        93.84      0          0          0          0
STMH18477        125.42     0          0          0          0
STMH18490        151.27     0          0          0          0
STMH18564        90.86      0          0          0          0
STMH18576        63.20      0          0          0          0
STMH15784        161.01     0          0          0          0
STMH18704        132.78     0          0          0          0
STMH18703        132.32     0          0          0          0
STMH18768        140.00     0          0          0          0
STMH18769        142.25     0          0          0          0
STMH18770        141.33     0          0          0          0
STMH18767        133.27     0          0          0          0
STMH19136        55.46      0          0          0          0
STMH19135        150.41     0          0          0          0
STMH19137        40.80      0          0          0          0
STMH19140        48.42      0          0          0          0
STMH19138        55.46      0          0          0          0
STMH19141        45.44      0          0          0          0
STMH19139        51.24      0          0          0          0
STMH19115        119.00     0          0          0          0
STMH19108        140.83     0          0          0          0
STMH19117        124.22     0          0          0          0
STMH19121        120.57     0          0          0          0
STMH19116        124.60     0          0          0          0
STMH19111        126.92     0          0          0          0
STMH19112        124.85     0          0          0          0
STMH19113        125.09     0          0          0          0
STMH19107        151.81     0          0          0          0
STMH19119        123.73     0          0          0          0
STMH19110        128.40     0          0          0          0
STMH19120        123.01     0          0          0          0
STMH19118        120.56     0          0          0          0
STMH19106        149.24     0          0          0          0
STMH19114        119.90     0          0          0          0
STMH19109        138.00     0          0          0          0
STMH18023        45.46      0          0          0          0
STMH18178        22.31      0          0          0          0
STMH18177        27.11      0          0          0          0
STMH19211        51.40      0          0          0          0
STMH17949        37.45      0          0          0          0
STMH19213        51.15      0          0          0          0
STMH19214        46.85      0          0          0          0
STMH18024        46.09      0          0          0          0
STMH18176        36.09      0          0          0          0
STMH18029        38.60      0          0          0          0
STCO15806        206.88     0          0          0          0
STCO16045        49.22      0          0          0          0
STCO16086        47.56      0          0          0          0
STCO16128        118.68     0          0          0          0
STCO19982        122.64     0          0          0          0
STCO19980        30.98      0          0          0          0
STCO19989        125.74     0          0          0          0
STCO19988        127.11     0          0          0          0
STCO20025        145.68     0          0          0          0
STCO20026        61.27      0          0          0          0
STCO20039        161.57     0          0          0          0
STCO19990        164.02     0          0          0          0
STCO15255        76.92      0          0          0          0
STCO15260        61.29      0          0          0          0
STCO16044        54.11      0          0          0          0
STCO16046        46.31      0          0          0          0
STCO16123        171.04     0          0          0          0
STCO19983        126.04     0          0          0          0
STCO19978        125.75     0          0          0          0
STCO19977        124.87     0          0          0          0
STCO19976        119.04     0          0          0          0
STCO19979        123.97     0          0          0          0
STCO19975        129.04     0          0          0          0
STCE15916        159.00     0          0          0          0
STCE15907        125.97     0          0          0          0
STCE15886        90.55      0          0          0          0
STCE15933        28.81      0          0          0          0
STCE15932        32.68      0          0          0          0
STCE15939        29.11      0          0          0          0
STCE15856        63.74      0          0          0          0
STCE15852        40.68      0          0          0          0
STCE15851        33.69      0          0          0          0
STCE15895        149.04     0          0          0          0
STCE15918        64.66      0          0          0          0
STCE15912        50.00      0          0          0          0
STCE15943        48.68      0          0          0          0
STCE15915        49.03      0          0          0          0
STCE15924        73.44      0          0          0          0
STCE15887        92.01      0          0          0          0
STCE15934        27.65      0          0          0          0
STCE15908        123.70     0          0          0          0
STCE15909        132.20     0          0          0          0
STCE15965        181.38     0          0          0          0
STCE15950        97.81      0          0          0          0
STCE15948        92.49      0          0          0          0
STCE15904        122.97     0          0          0          0
STCE15853        50.83      0          0          0          0
STCE15942        47.31      0          0          0          0
STCE15927        90.27      0          0          0          0
STCE15961        131.00     0          0          0          0
STCE15962        131.28     0          0          0          0
STCE15959        120.04     0          0          0          0
STCE15960        128.58     0          0          0          0
STCE15941        22.36      0          0          0          0
STCE15929        89.63      0          0          0          0
GASTCE0001       117.43     0          0          0          0
GASTCE0002       129.00     0          0          0          0
GASTCE0003       131.00     0          0          0          0
GASTCE0004       127.82     0          0          0          0
STIN16104        22.50      0          0          0          0
STIN15810        207.00     0          0          0          0
STIN15819        216.80     0          0          0          0
STIN16125        122.73     0          0          0          0
STIN15860        46.21      0          0          0          0
STIN16011        55.30      0          0          0          0
STIN16055        30.40      0          0          0          0
STIN16099        64.00      0          0          0          0
STIN16067        127.91     0          0          0          0
STIN15855        79.84      0          0          0          0
STIN16129        129.34     0          0          0          0
STIN16051        18.16      0          0          0          0
STIN16085        135.42     0          0          0          0
STIN16090        53.11      0          0          0          0
STIN16109        100.33     0          0          0          0
STIN16096        116.19     0          0          0          0
STIN16077        39.34      0          0          0          0
STIN15808        166.76     0          0          0          0
STIN16097        90.30      0          0          0          0
STIN15755        173.87     0          0          0          0
STIN15811        183.64     0          0          0          0
STIN15806        158.25     0          0          0          0
STIN15818        216.60     0          0          0          0
STIN15817        203.51     0          0          0          0
STIN15856        27.62      0          0          0          0
STIN15852        51.77      0          0          0          0
STIN15851        29.85      0          0          0          0
STIN16012        49.38      0          0          0          0
STIN16056        31.51      0          0          0          0
STIN16057        29.93      0          0          0          0
STIN16098        87.11      0          0          0          0
STIN16100        61.47      0          0          0          0
STIN16207        119.16     0          0          0          0
STIN16027        18.54      0          0          0          0
STIN16087        18.00      0          0          0          0
STIN16072        93.13      0          0          0          0
STIN16068        23.42      0          0          0          0
STIN16084        121.95     0          0          0          0
STIN16119        181.98     0          0          0          0
STIN16123        204.76     0          0          0          0
STIN16088        150.38     0          0          0          0
STIN16053        39.49      0          0          0          0
STIN16052        40.32      0          0          0          0
STIN16208        145.56     0          0          0          0
STIN16101        66.50      0          0          0          0
STIN16118        194.26     0          0          0          0
STIN16194        45.00      0          0          0          0
STIN16103        29.78      0          0          0          0
STIN16115        25.41      0          0          0          0
STIN16189        158.45     0          0          0          0
STIN16184        151.77     0          0          0          0
STIN16185        151.26     0          0          0          0
STIN16195        64.85      0          0          0          0
STIN16198        80.79      0          0          0          0
STIN16199        73.07      0          0          0          0
STIN16197        79.06      0          0          0          0
STIN16170        136.00     0          0          0          0
STIN16114        119.56     0          0          0          0
STIN16071        129.46     0          0          0          0
STIN16113        133.40     0          0          0          0
STIN16107        107.77     0          0          0          0
STIN16108        107.04     0          0          0          0
STIN16110        121.20     0          0          0          0
STIN16070        134.00     0          0          0          0
STIN16111        131.00     0          0          0          0
STIN15807        166.54     0          0          0          0
STIN16041        89.84      0          0          0          0
STIN15757        162.00     0          0          0          0
STIN15758        161.32     0          0          0          0
STIN16126        140.00     0          0          0          0
STIN16168        194.61     0          0          0          0
STIN16102        67.21      0          0          0          0
STIN16180        51.28      0          0          0          0
STIN16179        57.03      0          0          0          0
STIN16117        174.74     0          0          0          0
STIN16050        61.90      0          0          0          0
STIN16045        90.55      0          0          0          0
STIN16044        90.95      0          0          0          0
STIN16182        144.73     0          0          0          0
STIN16183        146.99     0          0          0          0
STOU15814        181.75     0          0          0          0
STOU15813        181.95     0          0          0          0
STOU26965        22.00      0          0          0          0
STOU15856        27.09      0          0          0          0
STOU16112        91.27      0          0          0          0
STOU15811        188.06     0          0          0          0
STOU16070        90.79      0          0          0          0
STOU26959        68.97      0          0          0          0
STOU16106        123.82     0          0          0          0
STOU16104        135.70     0          0          0          0
STOU26942        150.51     0          0          0          0
STOU16110        131.72     0          0          0          0
STOU14804        112.50     0          0          0          0
STOU26948        52.00      0          0          0          0
STOU26954        85.44      0          0          0          0
STOU26958        85.97      0          0          0          0
STOU26955        87.69      0          0          0          0
STOU16082        40.04      0          0          0          0
STOU26941        151.01     0          0          0          0
STOU15259        59.28      0          0          0          0
STOU14812        101.18     0          0          0          0
STOU15753        169.92     0          0          0          0
STOU15817        201.73     0          0          0          0
STOU15812        202.02     0          0          0          0
STOU15807        148.16     0          0          0          0
STOU15806        153.21     0          0          0          0
STOU15852        24.26      0          0          0          0
STOU15808        164.40     0          0          0          0
STOU16023        50.21      0          0          0          0
STOU26957        85.15      0          0          0          0
STOU26956        88.12      0          0          0          0
STOU15809        162.25     0          0          0          0
STOU26961        56.72      0          0          0          0
STOU27030        41.69      0          0          0          0
STOU26962        65.80      0          0          0          0
STOU27036        119.47     0          0          0          0
STOU27048        43.86      0          0          0          0
STOU26964        29.35      0          0          0          0
STOU26973        30.36      0          0          0          0
STOU27044        158.79     0          0          0          0
STOU27031        48.67      0          0          0          0
STOU27035        147.00     0          0          0          0
STOU27021        134.17     0          0          0          0
STOU27051        76.54      0          0          0          0
STOU27049        64.00      0          0          0          0
STOU27053        73.89      0          0          0          0
STOU27052        81.31      0          0          0          0
STOU26960        62.35      0          0          0          0
STOU26970        133.28     0          0          0          0
STOU16111        128.14     0          0          0          0
STOU26969        104.33     0          0          0          0
STOU27065        133.16     0          0          0          0
STOU26972        117.86     0          0          0          0
STOU26971        122.64     0          0          0          0
STOU16086        28.60      0          0          0          0
STOU14803        107.69     0          0          0          0
STOU16114        39.31      0          0          0          0
STOU15851        23.89      0          0          0          0
STOU16113        90.39      0          0          0          0
STOU26981        125.91     0          0          0          0
STOU26976        180.04     0          0          0          0
STOU16109        126.66     0          0          0          0
STOU16115        38.25      0          0          0          0
STOU16107        134.20     0          0          0          0
STOU26953        115.26     0          0          0          0
STOU16057        78.57      0          0          0          0
STOU26963        66.12      0          0          0          0
STOU27017        189.42     0          0          0          0
STOU27033        47.08      0          0          0          0
STOU27032        55.09      0          0          0          0
STOU26946        39.76      0          0          0          0
STOU15754        161.89     0          0          0          0
STOU26977        202.75     0          0          0          0
STOU26975        160.88     0          0          0          0
STOU16080        61.27      0          0          0          0
STOU27061        119.33     0          0          0          0
STOU27062        119.22     0          0          0          0
STOU27034        144.92     0          0          0          0
STOU27037        119.98     0          0          0          0
STOU16071        89.00      0          0          0          0
GASTWN1000       153.93     0          0          0          0
GASTWN1001       149.46     0          0          0          0
GASTWN1002       125.68     0          0          0          0
GASTWN1003       76.26      0          0          0          0
GASTWN1004       38.53      0          0          0          0
GASTWN1005       90.23      0          0          0          0
GASTWN1006       93.74      0          0          0          0
GASTWN1008       152.62     0          0          0          0
GASTWN1014       32.70      0          0          0          0
GASTWN1015       29.00      0          0          0          0
GASTWN1016       27.34      0          0          0          0
GASTWN1022       171.71     0          0          0          0
GASTWN1026       146.01     0          0          0          0
GASTWN1029       33.00      0          0          0          0
GASTWN1035       175.23     0          0          0          0
GASTWN1038       152.95     0          0          0          0
GASTWN1043       165.33     0          0          0          0
GASTWN1044       163.78     0          0          0          0
GASTWN1045       154.59     0          0          0          0
GASTWN1048       103.76     0          0          0          0
GASTWN1049       33.49      0          0          0          0
GASTWN1051       164.92     0          0          0          0
GASTWN1052       169.10     0          0          0          0
GASTWN1063       155.00     0          0          0          0
GASTWN1064       159.61     0          0          0          0
GASTWN1069       96.61      0          0          0          0
GASTWN1072       42.55      0          0          0          0
GASTWN1073       35.50      0          0          0          0
GASTWN1076       98.81      0          0          0          0
GASTWN1086       38.16      0          0          0          0
GASTWN1087       176.29     0          0          0          0
GASTWN1090       155.37     0          0          0          0
GASTWN1100       36.15      0          0          0          0
GASTWN1103       102.02     0          0          0          0
GASTWN1113       99.85      0          0          0          0
GASTWN1114       99.97      0          0          0          0
GASTWN1118       157.16     0          0          0          0
GASTWN1119       151.74     0          0          0          0
GASTWN1120       153.35     0          0          0          0
GASTWN1122       155.02     0          0          0          0
GASTWN1123       157.89     0          0          0          0
GASTWN1125       101.34     0          0          0          0
GASTWN1126       163.53     0          0          0          0
GASTWN1127       160.00     0          0          0          0
GASTWN1129       164.00     0          0          0          0
GASTWN1130       191.99     0          0          0          0
GASTWN1140       131.29     0          0          0          0
GASTWN1142       133.02     0          0          0          0
GASTWN1144       159.27     0          0          0          0
GASTWN1148       137.11     0          0          0          0
GASTWN1149       146.74     0          0          0          0
GASTWN1150       158.84     0          0          0          0
GASTWN1153       164.68     0          0          0          0
GASTWN1155       157.43     0          0          0          0
GASTWN1159       80.44      0          0          0          0
GASTWN1160       58.03      0          0          0          0
GASTWN1162       38.09      0          0          0          0
GASTWN1163       42.82      0          0          0          0
GASTWN1164       45.17      0          0          0          0
GASTWN1165       43.53      0          0          0          0
GASTWN1166       48.87      0          0          0          0
GASTWN1167       45.76      0          0          0          0
GASTWN1168       56.81      0          0          0          0
GASTWN1169       49.00      0          0          0          0
GASTWN1170       121.10     0          0          0          0
GASTWN1172       125.22     0          0          0          0
GASTWN1173       127.46     0          0          0          0
GASTWN1174       138.85     0          0          0          0
GASTWN1175       139.91     0          0          0          0
GASTWN1176       147.17     0          0          0          0
GASTWN1178       133.19     0          0          0          0
GASTWN1179       133.13     0          0          0          0
GASTWN1180       127.57     0          0          0          0
GASTWN1181       147.90     0          0          0          0
GASTWN1182       150.04     0          0          0          0
GASTWN1190       23.53      0          0          0          0
GASTWN1214       117.68     0          0          0          0
GASTWN1228       59.23      0          0          0          0
GASTWN1229       63.19      0          0          0          0
GASTWN1237       150.74     0          0          0          0
GASTWN1238       146.73     0          0          0          0
GASTWN1243       204.04     0          0          0          0
GASTWN1247       22.77      0          0          0          0
GASTWN1248       20.27      0          0          0          0
GASTWN1251       119.24     0          0          0          0
GASTWN1252       116.86     0          0          0          0
GASTWN1253       93.01      0          0          0          0
GASTWN1257       46.23      0          0          0          0
GASTWN1260       48.21      0          0          0          0
GASTWN1261       51.85      0          0          0          0
GASTWN1283       182.59     0          0          0          0
GASTWN1303       37.00      0          0          0          0
GASTWN1306       39.48      0          0          0          0
GASTWN1307       38.52      0          0          0          0
GASTWN1308       125.17     0          0          0          0
GASTWN1312       30.00      0          0          0          0
GASTWN1313       107.50     0          0          0          0
GASTWN1314       111.08     0          0          0          0
GASTWN1316       133.24     0          0          0          0
GASTWN1322       35.35      0          0          0          0
GASTWN1326       51.90      0          0          0          0
GASTWN1328       30.00      0          0          0          0
GASTWN1329       104.36     0          0          0          0
GASTWN1330       106.82     0          0          0          0
GASTWN1331       19.07      0          0          0          0
GASTWN1334       117.77     0          0          0          0
GASTWN1335       116.91     0          0          0          0
GASTWN1354       53.45      0          0          0          0
GASTWN1368       102.00     0          0          0          0
GASTWN1369       137.31     0          0          0          0
GASTWN1371       66.64      0          0          0          0
GASTWN1372       199.00     0          0          0          0
GASTWN1373       181.62     0          0          0          0
GASTWN1377       102.70     0          0          0          0
GASTWN1378       105.00     0          0          0          0
GASTWN1379       116.44     0          0          0          0
GASTWN1381       23.78      0          0          0          0
GASTWN1387       61.00      0          0          0          0
GASTWN1396       4.61       0          0          0          0
GASTWN1423       141.88     0          0          0          0
GASTWN1424       144.56     0          0          0          0
GASTCE1000       100.12     0          0          0          0
GASTCE1001       136.83     0          0          0          0
GASTCE1002       164.63     0          0          0          0
GASTCE1004       84.82      0          0          0          0
GASTCE1005       185.39     0          0          0          0
GASTCE1006       118.64     0          0          0          0
GASTCE1007       174.88     0          0          0          0
GASTCE1010       110.52     0          0          0          0
GASTCE1011       112.90     0          0          0          0
GASTCE1012       107.41     0          0          0          0
GASTCE1013       110.69     0          0          0          0
GASTCE1014       113.23     0          0          0          0
GASTCE1015       164.99     0          0          0          0
GASTCE1016       166.43     0          0          0          0
GASTCE1017       95.65      0          0          0          0
GASTCE1018       114.66     0          0          0          0
GASTCE1019       105.33     0          0          0          0
GASTCE1020       50.46      0          0          0          0
GASTCE1021       90.41      0          0          0          0
GASTCE1022       121.25     0          0          0          0
GASTCE1023       124.34     0          0          0          0
GASTCE1024       143.86     0          0          0          0
GASTMH1001       98.89      0          0          0          0
GASTMH1004       64.34      0          0          0          0
GASTMH1005       22.52      0          0          0          0
GASTMH1006       26.24      0          0          0          0
GASTMH1007       37.03      0          0          0          0
GASTMH1010       124.38     0          0          0          0
GASTMH1011       51.00      0          0          0          0
GASTMH1012       102.03     0          0          0          0
GASTMH1013       152.09     0          0          0          0
GASTMH1014       75.00      0          0          0          0
GASTMH1015       167.90     0          0          0          0
GASTMH1016       18.83      0          0          0          0
GASTMH1017       18.45      0          0          0          0
GASTMH1019       105.11     0          0          0          0
GASTMH1020       19.37      0          0          0          0
GASTMH1021       21.93      0          0          0          0
GASTMH1023       27.48      0          0          0          0
GASTMH1024       125.97     0          0          0          0
GASTMH1025       27.05      0          0          0          0
GASTMH1027       113.36     0          0          0          0
GASTMH1028       203.82     0          0          0          0
GASTMH1030       18.01      0          0          0          0
GASTMH1031       38.31      0          0          0          0
GASTMH1034       135.24     0          0          0          0
GASTMH1035       30.20      0          0          0          0
GASTMH1036       68.50      0          0          0          0
GASTMH1038       64.64      0          0          0          0
STMH19186        4.94       0          0          0          0
GASTMH1040       112.84     0          0          0          0
GASTMH1041       145.63     0          0          0          0
GASTMH1042       202.21     0          0          0          0
STMH19184        60.84      0          0          0          0
GASTMH1045       120.61     0          0          0          0
GASTMH1046       127.02     0          0          0          0
GASTMH1047       91.22      0          0          0          0
GASTMH1050       132.13     0          0          0          0
GASTMH1053       31.00      0          0          0          0
GASTMH1054       131.26     0          0          0          0
GASTMH1055       62.23      0          0          0          0
GASTMH1059       135.00     0          0          0          0
GASTMH1060       115.03     0          0          0          0
GASTMH1061       19.01      0          0          0          0
GASTMH1063       106.63     0          0          0          0
GASTMH1065       45.93      0          0          0          0
GASTMH1066       30.00      0          0          0          0
GASTMH1067       131.04     0          0          0          0
VN3942           56.98      0          0          0          0
VN3638           91.41      0          0          0          0
GASTMH1071       181.07     0          0          0          0
GASTMH1072       90.92      0          0          0          0
GASTMH1073       84.55      0          0          0          0
GASTMH1074       128.92     0          0          0          0
GASTMH1075       24.84      0          0          0          0
GASTMH1076       33.44      0          0          0          0
GASTMH1077       19.07      0          0          0          0
GASTMH1078       24.18      0          0          0          0
GASTMH1079       27.81      0          0          0          0
GASTMH1080       54.00      0          0          0          0
GASTMH1081       39.06      0          0          0          0
GASTMH1082       18.30      0          0          0          0
GASTMH1085       19.72      0          0          0          0
GASTMH1086       18.10      0          0          0          0
GASTMH1087       39.06      0          0          0          0
GASTMH1088       56.12      0          0          0          0
GASTMH1089       17.92      0          0          0          0
GASTMH1093       4.00       0          0          0          0
GASTWN1426       100.11     0          0          0          0
GASTWN1430       148.28     0          0          0          0
GASTWN1432       40.04      0          0          0          0
GASTWN1433       45.23      0          0          0          0
GASTWN1434       22.47      0          0          0          0
GASTWN1435       55.56      0          0          0          0
GASTWN1439       84.84      0          0          0          0
GASTWN1440       84.86      0          0          0          0
GASTOU1001       59.90      0          0          0          0
GASTWN1441       119.17     0          0          0          0
GASTWN1442       90.20      0          0          0          0
GASTWN1444       39.33      0          0          0          0
2AD81            153.24     0          0          0          0
2AD109           152.83     0          0          0          0
2AD108B          150.70     0          0          0          0
2AD108A          150.72     0          0          0          0
3BD10A           137.05     0          0          0          0
3BD10B           136.69     0          0          0          0
4T5A             150.02     0          0          0          0
4T5B             150.03     0          0          0          0
4T8B             150.60     0          0          0          0
4T8A             150.58     0          0          0          0
3AD05            127.88     0          0          0          0
3AD30            127.44     0          0          0          0
3AD26A           124.95     0          0          0          0
3AD26B           124.92     0          0          0          0
5D3A             93.18      0          0          0          0
5T05A            92.79      0          0          0          0
5T05B            93.22      0          0          0          0
5D03A            92.38      0          0          0          0
5D03B            92.36      0          0          0          0
6D16A            39.40      0          0          0          0
6D16B            39.22      0          0          0          0
6D13B            40.00      0          0          0          0
8AD53A           121.11     0          0          0          0
8AD53B           121.04     0          0          0          0
8AD45B           121.47     0          0          0          0
8AD45A           121.39     0          0          0          0
8BD100B          91.17      0          0          0          0
8BD100A          91.23      0          0          0          0
8BD99B           90.94      0          0          0          0
8BD99A           91.02      0          0          0          0
10D73A           63.87      0          0          0          0
10D73B           62.94      0          0          0          0
10D83A           73.44      0          0          0          0
10D83B           73.19      0          0          0          0
12AD105A         124.61     0          0          0          0
12AD105B         124.97     0          0          0          0
12AD106B         124.77     0          0          0          0
12AD106A         124.78     0          0          0          0
3AT08A           124.51     0          0          0          0
3AT08B           124.70     0          0          0          0
Node2794         92.36      0          0          0          0
Node2795         40.00      0          0          0          0
Node2796         40.00      0          0          0          0
Node2797         121.61     0          0          0          0
Node2798         121.12     0          0          0          0
Node2799         91.19      0          0          0          0
Node2800         90.70      0          0          0          0
Node2801         73.45      0          0          0          0
Node2802         63.47      0          0          0          0
Node2803         124.89     0          0          0          0
Node2804         124.62     0          0          0          0
Node2805         153.05     0          0          0          0
Node2806         150.79     0          0          0          0
Node2807         128.06     0          0          0          0
Node2808         124.54     0          0          0          0
Node2809         124.99     0          0          0          0
Node2810         139.00     0          0          0          0
Node2811         149.97     0          0          0          0
Node2812         150.66     0          0          0          0
Node2813         92.85      0          0          0          0
D24A             182.50     0          0          0          0
D24B             182.51     0          0          0          0
D1B              161.76     0          0          0          0
D1A              161.76     0          0          0          0
MH2_A            114.00     0          0          0          0
MH2_B            114.00     0          0          0          0
DMH3A            45.03      0          0          0          0
DMH3B            45.03      0          0          0          0
DMH22A           40.63      0          0          0          0
DMH22B           40.58      0          0          0          0
D16A             26.37      0          0          0          0
D16B             26.37      0          0          0          0
Node2829         161.93     0          0          0          0
Node2830         45.35      0          0          0          0
Node2831         26.37      0          0          0          0
Node2832         41.05      0          0          0          0
STMH19185        8.70       0          0          0          0
GASTMH1095       30.00      0          0          0          0
GASTWN1445       127.57     0          0          0          0
STMH18174        27.60      0          0          0          0
D2B              130.37     0          0          0          0
D2A              130.37     0          0          0          0
DMH23            41.02      0          0          0          0
HW_3743STPI18408 40.64      0          0          0          0
STPI18136B       35.94      0          0          0          0
HW_31512A-WR-01  0          0          0          0          0
HW_36612A-SG-01  0          0          0          0          0
HW_31522A-SG-02  0          0          0          0          0
HW_31522A-WR-02  0          0          0          0          0
HW_57193B-WR-01  0          0          0          0          0
HW_57193B-SG-01  0          0          0          0          0
HW_35454-SG-02   0          0          0          0          0
HW_35454-WR-02   0          0          0          0          0
HW_35504-SG-01   0          0          0          0          0
HW_35504-WR-01   0          0          0          0          0
HW_31883A-WR-01  0          0          0          0          0
HW_36683A-SG-01  0          0          0          0          0
HW_29763A-SG-02  0          0          0          0          0
HW_29763A-WR-02  0          0          0          0          0
HW_32115-SG-01   0          0          0          0          0
HW_32115-WR-02   0          0          0          0          0
HW_32105-WR-01   0          0          0          0          0
HW_57565-SG-02   0          0          0          0          0
HW_57565-WR-03   0          0          0          0          0
HW_33616-SG-02   0          0          0          0          0
HW_33626-WR-01   0          0          0          0          0
HW_33626-SG-01   0          0          0          0          0
HW_37148A-SG-02  0          0          0          0          0
HW_37148A-WR-02  0          0          0          0          0
HW_37018A-SG-01  0          0          0          0          0
HW_37018A-WR-01  0          0          0          0          0
HW_37408B-WR-01  0          0          0          0          0
HW_37408B-SG-01  0          0          0          0          0
HW_30458B-WR-02  0          0          0          0          0
HW_30458B-SG-02  0          0          0          0          0
HW_353410-SG-01  0          0          0          0          0
HW_353410-WR-01  0          0          0          0          0
HW_297710-WR-02  0          0          0          0          0
HW_297710-SG-02  0          0          0          0          0
HW_385612A-WR-01 0          0          0          0          0
HW_385612A-SG-01 0          0          0          0          0
HW_385412A-SG-02 0          0          0          0          0
HW_385412A-WR-02 0          0          0          0          0
HW_34893A-SG-03  0          0          0          0          0
HW_34893A-WR-03  0          0          0          0          0

[OUTFALLS]
;;Name           Elev       Type       Stage      Gated
;;-------------- ---------- ---------- ---------- -----
STMH19212        50.98      FREE                  NO

[STORAGE]
;;Name           Elev       MaxDepth   InitDepth  Shape      Curve/Params
;;-------------- ---------- ---------- ---------- ---------- ----------
POND2A           149.90     10.00      0          FUNCTIONAL 457.91 0          0
POND3B           135.00     10.00      0          FUNCTIONAL 140.92 0          0
POND4            146.00     10.00      0          FUNCTIONAL 60.42 0          0
POND3A           122.50     10.00      0          FUNCTIONAL 112.60 0          0
POND5            91.30      10.00      0          FUNCTIONAL 225.31 0          0
POND6            38.00      10.00      0          FUNCTIONAL 180.12 0          0
POND8A           118.20     10.00      0          FUNCTIONAL 575.77 0          0
POND8B           87.00      10.00      0          FUNCTIONAL 325.96 0          0
POND10           61.31      10.00      0          FUNCTIONAL 371.17 0          0
POND12A          118.90     10.00      0          FUNCTIONAL 82.57 0          0

[CONDUITS]
;;Name           From             To               Length     Roughness  InOffset   OutOffset  InitFlow   MaxFlow
;;-------------- ---------------- ---------------- ---------- ---------- ---------- ---------- ---------- ----------
3676STPI19262    STMH18893        STMH18894        97.60      0.0100     62.19      56.99      0          0
3147STPI18361    STMH18199        STMH18200        11.80      0.0100     160.82     160.29     0          0
3765STPI19593    STMH19083        STMH19101        28.20      0.0150     126.05     123.65     0          0
3962STPI15854    STIN15851        STMH15855        9.00       0.0100     29.34      28.25      0          0
3753STPI18576    STMH19065        STMH18386        48.20      0.0150     88.75      88.52      0          0
3909STPI18202    STCE15895        STMH18123        8.00       0.0150     147.18     146.35     0          0
3703STPI18961    STMH18672        STMH18673        36.50      0.0150     124.05     121.85     0          0
3858STPI19598    STMH19107        STMH19106        25.90      0.0100     150.52     146.95     0          0
2988STPI19644    STMH19148        STMH19142        60.00      0.0100     40.88      39.08      0          0
3511STPI19399    STMH18983        STMH18903        23.00      0.0150     134.93     132.42     0          0
3586STPI18557    STMH18372        STMH18371        8.80       0.0150     71.66      71.17      0          0
3754STPI19549    STMH19061        GASTMH1001       2.70       0.0100     95.31      94.47      0          0
3479STPI18309    STMH18033        STMH18031        41.14      0.0150     38.35      37.93      0          0
3275STPI15844    STMH15829        STMH15826        40.50      0.0140     200.95     198.90     0          0
3735STPI19300    STMH18927        STMH19175        35.40      0.0100     152.24     150.09     0          0
3839STPI19073    STMH18768        STMH18767        61.90      0.0150     137.69     130.75     0          0
3324STPI18915    STMH18635        STMH18636        68.90      0.0150     96.07      90.88      0          0
3232STPI19304    STMH18931        STMH18930        39.20      0.0100     134.10     131.43     0          0
3572STPI15882    STMH15865        STMH15864        71.70      0.0150     65.61      61.03      0          0
3227STPI15851    STMH15851        STMH15852        46.35      0.0150     24.86      23.17      0          0
3157STPI18724    STMH18492        STOU26942        2.70       0.0150     149.05     149.01     0          0
3354STPI18178    STMH17985        STMH17986        5.70       0.0150     134.27     133.86     0          0
3842STPI18933    STMH18767        STMH18646        12.00      0.0100     130.67     130.19     0          0
3625STPI19014    STMH18718        STMH18717        44.50      0.0150     167.55     164.00     0          0
2964STPI18994    STMH18702        STOU26972        7.00       0.0150     117.00     116.84     0          0
3300STPI18285    STMH18005        STMH18002        12.10      0.0140     57.18      56.95      0          0
3530STPI18543    STMH18357        STMH18358        109.70     0.0100     78.10      73.84      0          0
3228STPI15852    STMH15852        STOU15851        30.60      0.0150     23.17      22.90      0          0
3919STPI18725    STCE15965        STMH18493        7.70       0.0100     179.89     179.65     0          0
3226STPI18956    STMH18668        STMH18667        37.50      0.0100     110.14     107.14     0          0
3757STPI19545    STMH19058        STMH19059        60.00      0.0100     109.30     103.28     0          0
3834STPI18824    STMH18564        STOU26955        75.00      0.0150     87.63      86.19      0          0
3004STPI15426    STMH15417        GASTMH1004       55.58      0.0140     63.87      63.68      0          0
3078STPI18162    STMH17964        STMH17965        58.90      0.0150     147.74     144.71     0          0
5775STPI18985    8AD45B           STMH18698        23.60      0.0150     119.56     117.85     0          0
3659STPI18508    STMH18324        STMH18325        38.09      0.0100     107.49     105.01     0          0
3499STPI18250    STMH18152        STMH18151        96.30      0.0100     131.91     130.42     0          0
3495STPI18234    STMH17995        STMH17998        46.30      0.0150     128.84     125.95     0          0
3219STPI18948    STMH18658        STMH18659        26.90      0.0100     105.21     105.00     0          0
3753STPI18579    STMH19065        STCE15929        14.70      0.0150     88.66      88.34      0          0
3386STPI18371    STMH18209        STMH18210        52.80      0.0150     172.93     167.88     0          0
3746STPI18419    STMH18250        STMH18252        3.45       0.0100     40.10      39.86      0          0
3786STPI19280    STMH18910        STMH18909        17.80      0.0150     159.46     157.66     0          0
3885STPI19599    STCO20025        STMH19108        30.50      0.0100     143.90     139.41     0          0
3036STPI18732    STMH18499        STMH18500        85.00      0.0100     66.18      65.34      0          0
3540STPI19339    STMH18954        STMH18955        50.50      0.0100     49.62      48.08      0          0
3831STPI18496    STMH18316        STOU16112        7.70       0.0150     91.26      90.40      0          0
3218STPI18947    STMH18657        STMH18658        32.20      0.0100     105.51     105.22     0          0
3076STPI18149    STMH17957        STMH17972        40.90      0.0150     157.50     154.26     0          0
3438STPI19313    STMH18938        GASTMH1005       7.50       0.0240     21.35      21.08      0          0
3945STPI15893    STIN15855        STMH15877        37.60      0.0100     78.76      77.53      0          0
3767STPI19578    STMH19085        STMH19084        39.30      0.0150     128.35     126.58     0          0
3567STPI15861    STMH15873        STMH15857        89.50      0.0100     38.52      31.35      0          0
3282STPI18928    STMH18643        STMH18641        65.10      0.0150     126.42     120.38     0          0
5807STPI19611    12AD105B         STMH19117        3.60       0.0100     121.81     121.48     0          0
3726STPI19291    STMH18919        STMH18911        24.80      0.0100     163.16     161.76     0          0
3204STPI19090    STMH18782        STMH18781        29.68      0.0100     114.56     112.96     0          0
4218STPI18917    GASTCE1000       STMH18635        19.90      0.0150     98.46      96.56      0          0
3928STPI18688    STCE15959        STMH18466        10.30      0.0150     117.80     117.66     0          0
3253STPI18904    STMH18626        STMH18627        98.31      0.0100     53.78      49.84      0          0
5712STPI18722    2AD108A          STMH18492        18.50      0.0150     149.78     149.06     0          0
3820STPI15437    STMH15443        STMH15426        72.50      0.0150     59.82      59.16      0          0
3234STPI19308    STMH18935        STMH18934        95.20      0.0100     154.87     145.55     0          0
3581STPI15856    STMH15854        GASTMH1006       15.00      0.0150     25.14      24.84      0          0
3697STPI18975    STMH18689        STMH18688        34.20      0.0100     119.39     116.84     0          0
3738STPI19294    STMH18922        STMH18921        67.90      0.0100     154.50     148.46     0          0
3747STPI18405    STMH18238        GASTMH1007       5.82       0.0100     34.00      33.91      0          0
3770STPI19581    STMH19088        STMH19087        28.90      0.0150     135.40     134.10     0          0
3231STPI19396    STMH18982        STMH18981        58.30      0.0150     129.21     124.82     0          0
3456STPI18077    STMH17857        STMH17859        90.27      0.0150     86.46      86.45      0          0
3853STPI19618    STMH19121        STOU27062        11.50      0.0150     117.63     117.30     0          0
2968STPI19682    STMH19176        STMH19177        61.10      0.0140     64.69      64.33      0          0
3924STPI18600    STCE15942        STMH18245        5.85       0.0100     45.20      45.18      0          0
5762STPI18318    6D16B            STMH18029        17.65      0.0150     36.96      36.75      0          0
4219STPI19059    GASTCE1001       STMH18759        9.60       0.0100     136.08     134.79     0          0
4220STPI19282    GASTCE1002       STMH18912        4.20       0.0150     161.12     160.84     0          0
3638STPI18983    STMH18696        STMH18671        9.90       0.0100     125.01     124.87     0          0
3907STPI15863    STCE15852        STMH15873        6.70       0.0140     38.78      38.53      0          0
3917STPI18270    STCE15908        STMH18156        10.68      0.0100     122.20     120.01     0          0
3158STPI18421    STMH18253        STMH18254        56.35      0.0100     38.22      37.48      0          0
3727STPI19285    STMH18914        STMH18913        24.10      0.0100     138.23     135.34     0          0
3537STPI18650    STMH18820        STMH18438        26.90      0.0150     90.25      88.94      0          0
3667STPI18446    STMH18275        STMH18276        34.95      0.0100     20.41      20.02      0          0
5817STPI18245    3AT08B           GASTMH1010       3.30       0.0150     123.10     122.50     0          0
3081STPI18156    STMH17973        STMH17972        29.10      0.0100     154.77     154.36     0          0
3942STPI17868    STIN16055        STMH17950        14.10      0.0100     29.80      28.80      0          0
3138STPI18272    STMH18165        STMH18167        74.50      0.0150     132.30     126.33     0          0
3702STPI18957    STMH18669        STMH18667        56.40      0.0100     111.48     107.17     0          0
3829STPI18248    STMH18149        STOU16106        13.27      0.0150     122.80     121.47     0          0
5870STPI18474    MH2_A            STMH18300        3.99       0.0150     111.33     111.33     0          0
5795STPI18846    10D73A           STMH18576        5.40       0.0150     60.88      60.60      0          0
3525STPI18562    STMH18373        STMH18355        58.90      0.0150     75.20      72.74      0          0
3850STPI18687    STMH19115        STMH18464        18.72      0.0150     117.15     116.86     0          0
3584STPI19297    STMH18925        STMH18924        62.10      0.0100     148.16     142.36     0          0
3626STPI19159    STMH18829        STMH18830        4.75       0.0100     198.25     197.88     0          0
3007STPI15451    STMH15434        STMH15404        37.65      0.0140     67.99      65.08      0          0
3824STPI15036    STMH14983        STMH14987        41.00      0.0100     111.67     111.02     0          0
3146STPI18253    STMH18154        STMH18292        5.90       0.0150     117.64     117.58     0          0
3347STPI18219    STMH18139        STMH19017        29.98      0.0100     136.43     133.80     0          0
3636STPI18987    STMH18699        STMH18691        9.20       0.0150     114.82     113.73     0          0
3903STPI18588    STCE15933        STMH18267        11.20      0.0100     26.87      26.72      0          0
3206STPI14581    STMH15833        STOU15811        16.28      0.0150     187.08     186.58     0          0
3118STPI18323    STMH18026        STMH18028        50.07      0.0100     47.50      44.45      0          0
3633STPI19391    STMH18978        STMH18977        8.70       0.0150     117.87     117.83     0          0
3812STPI18806    STMH18549        STMH18548        30.00      0.0100     66.31      64.12      0          0
3880STPI18620    STCO16128        STMH18408        12.00      0.0100     116.93     116.81     0          0
3183STPI18424    STMH18255        STMH18256        49.00      0.0150     20.52      18.51      0          0
3548STPI19410    STMH18991        STMH18990        8.80       0.0150     146.58     146.54     0          0
3816STPI19230    STMH18865        STMH18868        69.80      0.0150     81.76      79.03      0          0
3239STPI15430    STMH15421        STMH15436        43.00      0.0140     72.90      71.55      0          0
3570STPI15890    STMH15877        STMH15867        39.70      0.0100     77.41      75.00      0          0
3972STPI18423    STIN16068        STMH18255        9.95       0.0100     21.85      20.70      0          0
3490STPI18137    STMH17950        STMH17951        56.45      0.0100     28.72      27.60      0          0
2978STPI18684    STMH18464        STMH18463        8.70       0.0150     116.80     116.68     0          0
3899STPI18944    STCO19975        STMH18654        16.10      0.0100     127.60     127.30     0          0
3851STPI19600    STMH19108        STMH19097        24.70      0.0100     139.38     136.84     0          0
3844STPI19632    STMH19135        STMH18915        81.90      0.0100     142.42     140.78     0          0
3336STPI19590    STMH19098        STMH19099        123.90     0.0100     131.64     124.84     0          0
3542STPI19338    STMH18953        GASTMH1011       7.83       0.0100     49.40      48.68      0          0
4249STPI18470    GASTMH1012       STMH18297        22.29      0.0150     98.00      96.20      0          0
3095STPI18205    STMH18128        STMH18129        10.30      0.0150     139.13     138.17     0          0
3925STPI18580    STCE15927        STMH18381        14.90      0.0150     88.61      87.22      0          0
3315STPI18532    STMH18345        STMH18009        39.40      0.0100     64.77      63.55      0          0
3210STPI18488    STMH18307        STMH18311        5.60       0.0150     91.90      91.73      0          0
3196STPI18476    STMH18301        STMH18302        27.69      0.0150     110.95     109.81     0          0
3911STPI18303    STCE15912        STMH18021        6.00       0.0100     47.76      47.30      0          0
3292STPI18067    STMH17855        STMH17911        13.70      0.0140     84.41      77.60      0          0
3030STPI15850    STMH15871        STMH15878        73.70      0.0150     33.00      26.75      0          0
3280STPI18914    STMH18634        STMH18635        83.90      0.0150     101.83     96.21      0          0
3073STPI18180    STMH17978        STMH17988        68.90      0.0150     142.20     137.83     0          0
3329STPI18979    STMH18693        STMH18692        13.30      0.0100     115.09     114.28     0          0
3207STPI18486    STMH18308        STMH18309        12.00      0.0150     89.73      88.88      0          0
3378STPI19392    STMH18979        STMH18978        15.20      0.0150     120.28     117.91     0          0
4250STPI19531    GASTMH1013       STMH19046        14.28      0.0150     148.45     147.21     0          0
3302STPI18294    STMH18014        STMH18013        12.50      0.0100     71.34      70.83      0          0
3236STPI19307    STMH18934        STMH18933        112.00     0.0100     145.52     135.50     0          0
3836STPI15795    STMH15784        STOU15754        5.80       0.0140     159.51     158.50     0          0
3323STPI18567    STMH18377        STMH18376        31.20      0.0150     89.42      85.10      0          0
4221STPI19207    GASTCE1004       STMH18865        9.52       0.0100     82.23      82.13      0          0
3249STPI18905    STMH18625        STMH18627        40.55      0.0100     51.90      49.83      0          0
3935STPI19060    GASTCE0004       STMH18758        9.00       0.0100     125.16     124.88     0          0
2993STPI18434    STMH19144        STMH18258        2.70       0.0100     33.70      33.57      0          0
4222STPI19022    GASTCE1005       STMH18721        11.79      0.0100     184.94     184.62     0          0
3310STPI18538    STMH18351        STMH18352        25.10      0.0100     82.00      80.91      0          0
3968STPI19617    STIN16207        STMH19121        3.60       0.0100     117.90     117.78     0          0
3484STPI18271    STMH18167        STMH18166        44.60      0.0150     126.28     122.78     0          0
3971STPI18498    STIN16072        STMH18317        10.00      0.0150     90.05      89.84      0          0
3691STPI18661    STMH18665        STMH18445        11.35      0.0100     102.95     102.75     0          0
3035STPI18733    STMH18500        STMH18229        111.50     0.0100     65.33      59.60      0          0
3348STPI19496    STMH19018        STMH19017        28.35      0.0150     134.87     133.81     0          0
3369STPI19064    STMH18761        STMH18753        46.24      0.0100     117.93     113.30     0          0
3756STPI19546    STMH19059        STMH19060        32.30      0.0100     103.28     101.33     0          0
3808STPI18225    STMH18142        STMH18155        35.90      0.0150     124.86     122.86     0          0
3427STPI17696    STMH17581        STMH17582        51.36      0.0150     42.85      42.80      0          0
4223STPI19387    GASTCE1006       STMH18975        8.20       0.0150     116.58     116.42     0          0
3569STPI15849    STMH15878        STOU15856        31.60      0.0150     26.74      25.78      0          0
3297STPI18066    STMH17854        STMH17855        14.75      0.0140     85.35      84.99      0          0
3116STPI18302    STMH18021        STMH18022        21.32      0.0100     46.36      45.08      0          0
3720STPI19382    STMH18973        STMH18972        19.10      0.0150     105.19     103.12     0          0
3389STPI18377    STMH18215        STMH18216        8.10       0.0150     155.13     154.40     0          0
3612STPI19094    STMH18786        STMH18785        8.00       0.0100     120.51     119.90     0          0
3920STPI18656    STCE15950        STMH18442        11.35      0.0150     92.78      91.41      0          0
3565STPI15812    STMH15808        STOU15807        27.00      0.0150     148.23     147.34     0          0
3127STPI18484    STMH18306        STMH18307        5.20       0.0150     91.95      91.90      0          0
3351STPI18165    STMH17976        STMH17980        15.50      0.0150     141.67     140.91     0          0
3454STPI18134    STMH17946        STMH18585        26.73      0.0150     39.75      39.04      0          0
3025STPI15836    STMH15818        STMH15817        45.50      0.0140     190.27     185.38     0          0
3797STPI19329    STMH18947        STMH15877        62.49      0.0100     80.85      77.45      0          0
3632STPI19389    STMH18976        STOU27037        14.30      0.0150     119.03     118.85     0          0
3287STPI18755    STMH18242        STOU26946        0.86       0.0100     39.24      38.65      0          0
3823STPI15035    STMH14984        STMH14983        39.75      0.0100     113.11     111.73     0          0
4251STPI19573    GASTMH1014       STMH19081        27.74      0.0100     72.59      70.44      0          0
3684STPI18166    STMH17977        STMH17978        17.60      0.0150     143.02     142.23     0          0
3325STPI18916    STMH18636        STMH18821        16.30      0.0150     90.88      90.50      0          0
4224STPI19017    GASTCE1007       STMH18719        11.78      0.0100     171.88     171.55     0          0
3796STPI19324    STMH18942        STMH18943        71.77      0.0100     76.94      73.75      0          0
3932STPI18500    GASTCE0001       STMH18319        46.37      0.0150     115.86     114.71     0          0
5786STPI18826    8BD99A           STOU26957        68.90      0.0150     87.22      83.81      0          0
3879STPI18316    STCO16086        STMH18028        22.88      0.0100     45.78      43.24      0          0
3316STPI18531    STMH18344        STMH18345        48.00      0.0100     70.25      64.80      0          0
3376STPI18546    STMH18360        STMH18361        8.70       0.0150     72.11      71.84      0          0
2997STPI19661    STMH19164        STMH19165        97.00      0.0100     53.95      49.10      0          0
3781STPI19649    STMH19152        STMH18781        49.41      0.0100     116.27     113.37     0          0
3846STPI19637    STMH19140        STMH19168        69.69      0.0100     46.74      43.95      0          0
3165STPI18374    STMH18212        STMH18213        32.90      0.0150     162.17     159.13     0          0
5741STPI18244    3AD26B           STMH18147        5.00       0.0150     123.34     123.20     0          0
3126STPI18517    STMH18334        STMH18306        42.84      0.0100     92.56      91.97      0          0
3510STPI18157    STMH17969        STMH17970        49.00      0.0100     159.29     155.39     0          0
3455STPI18322    STMH18036        STMH18027        35.99      0.0150     38.41      38.15      0          0
3480STPI18607    STMH18034        STOU16114        7.49       0.0150     37.23      37.14      0          0
3094STPI18204    STMH18121        STMH18128        26.70      0.0150     141.01     139.13     0          0
5816STPI18246    3AT08A           STMH18150        37.40      0.0150     123.12     119.83     0          0
3404STPI19040    STMH18741        STMH18717        46.65      0.0100     167.61     164.01     0          0
3793STPI19182    STMH18845        STMH18846        91.70      0.0150     64.95      60.35      0          0
3762STPI19569    STMH19079        GASTMH1015       28.90      0.0150     162.24     161.96     0          0
3233STPI19306    STMH18933        STMH18932        13.50      0.0100     135.38     134.93     0          0
3595STPI18665    STMH18448        STMH18447        21.00      0.0100     111.44     110.99     0          0
3272STPI18923    STMH18640        STMH18639        33.40      0.0150     110.07     108.09     0          0
3596STPI18693    STMH18470        STMH18469        56.90      0.0150     127.49     126.32     0          0
3380STPI19393    STMH18980        STMH18979        62.40      0.0150     124.56     120.31     0          0
3115STPI18143    STMH17952        GASTMH1053       3.56       0.0150     24.76      24.50      0          0
4253STPI18426    GASTMH1016       GASTMH1017       35.43      0.0150     16.13      14.60      0          0
3102STPI18554    STMH18369        STMH18336        41.20      0.0150     66.86      62.50      0          0
3433STPI18676    STMH18457        STMH18456        18.60      0.0150     113.90     113.77     0          0
3849STPI19636    STMH19139        STMH19140        60.00      0.0100     49.29      46.89      0          0
3242STPI15422    STMH15416        STMH15405        65.50      0.0100     86.18      82.76      0          0
3889STPI15431    STCO15255        STMH15421        56.10      0.0140     75.09      72.93      0          0
3827STPI15800    STMH15778        STMH15784        34.14      0.0150     160.19     159.51     0          0
3472STPI18208    STMH18130        STMH18131        106.20     0.0100     145.51     139.34     0          0
3254STPI18906    STMH18627        STMH18628        3.19       0.0100     49.75      49.63      0          0
3067STPI18239    STMH18143        STMH18144        40.70      0.0100     125.67     124.59     0          0
3057STPI18074    STMH17858        STMH17861        132.06     0.0150     84.00      83.86      0          0
3927STPI18694    STCE15962        STMH18470        23.70      0.0150     129.02     127.66     0          0
3420STPI18283    STMH18003        STMH18004        30.60      0.0150     58.67      57.96      0          0
3340STPI19603    STMH19105        STMH19110        33.40      0.0100     132.43     127.95     0          0
3353STPI18173    STMH17980        STMH17981        26.50      0.0150     140.89     140.16     0          0
3100STPI19055    STMH18754        STMH18753        29.94      0.0100     116.14     113.37     0          0
5761STPI18609    6D16A            STMH17947        19.48      0.0150     37.32      36.90      0          0
3182STPI18132    STMH17944        STMH17945        82.00      0.0150     48.29      42.95      0          0
3003STPI15429    STMH15420        STMH15419        47.00      0.0140     71.27      68.79      0          0
3274STPI14576    STMH15830        STMH18305        26.74      0.0140     130.46     130.14     0          0
3321STPI18545    STMH18359        STMH18370        12.20      0.0100     72.42      70.49      0          0
3686STPI19232    STMH18870        STMH18868        59.02      0.0100     79.43      79.15      0          0
3743STPI18408    HW_3743STPI18408 STMH18240        45.86      0.0100     40.64      39.53      0          0
3230STPI19303    STMH18930        STOU27065        10.00      0.0100     132.24     131.66     0          0
3113STPI18597    STMH18392        STMH18391        28.89      0.0100     168.54     164.56     0          0
3763STPI19567    STMH19077        STMH19078        14.30      0.0150     163.09     162.95     0          0
3551STPI19530    STMH19046        STMH19045        34.69      0.0150     147.18     143.48     0          0
3515STPI18462    STMH18292        STMH18406        54.41      0.0150     117.58     114.82     0          0
3065STPI18129    STMH17941        GASTMH1073       52.58      0.0150     81.17      77.88      0          0
3390STPI18376    STMH18214        STMH18215        8.30       0.0150     156.96     155.15     0          0
2970STPI19551    STMH19063        STMH19064        30.40      0.0100     91.30      88.90      0          0
3085STPI18174    STMH17981        STMH17982        27.00      0.0150     140.11     139.40     0          0
3053STPI18075    STMH17861        VN3638           12.96      0.0150     83.84      83.79      0          0
3673STPI19181    STMH18844        STMH18788        16.20      0.0100     117.75     117.30     0          0
3709STPI18973    STMH18687        STMH18661        14.00      0.0100     112.43     112.09     0          0
5708STPI18718    2AD109           STMH18489        61.90      0.0150     150.14     149.79     0          0
3344STPI19500    STMH19021        STCE15909        18.45      0.0100     130.24     129.98     0          0
3096STPI18199    STMH18122        STMH18123        31.40      0.0150     147.38     146.03     0          0
3680STPI19231    STMH18868        STMH18869        18.52      0.0150     78.96      78.26      0          0
3107STPI18468    STMH18296        GASTMH1019       105.75     0.0150     105.07     100.96     0          0
3631STPI19013    STMH18717        STMH18716        62.20      0.0150     163.97     159.91     0          0
3497STPI18277    STMH18170        STMH17998        3.36       0.0150     126.89     126.03     0          0
2967STPI19690    STMH19181        STMH19182        137.20     0.0150     59.28      58.46      0          0
3174STPI18428    STMH18268        STMH18267        67.05      0.0100     28.32      26.90      0          0
3755STPI19548    STMH19060        STMH19061        71.70      0.0100     101.28     95.35      0          0
3261STPI15452    STMH15409        STMH15417        66.00      0.0150     64.18      63.91      0          0
3352STPI18164    STMH17966        STMH17976        25.00      0.0150     143.77     141.70     0          0
3700STPI18954    STMH18666        STMH18665        27.80      0.0100     106.60     103.09     0          0
3675STPI19202    STMH18860        STMH18861        23.60      0.0150     66.42      66.30      0          0
3908STPI15860    STCE15851        STMH15856        1.75       0.0140     31.34      31.12      0          0
4256STPI18340    GASTMH1020       GASTMH1021       80.00      0.0140     16.01      19.55      0          0
3054STPI18679    STMH18902        STMH18459        12.60      0.0150     115.81     115.08     0          0
3444STPI18526    STMH18340        STMH18341        60.00      0.0100     78.97      77.63      0          0
3597STPI18653    STMH18440        STMH18562        10.00      0.0100     88.31      88.01      0          0
3417STPI18422    STMH18254        STMH18237        51.45      0.0100     37.41      36.02      0          0
3098STPI18565    STMH18376        STMH18375        20.10      0.0150     85.08      83.74      0          0
2960STPI18669    STMH18453        STMH18452        13.50      0.0150     112.47     111.86     0          0
3960STPI15855    STIN15856        GASTMH1023       14.60      0.0150     26.12      25.46      0          0
3264STPI18678    STMH18459        STMH18458        44.00      0.0150     114.91     114.38     0          0
3575STPI15879    STMH15874        STMH15875        3.80       0.0100     29.65      29.33      0          0
3979STPI19676    STIN16208        STMH18916        4.00       0.0100     145.11     144.01     0          0
3419STPI18518    STMH18330        STMH18331        12.95      0.0100     99.69      98.68      0          0
3046STPI17688    STMH17576        STMH17573        7.70       0.0100     49.04      49.00      0          0
3188STPI18241    STMH17997        STMH18146        6.10       0.0150     125.20     124.95     0          0
3372STPI19058    STMH18759        STMH18758        105.92     0.0100     134.66     124.49     0          0
3521STPI18575    STMH18386        STMH18385        8.20       0.0140     88.50      88.36      0          0
3186STPI18448    STMH18277        STMH18278        7.40       0.0100     32.89      32.85      0          0
3422STPI19067    STMH18763        STMH18762        38.48      0.0100     123.10     121.52     0          0
3216STPI18945    STMH18655        STMH18656        35.90      0.0100     109.85     106.85     0          0
3627STPI19026    STMH18729        STMH18829        98.20      0.0100     205.02     198.27     0          0
3412STPI19033    STMH18735        STMH18732        76.95      0.0150     185.33     177.41     0          0
2991STPI19640    STMH19143        STMH19144        25.40      0.0100     36.06      33.77      0          0
3859STPI19615    STMH19119        STMH19120        8.80       0.0100     121.26     120.53     0          0
3669STPI19204    STMH18862        STMH18863        22.10      0.0150     65.90      65.76      0          0
3830STPI18314    STMH18037        STMH18034        83.19      0.0150     37.50      37.23      0          0
3270STPI18936    STMH18648        STMH18682        42.10      0.0150     127.98     126.19     0          0
3865STPI19602    STMH19109        STMH19105        26.40      0.0100     135.63     132.46     0          0
3162STPI18170    STMH18221        STMH18195        12.70      0.0150     149.76     149.71     0          0
3449STPI18527    STMH18342        STMH18341        95.30      0.0100     79.74      77.64      0          0
3852STPI19612    STMH19117        STMH19118        9.70       0.0100     121.45     118.14     0          0
3693STPI18958    STMH18645        STMH18670        19.50      0.0150     126.44     126.27     0          0
2994STPI19643    STMH19147        STMH19148        64.00      0.0100     44.45      40.93      0          0
3124STPI18513    STMH18325        STMH18331        137.91     0.0100     105.01     97.93      0          0
3620STPI19036    STMH18737        STMH18736        42.61      0.0100     203.62     197.08     0          0
3063STPI18443    STMH18272        STMH18273        79.55      0.0100     36.64      33.90      0          0
3068STPI18160    STMH17968        STMH17959        25.20      0.0100     148.82     147.13     0          0
3307STPI18539    STMH18352        STMH18353        92.20      0.0100     80.89      75.82      0          0
4259STPI19095    GASTMH1024       STMH18786        22.50      0.0100     124.86     120.58     0          0
3281STPI18926    STMH18641        GASTMH1045       11.33      0.0150     120.15     119.19     0          0
3122STPI18413    STMH18245        STMH18246        35.80      0.0100     45.07      43.25      0          0
3647STPI18844    STMH18578        STMH18579        15.00      0.0150     56.48      56.26      0          0
3955STPI15798    STIN15755        STMH15776        48.16      0.0150     170.16     169.19     0          0
3623STPI19160    STMH18830        STMH18728        8.05       0.0100     197.06     196.52     0          0
3719STPI19388    STMH18977        STMH18975        42.20      0.0150     117.76     116.42     0          0
3191STPI19267    STMH18897        STMH18898        22.00      0.0100     124.54     122.03     0          0
3474STPI18154    STMH17975        STMH17977        68.70      0.0100     145.86     143.22     0          0
3108STPI18300    STMH18019        STMH18020        88.14      0.0100     50.47      46.77      0          0
3965STPI18141    STIN16057        STMH17951        11.40      0.0100     29.30      27.60      0          0
3862STPI19613    STMH19118        STOU27061        2.20       0.0100     118.11     117.90     0          0
3159STPI18369    STMH18207        STMH18208        13.00      0.0150     176.86     175.63     0          0
4225STPI19386    GASTCE1010       STMH18973        13.30      0.0150     105.53     105.29     0          0
3898STPI18989    STCO19979        STMH18700        19.13      0.0100     123.22     120.61     0          0
3952STPI18610    STIN16077        STOU16115        31.72      0.0150     36.95      36.87      0          0
3582STPI15857    STMH15853        GASTMH1023       14.20      0.0100     26.04      25.46      0          0
3795STPI19184    STMH18847        STMH18848        25.84      0.0150     55.48      55.10      0          0
3775STPI19585    STMH19092        STMH19091        40.30      0.0100     144.28     141.27     0          0
3252STPI18907    STMH18628        STMH18629        29.60      0.0100     49.58      47.95      0          0
3713STPI18969    STMH18684        STMH18683        60.60      0.0150     104.44     100.00     0          0
3135STPI18222    STMH18141        STMH19024        30.29      0.0100     129.57     127.78     0          0
3238STPI15434    STMH15425        STOU15259        23.27      0.0100     58.96      58.71      0          0
3857STPI19608    STMH19113        STMH19114        27.90      0.0150     122.05     117.93     0          0
3330STPI18978    STMH18692        STMH18691        5.60       0.0100     114.17     113.73     0          0
3334STPI19595    STMH19103        STMH19104        67.60      0.0100     137.08     133.70     0          0
3087STPI18176    STMH17983        STMH17984        26.40      0.0150     137.50     135.99     0          0
3904STPI18587    STCE15932        STMH18269        10.95      0.0100     30.39      30.22      0          0
3707STPI18955    STMH18667        STMH18666        12.40      0.0100     107.03     106.74     0          0
3333STPI18674    STMH18691        STMH18454        12.60      0.0100     113.56     112.73     0          0
3240STPI15428    STMH15419        STMH15418        52.80      0.0140     68.78      68.15      0          0
3161STPI18373    STMH18211        STMH18212        41.90      0.0150     163.93     162.19     0          0
3888STPI19299    STCO19990        STMH18926        16.80      0.0100     162.16     159.80     0          0
2996STPI19664    STMH19169        STMH19168        13.00      0.0100     44.20      44.02      0          0
3350STPI15432    STMH15403        STMH15424        49.00      0.0100     64.65      62.29      0          0
3522STPI18850    STMH18581        STMH18580        22.40      0.0150     87.76      87.51      0          0
3112STPI18612    STMH18400        STMH18853        8.60       0.0100     23.35      23.23      0          0
5874STPI18406    DMH3A            STMH18239        2.85       0.0100     42.56      42.45      0          0
3976STPI18723    STIN16088        STMH18492        2.80       0.0150     149.13     149.06     0          0
3748STPI18398    STMH18231        STMH18232        61.20      0.0100     53.79      52.63      0          0
4257STPI18341    GASTMH1021       STMH18183        107.85     0.0140     19.55      22.63      0          0
5750STPI18485    5D3A             STMH18308        16.60      0.0150     91.90      89.97      0          0
3338STPI19574    STMH19081        STMH18550        20.90      0.0100     70.44      69.20      0          0
3677STPI19667    STMH17942        STMH18360        5.00       0.0150     72.17      72.14      0          0
3217STPI18946    STMH18656        STMH18657        25.40      0.0100     106.73     105.59     0          0
3461STPI18417    STMH18248        STMH18250        48.05      0.0100     41.11      40.60      0          0
3193STPI18479    STMH18295        STMH18304        0.75       0.0150     106.54     106.43     0          0
3482STPI18311    STMH18025        STMH18031        36.63      0.0150     37.98      37.87      0          0
3688STPI18903    STMH18624        STMH19149        48.80      0.0100     56.84      54.60      0          0
3092STPI18262    STMH18160        STMH18161        12.80      0.0150     119.75     119.53     0          0
3265STPI18680    STMH18460        STMH18459        53.60      0.0150     116.06     114.96     0          0
3392STPI18342    STMH18183        GASTMH1025       22.15      0.0140     22.63      23.22      0          0
3574STPI15878    STMH15862        STMH15863        9.00       0.0100     24.50      22.94      0          0
3777STPI19587    STMH19094        STMH19093        30.00      0.0100     146.38     145.64     0          0
3590STPI18668    STMH18452        GASTMH1027       3.40       0.0150     111.82     111.64     0          0
3883STPI19273    STCO19989        STMH18898        36.90      0.0100     124.23     123.25     0          0
3180STPI18673    STMH18455        STMH18454        86.20      0.0150     113.43     112.58     0          0
3084STPI18147    STMH17955        STMH17956        60.50      0.0100     162.20     158.64     0          0
3695STPI18967    STMH18681        STMH18680        30.50      0.0150     125.05     123.85     0          0
3683STPI18163    STMH17965        STMH17966        9.80       0.0150     144.63     143.85     0          0
3256STPI19498    STMH19020        STMH19019        68.45      0.0150     141.79     139.04     0          0
3403STPI19028    STMH18730        STMH18731        122.05     0.0100     192.15     180.01     0          0
3772STPI19576    STMH19082        STMH19083        14.30      0.0150     127.42     126.10     0          0
3320STPI19150    STMH18363        STMH18364        39.20      0.0150     71.19      71.00      0          0
4255STPI18469    GASTMH1019       GASTMH1012       45.21      0.0150     100.96     98.00      0          0
3276STPI15831    STMH15834        GASTMH1028       4.50       0.0140     203.21     203.00     0          0
3132STPI18307    STMH18020        STMH18035        85.61      0.0100     46.77      41.24      0          0
3066STPI18140    STMH17951        STOU16086        11.30      0.0100     27.60      27.10      0          0
3005STPI15413    STMH15437        STMH15408        95.20      0.0140     80.78      75.66      0          0
3103STPI18851    STMH18383        STMH18581        14.50      0.0150     87.91      87.78      0          0
3012STPI15034    STMH14985        STMH14984        65.55      0.0100     116.24     113.19     0          0
3685STPI19068    STMH18764        STMH18763        14.11      0.0100     124.42     123.13     0          0
3225STPI18953    STMH18664        STMH18663        18.30      0.0100     119.75     117.47     0          0
2981STPI19620    STMH19122        STMH19089        14.75      0.0100     139.00     137.08     0          0
3708STPI18968    STMH18682        STMH18681        23.30      0.0150     126.08     125.13     0          0
3187STPI18441    STMH18270        STMH18255        12.70      0.0150     20.84      20.57      0          0
3549STPI19411    STMH18992        STMH18991        13.30      0.0150     146.78     146.61     0          0
3712STPI18976    STMH18690        STMH18663        38.80      0.0100     117.98     117.39     0          0
4263STPI18756    GASTMH1030       GASTMH1016       18.31      0.0100     16.24      16.31      0          0
3725STPI19677    STMH19173        STMH18922        11.10      0.0100     155.79     154.56     0          0
3821STPI15037    STMH14987        STMH14988        39.95      0.0100     110.92     100.72     0          0
3069STPI18158    STMH17970        STMH17971        62.60      0.0100     155.36     151.39     0          0
3657STPI19312    STMH18712        STMH18938        51.40      0.0240     22.31      21.36      0          0
4004STPI15794    STIN15758        STMH15784        9.59       0.0140     160.50     159.51     0          0
3221STPI18949    STMH18660        STMH18659        26.10      0.0100     110.51     105.09     0          0
3437STPI19000    STMH18706        STOU26973        11.50      0.0100     29.70      29.65      0          0
3501STPI18209    STMH18127        STMH18132        30.70      0.0150     135.65     134.44     0          0
3808STPI18223    STMH18142        GASTMH1024       10.00      0.0100     124.89     124.39     0          0
3524STPI18561    STMH18355        STMH18372        24.40      0.0150     72.71      71.66      0          0
3576STPI15870    STMH15876        STMH15861        51.07      0.0100     45.51      42.25      0          0
3599STPI18662    STMH18446        STMH18445        72.40      0.0100     108.47     102.69     0          0
3593STPI18660    STMH18445        STMH18444        40.30      0.0100     102.61     99.47      0          0
3646STPI18829    STMH18567        STMH18566        24.30      0.0150     85.61      85.13      0          0
3710STPI18962    STMH18673        STMH18678        39.00      0.0150     121.79     119.81     0          0
5731STPI19412    4T8A             STMH18992        8.30       0.0150     148.14     146.81     0          0
3229STPI19330    STMH15864        STMH18846        7.70       0.0100     61.00      60.39      0          0
3547STPI19495    STMH19016        STOU27035        7.90       0.0150     146.13     145.23     0          0
3806STPI19507    STMH19028        STMH19027        21.30      0.0100     125.60     125.15     0          0
3679STPI19205    STMH18863        STMH18864        49.40      0.0150     65.76      65.51      0          0
3630STPI19042    STMH18743        STMH18742        28.25      0.0100     179.43     178.41     0          0
5809STPI19607    12AD106A         STMH19113        3.40       0.0150     122.45     122.08     0          0
3744STPI18407    STMH18239        STMH18240        74.19      0.0100     42.40      40.67      0          0
3011STPI15038    STMH14988        STOU14812        14.25      0.0100     100.60     100.54     0          0
3804STPI19504    STMH19025        STMH19024        28.65      0.0100     128.76     127.83     0          0
2965STPI18992    STMH18701        STMH18702        20.30      0.0150     117.59     117.05     0          0
3367STPI18378    STMH18192        STMH18216        6.80       0.0150     154.68     154.37     0          0
3368STPI18528    STMH18347        STMH18341        41.40      0.0150     81.14      77.42      0          0
3042STPI18284    STMH18004        STMH18005        50.30      0.0150     57.94      57.23      0          0
3460STPI18412    STMH18244        STMH18245        114.70     0.0100     51.35      45.18      0          0
3074STPI18189    STMH18114        STMH18115        47.90      0.0100     156.36     152.44     0          0
3407STPI19021    STMH18831        STMH18722        4.60       0.0100     191.32     190.38     0          0
3295STPI18073    STMH17852        STMH17851        91.92      0.0150     88.87      87.58      0          0
3779STPI19589    STMH19096        STMH19097        23.90      0.0100     137.93     136.79     0          0
3699STPI18964    STMH18674        STMH18675        8.40       0.0150     119.10     118.92     0          0
3075STPI18182    STMH17989        STMH17990        67.40      0.0150     137.31     135.92     0          0
3807STPI19506    STMH19027        STMH18142        14.90      0.0100     125.14     124.89     0          0
3291STPI18089    STMH17911        STOU16057        1.73       0.0150     77.09      77.07      0          0
5785STPI18827    8BD99B           STMH18565        80.40      0.0150     87.20      80.55      0          0
3902STPI18071    STCE15886        STMH17857        38.80      0.0150     87.81      86.57      0          0
3802STPI19508    STMH19029        STMH19028        104.80     0.0100     130.97     125.61     0          0
3922STPI18258    STCE15904        STMH18157        11.10      0.0100     120.20     119.29     0          0
3394STPI18619    STMH18408        STMH18407        14.73      0.0100     116.76     116.61     0          0
STPI18136A       STPI18136B       STMH17949        76.24      0.0150     35.94      35.91      0          0
3209STPI18339    STMH18179        GASTMH1020       27.66      0.0140     15.64      16.01      0          0
5871STPI18475    MH2_B            STMH18301        13.17      0.0150     111.76     110.99     0          0
3402STPI19646    STMH19151        STMH19150        19.03      0.0100     57.80      56.15      0          0
4002STPI18088    STIN16041        STMH17850        14.72      0.0150     89.14      88.66      0          0
5707STPI18384    2AD81            STMH18221        34.40      0.0150     150.42     149.77     0          0
3644STPI19089    STMH18781        STMH18780        38.45      0.0100     112.53     109.09     0          0
3791STPI19672    STMH18911        STMH18910        20.70      0.0150     160.30     159.46     0          0
3358STPI18210    STMH18133        GASTMH1034       6.84       0.0150     132.48     131.77     0          0
3331STPI18980    STMH18694        STMH18693        40.40      0.0100     118.21     115.90     0          0
3142STPI18264    STMH18162        STMH18161        7.30       0.0150     120.07     119.54     0          0
3882STPI18999    STCO19980        STMH18706        12.50      0.0100     29.89      29.79      0          0
4266STPI18142    GASTMH1035       STMH17952        80.00      0.0150     26.18      24.76      0          0
3666STPI18447    STMH18276        STMH18256        13.05      0.0100     19.95      18.86      0          0
3244STPI19402    STMH18985        STMH18984        68.60      0.0150     146.65     141.97     0          0
3245STPI19405    STMH18987        STMH18986        14.40      0.0150     144.61     144.42     0          0
3388STPI18368    STMH18206        STMH18207        20.60      0.0150     178.75     176.87     0          0
3916STPI18589    STCE15934        STMH18265        8.55       0.0100     25.03      24.83      0          0
4226STPI18566    GASTCE1011       STMH18320        2.50       0.0140     108.42     108.22     0          0
3093STPI18233    STMH17994        STMH17995        37.90      0.0150     130.68     128.86     0          0
5776STPI18963    8AD45A           STMH18674        12.00      0.0150     119.68     119.18     0          0
3943STPI18836    STIN16099        STMH18571        25.80      0.0150     61.92      61.48      0          0
3313STPI18296    STMH18017        STMH18015        27.90      0.0100     73.76      72.79      0          0
3425STPI17687    STMH17575        STMH17576        8.45       0.0100     49.15      49.10      0          0
3247STPI19403    STMH18986        GASTMH1041       16.21      0.0150     144.37     144.13     0          0
5797STPI18832    10D83A           STMH18568        11.10      0.0150     69.92      69.45      0          0
2961STPI18991    STMH18677        STMH18701        26.30      0.0150     118.41     117.64     0          0
3864STPI19609    STMH19114        STMH19115        11.30      0.0150     117.76     117.43     0          0
3435STPI18308    STMH18035        STMH18033        71.99      0.0150     41.24      38.42      0          0
3026STPI15837    STMH15817        STMH15823        48.00      0.0140     185.28     182.19     0          0
3201STPI19091    STMH18783        STMH18782        51.30      0.0100     118.10     114.59     0          0
3203STPI19092    STMH18784        STMH18783        26.25      0.0100     118.57     117.19     0          0
3144STPI18257    STMH18157        STMH14801        17.00      0.0150     119.10     117.54     0          0
3465STPI18167    STMH17962        STMH17963        18.20      0.0150     148.10     147.98     0          0
3382STPI18382    STMH18218        STMH18219        41.50      0.0150     150.76     150.52     0          0
4267STPI15405    GASTMH1036       STMH15403        19.50      0.0140     67.00      64.94      0          0
3048STPI17697    STMH17583        STMH17584        35.23      0.0150     42.68      42.65      0          0
3400STPI19645    STMH19150        STMH19149        52.12      0.0100     56.10      54.60      0          0
3395STPI18435    STMH18258        STMH18259        36.65      0.0150     32.95      29.83      0          0
3809STPI19509    STMH19030        STMH19029        28.20      0.0100     133.09     131.75     0          0
5726STPI19418    4T5A             STMH18988        22.40      0.0150     146.22     144.81     0          0
3059STPI19271    STMH18901        STMH18902        15.20      0.0100     117.01     116.05     0          0
3617STPI19024    STMH18724        STMH18725        69.15      0.0100     197.86     194.19     0          0
3083STPI18179    STMH17986        STMH17987        31.20      0.0150     133.79     131.91     0          0
3651STPI18845    STMH18579        STOU26961        38.20      0.0150     56.24      55.53      0          0
3079STPI18175    STMH17982        STMH17983        29.10      0.0150     139.28     137.60     0          0
3430STPI17685    STMH17573        STOU16023        39.70      0.0150     48.94      48.71      0          0
3193STPI18467    STMH18295        STMH18296        11.99      0.0150     107.00     105.08     0          0
3385STPI18356    STMH18194        STMH18195        10.30      0.0100     150.86     150.06     0          0
3466STPI18169    STMH17960        STMH17961        24.40      0.0150     149.61     148.50     0          0
3477STPI18146    STMH17954        STMH17955        65.50      0.0100     165.75     162.17     0          0
3136STPI18193    STMH18120        STMH18121        10.50      0.0100     142.17     141.16     0          0
3840STPI19074    STMH18769        STMH18768        18.00      0.0150     138.10     137.75     0          0
3629STPI19015    STMH18719        STMH18718        37.05      0.0100     171.49     167.88     0          0
3583STPI19296    STMH18924        STMH18914        50.50      0.0100     142.32     139.64     0          0
3608STPI18510    STMH18327        STMH18328        69.00      0.0100     106.94     101.57     0          0
3553STPI19528    STMH19044        STMH19043        29.40      0.0150     129.02     128.69     0          0
3815STPI18807    STMH18550        STMH18549        38.50      0.0100     69.17      66.34      0          0
3670STPI19180    STMH18843        STMH18844        30.62      0.0100     118.46     117.79     0          0
4227STPI19005    GASTCE1012       STMH18637        4.50       0.0100     104.31     103.92     0          0
3149STPI18315    STMH18028        STMH18035        37.01      0.0100     43.22      41.28      0          0
3721STPI18913    STMH18972        STMH18634        16.90      0.0150     103.07     101.99     0          0
3342STPI19503    STMH19024        STMH18142        48.01      0.0100     127.73     125.04     0          0
3750STPI18399    STMH18232        STMH18233        56.05      0.0100     52.60      51.34      0          0
5914STPI18855    DMH23            STMH18030        6.70       0.0100     38.78      38.33      0          0
3602STPI18655    STMH18442        STMH18441        23.00      0.0150     91.22      89.89      0          0
3391STPI18375    STMH18213        STMH18214        26.30      0.0150     159.11     156.98     0          0
3505STPI18466    STMH18294        STMH18295        34.38      0.0150     108.73     107.12     0          0
3200STPI19039    STMH18740        STMH18739        106.05     0.0100     194.39     185.64     0          0
3825STPI19594    STMH19102        STMH19103        33.40      0.0100     138.31     137.11     0          0
3742STPI18409    STMH18241        STMH18242        0.67       0.0100     39.05      39.02      0          0
3949STPI18799    STIN16090        STMH18545        6.00       0.0150     50.94      50.87      0          0
3929STPI18692    STCE15960        STMH18469        10.10      0.0150     126.58     126.40     0          0
3764STPI19568    STMH19078        STMH19079        64.70      0.0150     162.92     162.27     0          0
3434STPI18345    STMH18171        STMH18172        98.73      0.0100     35.27      34.03      0          0
3813STPI19310    STMH18937        GASTMH1038       3.56       0.0100     62.74      62.71      0          0
3332STPI18981    STMH18695        STMH18694        38.40      0.0100     121.09     118.37     0          0
5784STPI18823    8BD100A          STMH18564        14.00      0.0150     87.90      87.65      0          0
3328STPI18935    STMH18647        STMH18648        48.80      0.0150     129.29     128.18     0          0
3198STPI19027    STMH18728        STMH18730        45.10      0.0100     196.13     192.22     0          0
3139STPI18183    STMH17990        3BD10A           9.90       0.0150     135.83     135.63     0          0
5798STPI18555    10D83B           STMH18369        33.40      0.0150     69.70      66.89      0          0
5773STPI18990    8AD53A           STMH18677        18.80      0.0150     118.79     118.42     0          0
3375STPI19263    STMH18894        STMH18624        6.45       0.0100     57.03      56.74      0          0
3471STPI18159    STMH17967        STMH17968        74.30      0.0100     152.67     148.85     0          0
3237STPI15438    STMH15426        STMH15425        5.80       0.0100     59.16      59.10      0          0
3912STPI18606    STCE15943        STMH18022        6.10       0.0100     46.42      46.07      0          0
3526STPI18564    STMH18375        STMH18374        50.00      0.0150     83.70      78.24      0          0
3737STPI19293    STMH18921        STMH18920        42.30      0.0100     148.42     145.25     0          0
3607STPI18512    STMH18329        STMH18330        67.00      0.0140     100.41     99.76      0          0
3399STPI18267    STMH18164        STMH18156        79.70      0.0100     123.96     119.96     0          0
3273STPI15799    STMH15776        STMH15777        34.75      0.0150     169.19     168.50     0          0
3447STPI18292    STMH18012        STMH18011        8.00       0.0150     70.30      69.73      0          0
3614STPI19098    STMH18788        STMH18787        19.45      0.0100     117.01     115.12     0          0
4269STPI19698    STMH19186        STMH18485        22.40      0.0150     1.02       0.80       0          0
3088STPI18161    STMH17963        STMH17964        49.10      0.0150     147.96     147.80     0          0
4228STPI18922    GASTCE1013       STMH18639        8.00       0.0100     109.30     108.38     0          0
4229STPI19543    GASTCE1014       STMH19057        9.40       0.0100     111.68     111.54     0          0
3566STPI15811    STMH15807        STMH15808        53.64      0.0150     150.36     148.56     0          0
3656STPI19179    STMH18790        STMH18843        29.70      0.0100     120.30     118.50     0          0
3177STPI18431    STMH18261        STMH18262        25.10      0.0150     24.69      23.91      0          0
3143STPI18273    STMH18168        STMH18165        10.00      0.0150     133.14     132.37     0          0
3192STPI19268    STMH18898        STMH18899        15.20      0.0100     121.97     120.19     0          0
3458STPI18472    STMH18298        GASTCE1021       5.28       0.0150     86.57      85.74      0          0
3243STPI19406    STMH18988        STMH18987        9.70       0.0150     144.78     144.64     0          0
3263STPI15424    STMH15436        STMH15418        46.70      0.0140     71.41      68.15      0          0
3822STPI15033    STMH14986        STMH14984        87.95      0.0100     113.69     113.18     0          0
3478STPI18346    STMH18172        STMH18173        74.79      0.0100     34.03      27.43      0          0
3027STPI15818    STMH15815        STMH15807        84.73      0.0150     157.67     150.44     0          0
3940STPI15900    STIN15860        STMH15872        5.50       0.0150     44.64      42.97      0          0
3648STPI18831    STMH18566        STOU26958        6.80       0.0150     85.10      84.97      0          0
3356STPI18177    STMH17984        STMH17985        26.60      0.0150     135.93     134.33     0          0
3266STPI18683    STMH18463        STMH18462        10.50      0.0150     116.64     116.45     0          0
3561STPI19346    STMH18961        STMH18951        26.75      0.0100     53.57      53.17      0          0
4270STPI18924    GASTMH1040       STMH18640        13.30      0.0150     111.02     110.23     0          0
3585STPI18542    STMH18356        STMH18357        43.40      0.0100     80.76      78.14      0          0
3776STPI19586    STMH19093        STMH19092        22.20      0.0100     145.61     144.31     0          0
3615STPI18658    STMH18444        STMH18442        98.60      0.0150     99.30      91.42      0          0
3393STPI18618    STMH18407        STMH18406        46.09      0.0100     116.56     116.10     0          0
3838STPI18934    STMH18703        STMH18647        3.90       0.0150     130.00     129.48     0          0
2958STPI18941    STMH18652        STMH18651        35.50      0.0100     123.76     122.07     0          0
3409STPI19019    STMH18721        STMH18720        45.20      0.0150     184.30     179.80     0          0
3398STPI18268    STMH18163        STMH18164        75.00      0.0100     131.00     123.99     0          0
3642STPI19105    STMH18791        STMH18782        48.88      0.0100     118.25     115.53     0          0
3918STPI18221    STCE15909        STMH18140        9.10       0.0150     130.37     130.14     0          0
3044STPI18834    STMH18569        STMH18570        14.00      0.0150     68.93      68.42      0          0
3345STPI19501    STMH19022        STMH19021        54.55      0.0100     135.51     130.27     0          0
3377STPI18279    STMH17999        STMH18000        22.30      0.0100     70.51      69.47      0          0
2987STPI19625    STMH19127        STMH19126        36.70      0.0100     149.51     147.76     0          0
3579STPI15862    STMH15858        STMH15873        99.45      0.0150     46.11      38.58      0          0
3047STPI17693    STMH17580        STMH17581        23.50      0.0100     43.92      42.91      0          0
3716STPI19332    STMH18949        STOU27030        4.87       0.0100     40.30      40.19      0          0
3814STPI19187    STMH18850        STOU27017        11.00      0.0150     187.97     187.92     0          0
3539STPI19334    STMH18951        STMH18952        53.40      0.0100     53.15      51.07      0          0
3436STPI18521    STMH18336        STCE15918        21.10      0.0150     62.47      62.92      0          0
3782STPI19275    STMH18905        STMH18904        8.00       0.0150     133.64     132.60     0          0
3604STPI18695    STMH18471        STMH18470        8.10       0.0100     127.73     127.57     0          0
3464STPI18168    STMH17961        STMH17962        25.00      0.0150     148.45     148.13     0          0
3278STPI15858    STMH15856        STMH15851        97.70      0.0100     31.05      24.91      0          0
3618STPI19031    STMH18734        STMH18733        49.50      0.0150     172.55     168.42     0          0
3009STPI15436    STMH15422        STMH15424        7.60       0.0100     62.38      62.32      0          0
3741STPI18404    STMH18237        STMH18238        44.82      0.0100     35.87      34.02      0          0
3170STPI19494    STMH19015        STMH18950        16.50      0.0100     45.66      44.82      0          0
3598STPI18689    STMH18467        STMH18466        53.10      0.0150     117.83     117.32     0          0
3498STPI18240    STMH18144        STMH18145        59.40      0.0100     124.58     123.78     0          0
3039STPI18729    STMH18496        STMH18497        126.69     0.0100     60.87      59.14      0          0
3730STPI19288    STMH18916        STMH18915        5.80       0.0100     141.58     140.82     0          0
3512STPI18427    STMH18269        STMH18268        36.55      0.0100     30.20      28.33      0          0
3223STPI18951    STMH18662        STMH18661        23.10      0.0100     114.73     112.13     0          0
3861STPI19616    STMH19120        STMH19121        18.20      0.0100     120.50     117.86     0          0
3134STPI18259    STMH18150        STMH18159        16.00      0.0150     118.41     118.13     0          0
3622STPI19025    STMH18727        STMH18723        111.10     0.0100     214.84     205.31     0          0
3957STPI15807    STIN15806        STMH15806        15.51      0.0150     156.50     156.40     0          0
3440STPI18998    STMH18705        STMH18275        48.00      0.0100     20.98      20.51      0          0
3309STPI18540    STMH18353        STMH18354        22.60      0.0100     75.80      74.34      0          0
4260STPI18343    GASTMH1025       STMH18184        80.00      0.0140     23.22      26.82      0          0
3794STPI19183    STMH18846        STMH18847        101.99     0.0150     60.39      55.58      0          0
3259STPI15414    STMH15411        STMH15410        45.20      0.0140     69.33      67.75      0          0
3557STPI19208    STMH18866        STMH18865        14.37      0.0150     82.02      81.88      0          0
3915STPI18090    STCE15887        STMH17852        7.38       0.0150     89.18      89.17      0          0
3664STPI18425    STMH18256        STMH18257        97.15      0.0150     18.47      16.31      0          0
3475STPI18155    STMH17974        STMH17973        85.40      0.0100     160.93     154.82     0          0
3150STPI18358    STMH18196        STMH18197        12.80      0.0100     166.30     165.70     0          0
3803STPI19505    STMH19026        STMH19025        98.60      0.0100     134.62     128.81     0          0
3294STPI18064    STMH17851        STMH17853        32.24      0.0150     87.58      85.97      0          0
3895STPI18982    STCO19978        STMH18695        31.80      0.0100     124.24     121.25     0          0
3724STPI19295    STMH19174        STMH19173        60.80      0.0100     162.91     155.85     0          0
2972STPI19687    STMH19179        STMH19180        74.90      0.0150     60.55      60.11      0          0
3897STPI18972    STCO19976        STMH18686        41.80      0.0100     117.46     115.47     0          0
3077STPI18207    STMH18131        STMH18129        10.60      0.0100     139.32     138.36     0          0
3308STPI18536    STMH18348        STMH18350        22.00      0.0100     83.68      83.30      0          0
3041STPI18840    STMH18571        STMH18574        4.00       0.0150     61.46      61.41      0          0
3318STPI18289    STMH18009        STMH18008        33.50      0.0150     63.46      61.54      0          0
3751STPI19679    STMH19175        STMH18921        10.40      0.0100     150.08     148.98     0          0
3101STPI18572    STMH18382        STMH18381        38.50      0.0150     87.33      87.21      0          0
4230STPI19283    GASTCE1015       STMH18912        10.55      0.0100     161.41     161.20     0          0
3736STPI19292    STMH18920        STMH18916        34.40      0.0100     145.21     141.63     0          0
3678STPI19209    STMH18867        STMH18866        103.29     0.0150     83.04      82.03      0          0
3413STPI18367    STMH18720        STMH18206        33.90      0.0150     179.91     178.78     0          0
3090STPI18256    STMH18156        STMH18157        82.00      0.0150     119.84     119.20     0          0
5866STPI18172    D1B              STMH17979        15.00      0.0150     159.82     159.44     0          0
3564STPI14800    STMH15014        STMH18295        87.30      0.0150     112.05     105.88     0          0
3658STPI19178    STMH18318        GASTCE0001       28.78      0.0100     116.63     115.86     0          0
3279STPI18919    STMH18637        STMH18634        20.10      0.0150     103.16     102.11     0          0
3690STPI19206    STMH18864        STMH19170        36.30      0.0150     65.51      65.30      0          0
3169STPI19493    STMH19014        STOU27031        4.50       0.0100     47.68      47.17      0          0
3884STPI19272    STCO19988        STMH18897        46.80      0.0100     125.12     124.60     0          0
3789STPI18593    STMH18854        STMH18264        7.70       0.0100     21.93      21.74      0          0
3019STPI14582    STMH15824        STOU15813        17.00      0.0140     180.47     179.87     0          0
3792STPI19447    STMH18848        STMH17944        89.50      0.0150     54.98      48.34      0          0
3481STPI18608    STMH18399        STMH18032        21.47      0.0150     37.75      37.67      0          0
3761STPI19550    STMH19062        STMH19063        20.90      0.0100     93.90      91.40      0          0
3246STPI19400    STMH18984        STMH18983        81.60      0.0150     141.77     134.96     0          0
3148STPI18312    STMH18031        STMH18399        20.94      0.0150     37.87      37.75      0          0
3711STPI18971    STMH18686        STMH18685        41.80      0.0100     115.34     111.94     0          0
3357STPI18320    STMH18030        STMH18025        41.92      0.0150     38.03      37.97      0          0
3463STPI18596    STMH18391        STMH18211        15.85      0.0100     164.54     164.34     0          0
3746STPI18418    STMH18250        STMH18251        13.90      0.0100     40.31      38.90      0          0
3055STPI18085    STMH17863        STMH17864        9.24       0.0150     86.91      86.67      0          0
3424STPI18171    STMH17979        STMH17957        36.50      0.0150     159.42     157.53     0          0
3516STPI18569    STMH18379        STMH18378        77.20      0.0150     103.91     95.01      0          0
4015STPI19407    STIN16183        STMH18988        19.50      0.0150     145.10     144.81     0          0
3000STPI19662    STMH19165        STMH19166        7.73       0.0100     49.05      47.66      0          0
3514STPI18473    STMH18299        STMH18515        110.62     0.0150     117.93     111.33     0          0
4014STPI19404    STIN16182        GASTMH1041       3.23       0.0100     144.27     144.24     0          0
3202STPI19093    STMH18785        STMH18784        17.75      0.0100     119.87     118.65     0          0
4231STPI19570    GASTCE1016       STMH19077        11.60      0.0150     163.88     163.59     0          0
3613STPI18487    STMH18309        STMH18310        8.80       0.0150     88.85      87.48      0          0
3986STPI19417    STIN16184        STMH18994        4.20       0.0150     150.74     148.87     0          0
3973STPI18265    STIN16084        STMH18162        1.98       0.0150     120.35     120.11     0          0
3418STPI19061    STMH18758        STMH18757        14.25      0.0100     124.40     124.00     0          0
3828STPI18185    STMH17991        STMH17992        13.40      0.0150     135.50     135.40     0          0
3361STPI18317    STMH18032        STMH18038        35.00      0.0150     38.00      37.14      0          0
3337STPI19537    STMH19052        STOU27051        15.10      0.0100     75.94      75.28      0          0
2974STPI19686    STMH19178        STMH19179        107.60     0.0150     61.20      60.55      0          0
3641STPI19088    STMH18780        GASTCE1011       8.00       0.0100     109.06     108.95     0          0
3937STPI15832    STIN15810        GASTMH1028       12.85      0.0150     204.30     202.32     0          0
5889STPI18611    D16A             STMH18400        3.00       0.0100     23.52      23.40      0          0
3760STPI19541    STMH19055        STMH19056        38.10      0.0100     118.67     114.73     0          0
3577STPI15876    STMH15860        STMH15874        86.83      0.0100     37.02      29.68      0          0
3655STPI18833    STMH18568        STMH18569        9.60       0.0150     69.39      69.05      0          0
3017STPI15843    STMH15826        STMH15825        48.50      0.0140     198.90     194.08     0          0
3304STPI18298    STMH18018        STMH18015        90.30      0.0100     76.55      72.96      0          0
3306STPI18534    STMH18349        STMH18347        83.70      0.0100     83.95      81.39      0          0
3589STPI18571    STMH18451        STMH18380        29.20      0.0150     110.03     109.04     0          0
3769STPI19580    STMH19087        STMH19086        73.30      0.0150     134.05     130.75     0          0
3230STPI19397    STMH18930        STMH18982        14.70      0.0100     131.33     129.09     0          0
3109STPI18365    STMH18203        STMH18204        14.60      0.0100     153.30     151.36     0          0
3199STPI19032    STMH18732        STMH18734        55.05      0.0150     177.29     172.57     0          0
3587STPI18549    STMH18364        STMH18365        161.95     0.0150     71.00      70.03      0          0
3681STPI18344    STMH18184        GASTMH1035       80.00      0.0140     26.82      26.18      0          0
3800STPI19325    STMH18943        STMH18944        72.60      0.0100     73.72      69.62      0          0
3037STPI18730    STMH18497        STMH18498        69.14      0.0100     59.13      54.75      0          0
3349STPI15408    STMH15404        STMH15403        67.91      0.0140     64.98      64.75      0          0
3024STPI15835    STMH15819        STMH15818        60.40      0.0140     197.30     190.27     0          0
3153STPI18372    STMH18210        STMH18211        71.70      0.0150     167.86     163.95     0          0
3541STPI19335    STMH18952        STMH18953        32.00      0.0100     51.06      49.40      0          0
3034STPI18217    STMH18138        STMH18127        16.20      0.0100     137.82     136.02     0          0
3893STPI18357    STCO16123        STMH18196        25.10      0.0100     168.68     166.31     0          0
3914STPI19201    STCE15924        STMH18860        36.50      0.0150     66.74      66.42      0          0
3160STPI18362    STMH18200        STMH18201        23.40      0.0100     160.29     158.96     0          0
5751STPI18495    5T05A            STMH18316        2.50       0.0150     91.38      91.31      0          0
3639STPI18986    STMH18698        STMH18699        25.40      0.0150     117.69     114.98     0          0
3790STPI19190    STMH18853        STMH18854        14.20      0.0100     23.23      21.93      0          0
3687STPI19681    STMH19170        STMH19176        69.00      0.0150     65.30      64.69      0          0
3578STPI15869    STMH15859        STMH15858        85.00      0.0100     49.30      46.10      0          0
3070STPI18211    STMH18134        STMH18133        78.50      0.0150     133.88     132.49     0          0
3634STPI19030    STMH18733        STMH18718        18.45      0.0150     168.22     167.58     0          0
3554STPI19527    STMH19043        STMH19047        63.19      0.0150     128.60     128.39     0          0
3560STPI19344    STMH18959        STMH18960        75.00      0.0100     55.78      54.66      0          0
3571STPI15887    STMH15867        STMH15866        72.31      0.0100     74.99      70.34      0          0
3810STPI19186    STMH18849        STMH18850        38.50      0.0150     188.40     187.99     0          0
3271STPI18921    STMH18639        STMH18637        66.40      0.0150     108.01     103.30     0          0
3745STPI19565    STMH18252        STMH18241        29.14      0.0100     39.51      38.86      0          0
3145STPI18260    STMH18159        STMH18299        3.50       0.0150     118.06     118.00     0          0
4272STPI19046    GASTMH1042       STMH18746        21.30      0.0150     200.71     199.55     0          0
3184STPI18449    STMH18278        STMH18274        97.20      0.0100     32.81      31.50      0          0
3462STPI18414    STMH18247        STMH18248        101.45     0.0100     46.41      41.39      0          0
3019STPI15840    STMH15824        STOU15814        55.00      0.0150     180.60     180.32     0          0
3426STPI17686    STMH17574        STMH17575        80.80      0.0150     49.45      49.21      0          0
5808STPI19610    12AD106B         STMH19116        6.30       0.0150     122.45     121.92     0          0
3562STPI14801    STMH14802        STOU14803        2.90       0.0150     105.31     105.13     0          0
5774STPI18995    8AD53B           STMH18676        5.40       0.0150     118.89     118.78     0          0
3649STPI18838    STMH18573        STMH18572        27.20      0.0100     63.28      62.37      0          0
3723STPI19001    STMH18710        STMH18709        15.50      0.0100     32.75      32.69      0          0
3600STPI18690    STMH18468        STMH18467        97.00      0.0150     121.03     117.87     0          0
3671STPI18501    STMH18319        STMH18320        100.93     0.0100     114.54     108.37     0          0
3991STPI19536    STIN16197        STMH19052        31.30      0.0100     77.55      75.97      0          0
3156STPI18727    STMH18494        STMH18207        8.20       0.0100     178.18     177.26     0          0
3504STPI18477    STMH18302        STMH18303        40.15      0.0150     109.78     107.12     0          0
3376STPI18130    STMH18360        GASTMH1038       144.60     0.0150     71.78      62.50      0          0
3373STPI19053    STMH18752        GASTMH1040       15.77      0.0150     111.88     111.02     0          0
3843STPI19633    STMH19136        STMH15872        90.00      0.0100     52.94      43.04      0          0
3448STPI18295    STMH18015        STMH18012        40.90      0.0150     72.71      70.33      0          0
3022STPI15825    STMH15821        STMH15820        59.00      0.0150     206.07     201.60     0          0
3441STPI19002    STMH18709        STMH18708        51.60      0.0100     32.51      31.98      0          0
3114STPI18347    STMH18173        STMH18174        9.00       0.0100     27.39      26.45      0          0
3155STPI18721    STMH18491        STOU26941        7.10       0.0150     149.56     149.51     0          0
3154STPI18381    STMH18205        STMH18218        19.60      0.0150     150.95     150.78     0          0
3739STPI19290    STMH18918        STMH18919        36.00      0.0100     164.49     163.19     0          0
3013STPI19693    STMH19183        STMH19184        121.35     0.0150     57.55      56.80      0          0
3248STPI19414    STMH18997        STMH18994        8.20       0.0150     150.15     148.87     0          0
3910STPI18395    STCE15918        STMH18229        28.28      0.0100     61.27      59.17      0          0
2983STPI19626    STMH19128        STMH19127        26.40      0.0100     150.59     149.54     0          0
3998STPI18927    STIN16110        GASTMH1045       4.40       0.0150     120.30     119.10     0          0
3832STPI18266    STMH18477        STMH18155        11.10      0.0100     123.38     122.89     0          0
3704STPI18664    STMH18685        STMH18447        10.90      0.0100     111.81     111.08     0          0
3718STPI19384    STMH18975        STMH18974        51.00      0.0150     116.34     113.52     0          0
2999STPI19663    STMH19166        STMH19169        27.70      0.0100     47.61      44.28      0          0
3467STPI18150    STMH17972        STMH17971        31.50      0.0150     154.21     151.24     0          0
3164STPI18363    STMH18201        STMH18202        50.40      0.0100     158.95     154.57     0          0
3487STPI18261    STMH18161        STMH18150        41.60      0.0150     119.51     118.63     0          0
3981STPI19161    STIN16118        STMH18831        3.70       0.0100     193.00     191.57     0          0
3290STPI18400    STMH18233        STMH18234        104.49     0.0100     51.32      49.82      0          0
3694STPI18965    STMH18679        STMH18673        6.20       0.0150     122.62     121.85     0          0
3966STPI18830    STIN16098        STMH18567        5.00       0.0150     85.88      85.70      0          0
3660STPI18507    STMH18320        STMH18324        33.41      0.0100     108.18     107.55     0          0
3507STPI18190    STMH18115        STMH18117        58.60      0.0100     152.40     145.20     0          0
3241STPI15425    STMH15418        STMH15417        99.80      0.0140     68.14      64.00      0          0
3519STPI18514    STMH18331        STMH18332        36.70      0.0100     97.91      94.90      0          0
3967STPI18848    STIN16100        STMH18577        10.80      0.0150     58.48      58.48      0          0
3365STPI18366    STMH18204        STMH18205        4.70       0.0100     151.35     151.16     0          0
2962STPI18943    STMH18654        STMH18653        38.50      0.0100     124.74     124.03     0          0
3468STPI18151    STMH17971        STMH17959        40.50      0.0150     151.22     146.99     0          0
3645STPI18490    STMH18312        5D03A            3.70       0.0150     91.00      90.94      0          0
3423STPI19056    STMH18755        STMH18754        40.87      0.0100     119.79     116.15     0          0
3953STPI15819    STIN15808        STMH15816        50.30      0.0140     164.32     160.80     0          0
3091STPI18197    STMH18123        STMH18124        38.70      0.0150     146.02     143.26     0          0
3383STPI18383    STMH18219        STMH18220        10.70      0.0150     150.51     150.45     0          0
3381STPI18068    STMH17856        STMH17857        37.50      0.0100     87.00      86.79      0          0
2955STPI18939    STMH18650        STMH18649        16.70      0.0150     114.17     113.31     0          0
3014STPI15792    STMH15777        STOU15753        18.93      0.0150     168.50     168.00     0          0
3366STPI18726    STMH18493        STMH18494        32.70      0.0100     179.55     178.19     0          0
2989STPI19642    STMH19146        STMH19137        19.00      0.0100     40.35      39.02      0          0
3503STPI18754    STMH18304        STMH14802        6.52       0.0150     105.81     105.40     0          0
3220STPI18970    STMH18659        STMH18684        26.50      0.0150     104.87     104.52     0          0
3459STPI18416    STMH18246        STMH18249        50.25      0.0100     43.24      41.48      0          0
3529STPI18544    STMH18358        STMH18359        13.30      0.0100     73.79      72.45      0          0
3611STPI18494    STMH18315        STCE15887        1.32       0.0150     89.22      89.18      0          0
3171STPI18397    STMH18230        STMH18231        14.54      0.0100     54.35      53.82      0          0
3086STPI18249    STMH18151        STMH17995        5.40       0.0100     130.35     128.72     0          0
3058STPI18079    STMH17860        STMH17864        28.65      0.0150     86.38      86.31      0          0
3705STPI18959    STMH18670        STMH18671        24.50      0.0150     126.19     124.54     0          0
3508STPI18218    STMH18137        STMH18138        100.70     0.0100     143.78     137.86     0          0
3179STPI18666    STMH18454        STMH18449        45.70      0.0150     112.56     111.79     0          0
3450STPI19062    STMH18757        STMH18760        33.37      0.0100     123.97     119.89     0          0
3663STPI18203    STMH18126        STMH18122        8.60       0.0150     147.50     147.38     0          0
3401STPI19648    STMH19149        STMH18625        59.10      0.0100     54.55      51.94      0          0
2979STPI18681    STMH18461        STMH18460        9.30       0.0150     116.18     116.11     0          0
3546STPI19416    STMH18995        STMH18996        4.40       0.0150     147.54     147.50     0          0
3359STPI18213    STMH18135        STMH18136        38.40      0.0100     133.35     133.09     0          0
3339STPI19592    STMH19100        GASTMH1046       16.10      0.0100     123.77     123.50     0          0
3285STPI18436    STMH18259        STMH18260        49.45      0.0150     29.00      26.02      0          0
3752STPI19553    STMH19064        STMH19065        15.10      0.0100     88.88      88.66      0          0
3758STPI19544    STMH19057        STMH19058        18.30      0.0100     111.47     109.34     0          0
5730STPI19415    4T8B             STMH18995        12.80      0.0150     147.98     147.55     0          0
3759STPI19542    STMH19056        STMH19057        30.70      0.0100     114.63     111.54     0          0
3964STPI17869    STIN16056        STMH17950        6.70       0.0100     30.10      28.80      0          0
4276STPI18577    GASTMH1047       STMH19065        48.60      0.0150     89.06      88.82      0          0
3923STPI15865    STCE15853        STMH15859        12.00      0.0100     49.59      49.35      0          0
3533STPI18556    STMH18371        STMH18370        11.90      0.0150     71.17      69.92      0          0
3105STPI18574    STMH18385        STMH18384        43.40      0.0150     88.34      88.11      0          0
3543STPI19333    STMH18950        STMH18948        50.60      0.0100     44.79      40.75      0          0
3364STPI18380    STMH18217        STMH18205        16.30      0.0150     151.13     150.96     0          0
3406STPI19029    STMH18731        STMH18732        40.89      0.0100     179.99     177.48     0          0
3722STPI18433    STMH18711        STMH18265        45.50      0.0100     24.85      24.38      0          0
3689STPI19203    STMH18861        STMH18862        71.60      0.0150     66.30      65.90      0          0
3250STPI18196    STMH18996        STMH18122        5.40       0.0150     147.48     147.39     0          0
3213STPI18287    STMH18007        STMH18335        85.20      0.0100     71.45      67.80      0          0
3535STPI18550    STMH18365        STMH18366        41.50      0.0150     70.03      69.77      0          0
2990STPI19641    STMH19145        STMH19146        64.00      0.0100     49.36      40.40      0          0
3001STPI19666    STMH19168        STMH19141        6.23       0.0100     43.95      43.70      0          0
3128STPI18516    STMH18332        STMH18334        104.75     0.0100     94.65      93.44      0          0
3106STPI18471    STMH18297        STMH18298        178.20     0.0150     96.19      86.61      0          0
3527STPI18563    STMH18374        STMH18373        45.40      0.0150     78.21      75.05      0          0
3293STPI18069    STMH17850        STMH17851        23.46      0.0150     88.33      87.62      0          0
3194STPI18463    STMH18293        STMH18294        61.07      0.0150     111.77     108.75     0          0
3363STPI18359    STMH18197        STMH18198        18.00      0.0100     165.66     164.37     0          0
3488STPI18238    STMH18481        STMH17996        4.80       0.0100     120.21     119.10     0          0
3033STPI15859    STMH15857        STMH15856        4.95       0.0100     31.22      31.11      0          0
2998STPI19660    STMH19163        STMH19164        54.00      0.0100     59.94      54.00      0          0
3317STPI18530    STMH18343        STMH18017        10.00      0.0150     74.48      73.76      0          0
3397STPI19619    STMH18466        STMH19115        8.10       0.0150     117.28     117.18     0          0
3987STPI19419    STIN16185        STMH18997        1.00       0.0150     150.32     150.18     0          0
3405STPI19043    STMH18744        STMH18743        110.85     0.0100     190.73     179.49     0          0
3959STPI15826    STIN15817        STMH15820        7.50       0.0150     202.25     201.70     0          0
3956STPI15839    STIN15811        STMH15824        14.00      0.0150     182.00     180.60     0          0
3926STPI18696    STCE15961        STMH18471        10.40      0.0100     128.13     127.80     0          0
5101.1           2AD108B          STMH18490        5.50       0.0150     149.79     149.70     0          0
3799STPI19327    STMH18945        STMH18845        54.80      0.0100     67.58      65.07      0          0
3591STPI19151    STMH18821        STMH18820        7.50       0.0150     90.40      90.32      0          0
3654STPI18835    STMH18570        STOU26959        30.50      0.0150     68.31      67.82      0          0
3137STPI18181    STMH17988        STMH17989        15.90      0.0150     137.74     137.41     0          0
3089STPI18200    STMH18124        STMH18125        9.20       0.0150     143.24     142.50     0          0
4005STPI19076    STIN16126        STMH18770        5.00       0.0150     138.55     138.42     0          0
3580STPI15853    STMH15855        STMH15853        65.10      0.0100     28.19      26.05      0          0
3532STPI18552    STMH18367        STMH18368        75.70      0.0150     67.43      66.96      0          0
3906STPI15881    STCE15856        STMH15864        18.30      0.0100     62.10      61.00      0          0
3698STPI18974    STMH18688        STMH18687        36.10      0.0100     116.66     112.54     0          0
3605STPI18649    STMH18438        GASTMH1072       5.59       0.0150     88.92      88.85      0          0
3896STPI18977    STCO19977        STMH18690        17.00      0.0100     122.00     121.14     0          0
3642STPI19650    STMH18791        STMH19152        29.69      0.0100     118.24     116.35     0          0
3692STPI18960    STMH18671        STMH18672        12.70      0.0150     124.44     124.16     0          0
3442STPI19003    STMH18708        STMH18707        59.00      0.0100     31.95      28.97      0          0
3421STPI19057    STMH18756        STMH18755        76.65      0.0100     126.33     119.83     0          0
3167STPI18379    STMH18216        STMH18217        46.30      0.0150     154.35     151.17     0          0
3619STPI19023    STMH18723        STMH18724        62.20      0.0100     203.96     197.88     0          0
3848STPI19638    STMH19141        STMH19142        55.33      0.0100     43.65      38.98      0          0
3008STPI15433    STMH15424        STMH15425        47.73      0.0100     62.26      58.96      0          0
3938STPI15846    STIN15819        STMH15828        7.50       0.0150     215.30     213.50     0          0
3728STPI19284    STMH18913        STMH18906        22.90      0.0100     135.14     134.74     0          0
3410STPI19044    STMH18745        STMH18831        71.25      0.0150     196.67     191.35     0          0
3841STPI19075    STMH18770        STMH18769        31.00      0.0150     138.39     138.16     0          0
3544STPI19408    STMH18989        STMH19016        5.60       0.0150     146.50     146.18     0          0
3682STPI18144    STMH17953        STMH18485        129.85     0.0150     16.56      1.00       0          0
3411STPI19020    STMH18722        STMH18721        68.00      0.0150     190.31     184.35     0          0
4003STPI15793    STIN15757        STMH15778        15.24      0.0150     160.50     160.19     0          0
3616STPI19034    STMH18725        STMH18735        80.45      0.0100     194.14     185.35     0          0
3948STPI18274    STIN16085        STMH18168        17.50      0.0150     134.00     133.34     0          0
3286STPI18437    STMH18260        STMH18261        11.35      0.0150     25.62      25.33      0          0
3257STPI19497    STMH19019        STMH19018        43.40      0.0150     138.92     134.89     0          0
4232STPI19552    GASTCE1017       STMH19063        12.90      0.0100     92.56      91.89      0          0
3500STPI18212    STMH18132        STMH18134        25.90      0.0150     134.36     133.95     0          0
3877STPI15828    STCO15806        STMH15822        45.50      0.0140     206.30     205.10     0          0
3346STPI18482    STMH18305        GASTMH1050       15.90      0.0100     130.23     129.99     0          0
3141STPI18198    STMH18125        STMH18121        21.00      0.0150     142.44     141.01     0          0
3768STPI19579    STMH19086        STMH19085        52.00      0.0150     130.72     128.38     0          0
3181STPI18677    STMH18458        STMH18457        19.40      0.0150     114.36     113.92     0          0
3536STPI18548    STMH18362        STMH18363        48.60      0.0150     71.40      71.19      0          0
3785STPI19277    STMH18907        STMH18906        63.40      0.0150     138.48     134.74     0          0
3214STPI18280    STMH18000        STMH18001        35.60      0.0100     69.44      67.39      0          0
3531STPI18551    STMH18366        STMH18367        145.90     0.0150     69.77      67.43      0          0
3963STPI17689    STIN16012        STCO16045        3.00       0.0100     48.60      45.30      0          0
3311STPI18537    STMH18350        STMH18351        25.30      0.0100     83.30      82.02      0          0
3050STPI19269    STMH18899        STMH18900        23.70      0.0100     120.16     117.72     0          0
3031STPI15877    STMH15875        STMH15862        93.78      0.0100     29.27      24.56      0          0
3212STPI18800    STMH18545        STOU26948        6.50       0.0100     50.77      50.69      0          0
4233STPI19112    GASTCE1018       STMH18752        8.80       0.0100     112.54     112.12     0          0
3049STPI19281    STMH18912        STMH18911        12.10      0.0150     160.81     160.44     0          0
3640STPI18988    STMH18700        STMH18674        18.50      0.0100     120.46     119.54     0          0
2992STPI19639    STMH19142        STMH19143        23.43      0.0100     38.93      36.11      0          0
3555STPI19323    STMH18869        STMH18942        32.83      0.0100     78.09      76.98      0          0
2957STPI18940    STMH18651        STMH18650        82.80      0.0100     121.94     114.78     0          0
3486STPI18254    STMH18155        STMH18158        32.40      0.0150     122.87     121.35     0          0
3129STPI18509    STMH18326        STMH18325        40.45      0.0100     106.55     105.19     0          0
3283STPI18911    STMH18632        STMH18633        13.70      0.0150     105.14     104.33     0          0
2971STPI19685    STMH19177        STMH19178        156.40     0.0150     64.31      61.20      0          0
3558STPI19345    STMH18960        STMH18961        72.50      0.0100     54.66      53.57      0          0
3715STPI19331    STMH18948        STMH18949        43.00      0.0100     40.70      40.33      0          0
3855STPI19606    STMH19111        STMH19112        13.30      0.0150     123.22     122.55     0          0
3950STPI18918    STIN16109        GASTCE1000       2.29       0.0100     99.10      98.46      0          0
3847STPI19635    STMH19138        STMH19139        32.00      0.0100     53.98      49.34      0          0
3110STPI19566    STMH19076        STMH19077        40.30      0.0100     163.77     163.39     0          0
3374STPI19066    STMH18762        STMH18760        13.15      0.0100     121.49     121.36     0          0
3298STPI18282    STMH18006        STMH18003        5.20       0.0100     60.36      58.91      0          0
3624STPI19037    STMH18738        STMH18737        39.25      0.0100     208.28     203.64     0          0
4000STPI18931    STIN16111        STMH18644        4.69       0.0100     129.50     128.02     0          0
3066STPI18713    STMH17951        GASTMH1053       7.46       0.0100     27.60      25.10      0          0
3173STPI18396    STMH18229        STMH18230        41.13      0.0100     59.15      54.40      0          0
3296STPI18065    STMH17853        STMH17854        11.90      0.0150     85.75      85.47      0          0
3766STPI19577    STMH19084        STMH19083        10.50      0.0150     126.55     126.30     0          0
3396STPI18430    STMH18266        STMH18261        34.25      0.0100     26.01      25.31      0          0
3784STPI19278    STMH18908        STMH18907        74.50      0.0150     146.23     138.53     0          0
3341STPI19596    STMH19104        STMH19105        30.20      0.0100     133.65     132.46     0          0
3592STPI18691    STMH18469        STMH18468        124.00     0.0150     126.24     121.19     0          0
3133STPI18243    STMH18145        STMH18148        3.40       0.0150     123.49     123.43     0          0
3643STPI19102    STMH18792        STMH18791        42.56      0.0100     121.37     118.31     0          0
3064STPI19270    STMH18900        STMH18901        7.75       0.0100     117.70     117.12     0          0
3117STPI18325    STMH18039        STMH18033        64.76      0.0100     38.93      38.55      0          0
2969STPI19691    STMH19182        GASTMH1055       42.00      0.0150     58.46      57.60      0          0
5796STPI18841    10D73B           STMH18575        13.40      0.0150     61.09      59.96      0          0
3360STPI18206    STMH18129        STMH18127        30.80      0.0150     138.16     135.67     0          0
3166STPI18360    STMH18198        STMH18199        18.10      0.0100     164.33     160.84     0          0
3774STPI19584    STMH19091        STMH19090        60.90      0.0100     141.24     134.85     0          0
3208STPI18499    STMH18317        STOU16113        15.00      0.0150     89.79      89.49      0          0
3496STPI18276    STMH18169        STMH18170        106.40     0.0150     128.44     126.86     0          0
3826STPI19605    STMH19101        GASTMH1046       4.60       0.0150     123.58     123.35     0          0
2973STPI19688    STMH19180        STMH19181        137.20     0.0150     60.11      59.28      0          0
3778STPI19588    STMH19095        STMH19096        60.90      0.0100     140.70     137.96     0          0
3205STPI18432    STMH18265        STMH18262        8.60       0.0100     24.30      24.16      0          0
4234STPI19547    GASTCE1019       STMH19059        10.90      0.0100     104.10     103.77     0          0
3588STPI18667    STMH18449        GASTMH1027       10.79      0.0150     111.68     110.91     0          0
3379STPI19394    STMH18981        STMH18980        17.60      0.0150     124.79     124.60     0          0
3845STPI18442    STMH19137        STMH18272        26.91      0.0100     38.97      36.70      0          0
3961STPI15868    STIN15852        STMH15859        10.69      0.0100     48.43      49.43      0          0
3029STPI15806    STMH15806        STOU15806        50.48      0.0150     156.40     152.00     0          0
3653STPI19104    STMH18793        STMH18783        26.50      0.0100     119.99     117.53     0          0
3601STPI18654    STMH18441        STMH18440        16.20      0.0150     89.87      88.90      0          0
3628STPI19041    STMH18742        STMH18741        95.15      0.0100     178.39     167.63     0          0
3163STPI18364    STMH18202        STMH18203        34.10      0.0100     154.56     153.32     0          0
4235STPI19340    GASTCE1020       STMH18955        9.60       0.0100     48.44      48.10      0          0
3860STPI19604    STMH19110        STMH19082        8.00       0.0100     127.90     127.47     0          0
3384STPI18385    STMH18195        STMH17960        12.50      0.0150     149.70     149.63     0          0
3032STPI15872    STMH15861        STMH15860        80.20      0.0100     42.20      37.12      0          0
3197STPI15884    STMH15866        STMH15865        72.31      0.0150     70.28      65.67      0          0
3958STPI15845    STIN15818        STMH15828        6.00       0.0150     215.10     213.50     0          0
3731STPI19289    STMH18917        STMH18918        31.60      0.0100     166.40     164.51     0          0
3343STPI19502    STMH19023        STMH19022        45.10      0.0100     137.68     135.56     0          0
3662STPI19045    STMH18746        STMH18745        20.10      0.0150     199.37     196.70     0          0
3172STPI18481    STMH19047        GASTMH1054       13.50      0.0140     128.39     128.26     0          0
3222STPI18950    STMH18661        STMH18660        17.10      0.0100     111.96     110.74     0          0
3652STPI19099    STMH18789        STMH18788        29.77      0.0100     119.65     117.06     0          0
3491STPI18251    STMH17996        STMH18153        13.00      0.0150     119.15     117.76     0          0
3043STPI18837    STMH18572        STMH18571        5.60       0.0100     62.35      62.03      0          0
3355STPI18232    STMH17987        GASTMH1034       11.60      0.0150     131.87     131.42     0          0
4280STPI19692    GASTMH1055       STMH19183        9.36       0.0150     57.60      57.55      0          0
3706STPI18966    STMH18680        STMH18679        24.60      0.0150     123.74     122.74     0          0
3878STPI17690    STCO16045        STMH17577        40.77      0.0100     45.30      44.09      0          0
3429STPI17698    STMH17584        GASTMH1065       20.61      0.0150     42.61      42.59      0          0
3520STPI18511    STMH18328        STMH18329        34.50      0.0100     101.54     100.45     0          0
3255STPI18908    STMH18629        STMH18021        10.30      0.0100     47.90      47.36      0          0
3020STPI15838    STMH15823        STMH15824        38.00      0.0140     182.14     180.60     0          0
5875STPI18403    DMH3B            STMH18237        55.82      0.0100     42.59      35.89      0          0
3913STPI18324    STCE15915        STMH18026        3.50       0.0100     47.80      47.55      0          0
3894STPI19101    STCO19983        STMH18790        60.95      0.0100     125.41     120.35     0          0
3610STPI18842    STMH18575        STMH18577        37.20      0.0150     59.94      58.48      0          0
3215STPI18281    STMH18001        STMH18006        57.70      0.0100     67.36      60.44      0          0
3097STPI18541    STMH18354        STMH18355        16.20      0.0100     74.31      73.25      0          0
3371STPI19054    STMH18753        STMH18752        19.29      0.0150     113.22     111.93     0          0
3891STPI17684    STCO16044        STMH17573        49.30      0.0100     52.11      49.11      0          0
5890STPI18439    D16B             STMH18264        24.05      0.0150     23.52      21.64      0          0
3038STPI18731    STMH18498        STMH18231        2.16       0.0100     54.69      54.53      0          0
4279STPI18937    GASTMH1054       STMH18648        15.20      0.0150     128.25     128.07     0          0
3470STPI18152    STMH17959        STMH17958        30.20      0.0150     146.95     144.91     0          0
3528STPI18288    STMH18008        STMH18003        10.90      0.0100     61.51      58.81      0          0
3416STPI15823    STMH18726        STMH15833        50.30      0.0140     191.07     187.36     0          0
3023STPI15827    STMH15820        STOU15817        11.50      0.0150     201.60     201.00     0          0
4236STPI18072    GASTCE1021       STMH17858        41.10      0.0150     85.74      84.02      0          0
3518STPI18290    STMH18010        STMH18009        32.60      0.0150     66.99      63.48      0          0
3016STPI15848    STMH15827        STMH15821        45.00      0.0150     209.50     206.07     0          0
3453STPI18131    STMH17943        VN3942           25.91      0.0150     57.80      55.48      0          0
5740STPI18247    3AD26A           STMH18149        3.60       0.0150     123.16     122.80     0          0
3256STPI19511    STMH19020        STMH19031        32.85      0.0100     141.19     140.23     0          0
3523STPI18849    STMH18580        STMH18382        13.80      0.0150     87.33      87.15      0          0
2966STPI19554    STMH19072        GASTMH1001       9.89       0.0150     95.73      94.49      0          0
3432STPI18675    STMH18456        STMH18455        17.10      0.0150     113.76     113.50     0          0
3493STPI18235    STMH17998        STMH17997        14.00      0.0150     125.93     125.36     0          0
3892STPI17694    STCO16046        STMH17582        16.51      0.0100     43.13      42.96      0          0
4237STPI19390    GASTCE1022       STMH18977        8.30       0.0150     118.02     117.84     0          0
3811STPI18805    STMH18548        STMH18937        40.80      0.0100     63.19      62.75      0          0
3509STPI18194    STMH18119        STMH18120        105.80     0.0100     149.96     142.24     0          0
2980STPI18682    STMH18462        STMH18461        15.70      0.0140     116.43     116.27     0          0
3176STPI18438    STMH18262        STMH18263        27.90      0.0150     23.69      23.57      0          0
3483STPI18263    STMH18166        STMH18160        60.30      0.0150     122.76     119.78     0          0
3818STPI19298    STMH18926        STMH18925        112.80     0.0100     159.43     148.20     0          0
5752STPI18489    5T05B            STMH18312        11.70      0.0150     91.73      91.05      0          0
3819STPI19233    STMH17866        STMH18867        42.72      0.0150     86.13      83.30      0          0
3513STPI18568    STMH18378        STMH18377        47.40      0.0150     94.88      89.45      0          0
3443STPI18520    STMH18335        STMH18336        75.00      0.0100     67.76      62.74      0          0
3494STPI18220    STMH18140        GASTMH1067       33.25      0.0150     129.94     128.74     0          0
3062STPI19634    STMH18271        STMH19137        15.78      0.0100     40.32      38.97      0          0
3072STPI18186    STMH17992        STMH17993        57.90      0.0150     135.37     134.75     0          0
3130STPI18321    STMH18027        STMH18030        9.21       0.0150     38.15      38.03      0          0
3733STPI19301    STMH18928        STMH18927        36.10      0.0100     155.85     153.81     0          0
3258STPI19499    STMH19017        STMH18140        48.12      0.0100     133.71     130.06     0          0
4238STPI19096    GASTCE1023       STMH18786        8.25       0.0100     120.80     120.71     0          0
3267STPI15411    STMH15435        STMH15407        20.50      0.0140     76.25      74.96      0          0
3780STPI19601    STMH19097        STMH19109        18.10      0.0100     136.76     135.66     0          0
3021STPI15830    STMH15822        STMH15834        40.00      0.0140     205.10     203.21     0          0
3235STPI19305    STMH18932        STMH18931        28.60      0.0100     134.88     134.14     0          0
3190STPI19485    STMH19011        STMH18019        71.46      0.0100     53.77      50.47      0          0
3314STPI18529    STMH18341        STMH18343        25.60      0.0150     77.40      74.48      0          0
3326STPI18930    STMH18644        STMH18645        79.70      0.0150     127.77     126.51     0          0
3881STPI19065    STCO19982        STMH18760        10.03      0.0100     121.47     121.37     0          0
3833STPI18720    STMH18490        STMH18491        13.60      0.0150     149.70     149.57     0          0
3060STPI18081    STMH17862        STMH17863        67.41      0.0100     88.23      86.97      0          0
3696STPI18659    STMH18683        STMH18444        12.60      0.0150     99.76      99.56      0          0
2995STPI18553    STMH18368        STCE15924        8.80       0.0150     66.96      66.74      0          0
2985STPI19621    STMH19123        STMH19122        29.60      0.0100     140.21     139.03     0          0
3939STPI19072    STIN16125        STMH18159        14.00      0.0100     119.46     118.06     0          0
3771STPI19582    STMH19089        STMH19088        13.80      0.0150     136.39     135.43     0          0
5727STPI19409    4T5B             STMH18989        3.00       0.0100     146.52     146.51     0          0
3123STPI18415    STMH18249        STMH18248        46.65      0.0100     41.40      41.22      0          0
3835STPI18847    STMH18576        STOU26960        4.40       0.0150     60.60      60.31      0          0
3476STPI18148    STMH17956        STMH17957        16.30      0.0100     158.60     157.65     0          0
3734STPI19678    STMH18923        STMH19174        18.00      0.0100     165.20     162.91     0          0
3168STPI18355    STMH18193        STMH18194        29.20      0.0100     155.33     151.96     0          0
2986STPI19623    STMH19125        STMH19124        24.20      0.0100     145.19     142.58     0          0
3305STPI18533    STMH18346        STMH18347        41.50      0.0150     82.76      81.20      0          0
3140STPI18252    STMH18153        STMH18154        13.00      0.0150     117.76     117.65     0          0
3303STPI18524    STMH18338        STMH18018        34.40      0.0100     80.15      76.56      0          0
3563STPI14803    STMH14801        STMH14800        104.40     0.0150     117.45     111.86     0          0
3322STPI18547    STMH18361        STMH18362        32.70      0.0150     71.84      71.40      0          0
3120STPI18493    STMH18314        STMH18315        50.80      0.0150     90.20      89.27      0          0
3080STPI18214    STMH18136        GASTMH1059       7.40       0.0100     132.53     132.23     0          0
4239STPI19401    GASTCE1024       STMH18984        10.09      0.0150     142.20     141.83     0          0
3609STPI19097    STMH18787        STMH18319        28.25      0.0100     114.99     114.56     0          0
3061STPI18444    STMH18273        STMH18258        21.15      0.0100     33.83      32.96      0          0
3251STPI18909    STMH18631        STMH18021        16.32      0.0100     47.22      46.36      0          0
3178STPI18429    STMH18267        STMH18266        6.40       0.0100     26.71      26.50      0          0
3224STPI18952    STMH18663        STMH18662        22.20      0.0100     117.26     114.94     0          0
3729STPI19276    STMH18906        STMH18905        34.40      0.0150     134.48     133.95     0          0
3269STPI15409    STMH15405        STMH15406        19.90      0.0100     80.85      80.73      0          0
5736STPI18236    3AD05            GASTMH1010       39.84      0.0150     125.16     121.59     0          0
3370STPI19063    STMH18760        STMH18761        11.08      0.0100     119.87     118.00     0          0
2982STPI19622    STMH19124        STMH19123        23.00      0.0100     142.55     140.24     0          0
3556STPI19343    STMH18958        STMH18950        40.50      0.0100     45.36      44.55      0          0
3010STPI15435    STMH15423        STMH15422        38.50      0.0150     62.60      62.40      0          0
2956STPI18938    STMH18649        GASTMH1060       8.10       0.0150     113.22     113.00     0          0
3984STPI19311    STIN16115        STMH18712        13.20      0.0150     24.07      22.62      0          0
4283STPI18338    GASTMH1061       STMH18179        112.34     0.0140     15.86      15.62      0          0
3890STPI15460    STCO15260        STMH15443        11.00      0.0100     60.93      60.82      0          0
3327STPI18932    STMH18646        STMH18647        40.40      0.0150     130.07     129.33     0          0
3469STPI18153    STMH17958        STMH17977        34.60      0.0150     144.89     143.04     0          0
3408STPI19038    STMH18739        STMH18735        20.85      0.0150     185.49     185.38     0          0
3672STPI18515    STMH18333        STMH18332        74.95      0.0100     97.42      96.60      0          0
3941STPI17683    STIN16011        STCO16044        2.93       0.0140     53.80      52.11      0          0
2959STPI18942    STMH18653        STMH18652        7.40       0.0100     123.96     123.84     0          0
3934STPI19395    GASTCE0003       STMH18981        12.00      0.0150     125.10     124.87     0          0
3717STPI19383    STMH18974        STMH18973        78.90      0.0150     113.46     105.28     0          0
3445STPI18291    STMH18011        STMH18010        19.80      0.0100     69.71      67.02      0          0
5720STPI18184    3BD10B           STMH17991        5.30       0.0150     135.55     135.51     0          0
3082STPI18187    STMH17993        STOU16104        8.00       0.0150     134.70     134.00     0          0
3018STPI15841    STMH15825        STMH15824        147.50     0.0140     194.08     180.80     0          0
3414STPI18135    STMH17947        GASTMH1031       22.46      0.0150     36.28      35.94      0          0
3997STPI18912    STIN16108        GASTMH1063       5.50       0.0100     106.13     104.25     0          0
5763STPI18313    6D13B            STMH18037        9.40       0.0150     37.57      37.54      0          0
3071STPI18192    STMH18117        STMH18118        17.00      0.0100     145.19     144.08     0          0
5783STPI18822    8BD100B          STMH18563        15.00      0.0150     87.85      87.22      0          0
3594STPI18652    STMH18439        STMH18440        23.50      0.0150     88.70      88.46      0          0
3052STPI18080    STMH17864        STMH17866        9.68       0.0150     86.28      86.18      0          0
3485STPI18255    STMH18158        STMH18157        58.70      0.0150     121.29     119.71     0          0
5786STPI18825    8BD99A           STOU26956        40.00      0.0100     87.22      86.62      0          0
3863STPI19597    STMH19106        STMH19094        10.60      0.0100     146.92     146.49     0          0
3185STPI18445    STMH18274        STMH18266        56.25      0.0100     31.18      26.49      0          0
3119STPI18492    STMH18313        STMH18314        12.30      0.0150     90.85      90.25      0          0
3431STPI17691    STMH17577        GASTMH1065       12.81      0.0100     44.01      43.06      0          0
3387STPI18370    STMH18208        STMH18209        27.60      0.0150     175.61     172.95     0          0
3573STPI15880    STMH15863        STOU15852        14.00      0.0150     22.86      22.76      0          0
3552STPI19529    STMH19045        STMH19044        123.37     0.0150     143.36     129.16     0          0
3015STPI15847    STMH15828        STMH15827        35.00      0.0150     212.80     209.50     0          0
3260STPI15416    STMH15410        STMH15409        49.70      0.0140     67.67      65.06      0          0
3817STPI19337    STMH18955        STMH19014        8.30       0.0100     48.04      47.74      0          0
3189STPI19069    STMH18765        STMH18764        56.35      0.0100     131.42     124.46     0          0
3787STPI19274    STMH18904        STMH18903        7.70       0.0150     132.51     132.28     0          0
3277STPI15820    STMH15816        STOU15809        16.50      0.0150     160.61     160.50     0          0
3268STPI15410    STMH15406        STMH15435        77.00      0.0140     80.73      76.27      0          0
3502STPI14802    STMH18300        STOU14804        25.50      0.0150     111.31     110.54     0          0
4010STPI19016    STIN16117        STMH18719        7.40       0.0100     173.24     171.54     0          0
5737STPI18242    3AD30            STMH18145        24.50      0.0150     124.40     123.50     0          0
3439STPI19004    STMH18707        GASTMH1066       3.00       0.0100     28.92      28.75      0          0
3773STPI19583    STMH19090        STMH19087        16.90      0.0150     134.78     134.30     0          0
3151STPI18717    STMH18220        STMH18488        11.60      0.0150     150.23     150.15     0          0
3143STPI18275    STMH18168        STOU16107        14.38      0.0100     132.84     132.56     0          0
3783STPI19398    STMH18903        STMH18982        42.00      0.0150     132.07     129.43     0          0
3887STPI19302    STCO20039        STMH18909        22.20      0.0100     160.38     158.19     0          0
3492STPI18278    STMH18479        GASTMH1067       9.25       0.0100     129.47     128.70     0          0
3299STPI18286    STMH18002        VN3942           14.60      0.0150     56.92      55.64      0          0
3788STPI19279    STMH18909        STMH18908        100.70     0.0150     157.62     146.27     0          0
3028STPI15815    STMH15814        STMH15815        70.71      0.0150     164.58     157.67     0          0
3666STPI18586    STMH18276        STCE15941        2.50       0.0100     20.11      20.01      0          0
3517STPI18570    STMH18380        STMH18379        49.50      0.0150     109.03     103.94     0          0
3993STPI18993    STIN16114        STMH18702        3.30       0.0150     117.20     117.03     0          0
4006STPI19185    STIN16168        STMH18849        16.15      0.0150     193.59     190.45     0          0
3428STPI17695    STMH17582        STMH17583        16.51      0.0150     42.76      42.74      0          0
3262STPI15412    STMH15408        STMH15407        86.15      0.0140     74.44      73.41      0          0
3637STPI18984    STMH18697        STMH18696        14.50      0.0100     125.23     125.08     0          0
3798STPI19328    STMH18946        GASTCE1004       33.72      0.0100     82.50      82.21      0          0
3301STPI18522    STMH18337        STMH18000        51.90      0.0100     71.29      69.53      0          0
3121STPI18116    STMH18310        VN3638           19.00      0.0150     87.48      86.35      0          0
3289STPI18401    STMH18234        STMH18235        17.87      0.0100     49.77      48.49      0          0
3473STPI18201    STMH18118        STMH18124        10.80      0.0100     144.06     143.65     0          0
3650STPI19103    STMH18794        STMH18793        23.50      0.0100     121.98     120.09     0          0
3104STPI18573    STMH18384        STMH18383        25.50      0.0150     88.09      87.96      0          0
3568STPI15899    STMH15872        STMH15871        98.10      0.0150     42.96      33.02      0          0
3801STPI19326    STMH18944        STMH18945        36.90      0.0100     69.58      67.65      0          0
3319STPI18293    STMH18013        STMH18012        50.60      0.0100     70.80      70.51      0          0
3131STPI18310    STMH18022        STMH18025        119.67     0.0100     45.08      38.43      0          0
3451STPI18420    STMH18251        STMH18253        50.17      0.0100     38.93      38.22      0          0
3446STPI18525    STMH18339        STMH18340        57.40      0.0100     82.52      79.00      0          0
3056STPI18078    STMH17859        STMH17860        56.64      0.0150     86.39      86.38      0          0
3288STPI18402    STMH18235        STMH18236        73.74      0.0100     48.46      42.60      0          0
3603STPI18663    STMH18447        STMH18446        58.80      0.0100     110.93     108.55     0          0
5910STPI19264    D2B              STMH18896        77.60      0.0150     128.17     127.02     0          0
5806STPI19614    12AD105A         STMH19119        7.00       0.0100     121.82     121.26     0          0
2984STPI19624    STMH19126        STMH19125        29.90      0.0100     147.73     145.22     0          0
5863STPI19018    D24B             GASTMH1071       6.00       0.0100     180.04     178.92     0          0
3125STPI18753    STMH14800        STMH18293        3.86       0.0100     111.80     111.69     0          0
3921STPI18651    STCE15948        GASTMH1072       8.50       0.0100     90.25      89.10      0          0
3905STPI18594    STCE15939        STMH18260        9.55       0.0100     25.98      25.78      0          0
3538STPI18828    STMH18565        GASTMH1073       12.40      0.0150     80.52      79.54      0          0
5757STPI18491    5D03B            STMH18313        2.70       0.0150     90.94      90.90      0          0
3901STPI18269    STCE15907        STMH18164        10.68      0.0100     124.26     124.06     0          0
3312STPI18297    STMH18016        STMH18017        23.20      0.0100     74.26      73.95      0          0
3457STPI19413    STMH18994        STMH18993        5.10       0.0150     148.79     148.54     0          0
3732STPI19286    STMH18915        STMH18914        39.60      0.0100     140.77     138.26     0          0
3933STPI19100    GASTCE0002       STMH18789        61.28      0.0100     123.75     119.83     0          0
3674STPI19265    STMH18896        GASTMH1074       5.70       0.0150     126.98     126.50     0          0
4282STPI18670    GASTMH1060       STMH18453        10.20      0.0100     113.00     112.66     0          0
3175STPI18440    STMH18264        STMH18270        34.15      0.0150     21.62      20.85      0          0
3195STPI18478    STMH18303        STMH18304        16.16      0.0150     107.00     105.81     0          0
3335STPI19591    STMH19099        STMH19100        48.00      0.0100     124.76     123.80     0          0
3586STPI18558    STMH18372        STCE15924        16.90      0.0150     71.76      67.36      0          0
3837STPI18997    STMH18704        STMH18703        6.00       0.0100     130.08     130.00     0          0
2963STPI18996    STMH18676        STOU26971        17.70      0.0150     118.75     117.20     0          0
3051STPI18076    STMH17865        STMH17941        33.33      0.0150     83.32      81.18      0          0
3559STPI19341    STMH18957        STMH18948        46.00      0.0100     41.67      40.75      0          0
3606STPI18191    STMH18116        STMH18117        86.90      0.0100     151.68     145.86     0          0
5867STPI19012    D1A              STOU26975        16.10      0.0150     159.94     159.74     0          0
3040STPI18843    STMH18577        STMH18578        16.00      0.0150     58.40      56.50      0          0
3900STPI18354    STCE15916        STMH18192        89.70      0.0150     156.79     154.70     0          0
3886STPI19647    STCO20026        STMH19151        11.06      0.0100     59.50      57.85      0          0
3006STPI15423    STMH15407        STMH15436        54.20      0.0140     73.53      71.45      0          0
3621STPI19035    STMH18736        STMH18725        55.10      0.0100     197.05     194.18     0          0
3805STPI19510    STMH19031        STMH19030        81.65      0.0100     140.14     133.12     0          0
3868STPI18333    STMH18177        GASTMH1075       94.33      0.0140     24.51      22.30      0          0
3875STPI18330    STMH18176        GASTMH1076       60.00      0.0140     33.10      30.60      0          0
4296STPI18337    GASTMH1077       GASTMH1061       20.00      0.0140     16.93      15.86      0          0
3867STPI18336    STMH18178        GASTMH1077       110.00     0.0140     19.71      16.93      0          0
4294STPI18334    GASTMH1075       GASTMH1078       130.00     0.0140     22.30      19.90      0          0
3871STPI18329    STMH17949        GASTMH1007       119.14     0.0150     34.70      33.72      0          0
4295STPI18331    GASTMH1076       GASTMH1079       50.00      0.0140     30.60      24.90      0          0
4299STPI19729    GASTMH1080       STMH19211        34.12      0.0100     50.70      49.32      0          0
4297STPI18335    GASTMH1078       STMH18178        10.00      0.0140     19.90      19.71      0          0
4298STPI18332    GASTMH1079       STMH18177        15.67      0.0140     24.90      24.51      0          0
3876STPI18319    STMH18029        GASTMH1081       79.53      0.0150     36.75      34.56      0          0
3872STPI19731    STMH19213        STMH19214        66.00      0.0100     48.77      44.11      0          0
3874STPI18305    STMH18024        STMH18023        15.99      0.0100     43.67      43.16      0          0
3873STPI19732    STMH19214        STMH18024        14.00      0.0100     44.08      43.68      0          0
3869STPI19730    STMH19211        STMH19212        3.70       0.0100     49.29      49.13      0          0
3866STPI18133    STMH18023        STMH17946        93.08      0.0150     42.64      39.78      0          0
3452STPI18716    STMH17945        STMH18023        8.98       0.0150     42.94      42.64      0          0
3969STCV15927    STIN16027        GASTMH1017       8.19       0.0140     14.04      13.95      0          0
4011STCV15929    STIN16050        STOU16080        32.70      0.0240     57.40      56.77      0          0
4007STCV17896    STIN16102        STOU26963        20.00      0.0150     66.20      65.20      0          0
3985STCV17969    STIN16189        STOU27044        18.00      0.0100     156.95     156.59     0          0
3992STCV17947    STIN16170        STOU27021        28.30      0.0150     135.11     133.38     0          0
3954STCV17893    STIN16097        STOU26954        19.21      0.0150     85.89      82.74      0          0
3248STCV17960    STMH18997        GASTWN1182       16.50      0.0150     150.16     148.54     0          0
3942STCV15933    STIN16055        STIN16056        15.00      0.0150     29.80      30.10      0          0
4012STCV15923    STIN16045        STOU16071        31.00      0.0240     86.95      85.40      0          0
3975STCV17905    STIN16123        STOU26977        21.80      0.0140     201.06     200.05     0          0
4302STCV17880    GASTMH1085       GASTMH1086       31.93      0.0140     18.64      14.05      0          0
3980STCV17894    STIN16101        STOU26962        5.00       0.0150     64.70      64.00      0          0
4165STCV17965    GASTWN1175       GASTWN1174       6.10       0.0150     138.41     137.35     0          0
3982STCV17972    STIN16194        STOU27048        20.30      0.0150     42.72      42.62      0          0
4112STCV17967    GASTWN1043       GASTWN1044       17.03      0.0150     162.63     161.08     0          0
3996STCV17899    STIN16107        STMH18632        4.10       0.0150     105.97     105.43     0          0
3284STCV17900    STMH18633        GASTMH1063       4.13       0.0150     103.84     103.70     0          0
4137STCV17901    GASTWN1125       GASTWN1114       13.00      0.0150     99.84      98.47      0          0
3977STCV15932    STIN16053        GASTMH1081       13.38      0.0240     34.99      34.72      0          0
3974STCV17904    STIN16119        GASTMH1071       9.55       0.0150     179.28     178.73     0          0
3936STCV17898    STIN16104        STOU26965        12.20      0.0150     21.00      20.60      0          0
4193STCV17964    GASTWN1313       GASTWN1330       7.70       0.0150     106.00     105.32     0          0
3978STCV15931    STIN16052        STOU16082        10.00      0.0240     35.82      35.54      0          0
4169STCV17958    GASTWN1180       GASTWN1173       18.40      0.0150     126.07     125.70     0          0
4009STCV17955    STIN16179        GASTMH1088       12.20      0.0150     55.76      55.22      0          0
3947STCV15930    STIN16051        GASTMH1086       4.96       0.0240     14.11      14.05      0          0
3994STCV17871    STIN16071        GASTMH1074       7.14       0.0150     125.86     125.32     0          0
3983STCV17897    STIN16103        GASTMH1066       4.94       0.0150     28.43      28.26      0          0
4258STCV15855    GASTMH1023       STMH15854        14.60      0.0140     25.46      25.25      0          0
4277STCV17870    GASTMH1050       STOU16110        8.96       0.0150     129.43     129.10     0          0
4210STCV17962    GASTWN1377       GASTWN1368       7.50       0.0150     101.20     100.50     0          0
4170STCV17959    GASTWN1181       GASTWN1176       10.80      0.0150     146.40     145.67     0          0
3951STCV17892    STIN16096        STOU26953        24.21      0.0150     111.69     110.76     0          0
2975STCV17882    STMH18485        GASTMH1093       10.84      0.0150     0.76       0.65       0          0
4130STCV17961    GASTWN1113       GASTWN1076       14.00      0.0150     98.35      97.31      0          0
3946STCV17910    STIN16129        STOU26981        35.30      0.0150     128.00     124.90     0          0
4013STCV15922    STIN16044        STOU16070        31.00      0.0240     88.25      88.09      0          0
3944STCV15936    STIN16067        STOU16109        13.60      0.0150     127.10     125.75     0          0
3989STCV17975    STIN16198        STOU27052        6.40       0.0140     79.29      79.16      0          0
3990STCV17976    STIN16199        STOU27053        6.20       0.0140     71.57      71.44      0          0
4199STCV17963    GASTWN1329       GASTWN1378       8.10       0.0150     102.86     103.50     0          0
3970STCV17881    STIN16087        GASTMH1086       7.23       0.0150     16.50      14.05      0          0
4008STCV17954    STIN16180        GASTMH1011       8.48       0.0150     48.58      48.30      0          0
3988STCV17973    STIN16195        STOU27049        22.39      0.0150     63.50      62.00      0          0
4305STCV17956    GASTMH1088       STOU27032        5.00       0.0150     55.22      53.90      0          0
3995STCV17902    STIN16113        STOU26970        22.00      0.0150     131.09     130.51     0          0
4001STCV17928    STIN15807        STOU15808        27.00      0.0150     165.19     163.05     0          0
3632STCV17957    STMH18976        STOU27036        9.20       0.0150     119.03     118.85     0          0
4096GASTWC0001   GASTWN1000       GASTWN1008       33.59      0.0400     152.43     151.12     0          0
4097GASTWC0002   GASTWN1001       GASTWN1002       410.07     0.0400     147.96     124.18     0          0
4099GASTWC0003   GASTWN1003       GASTWN1004       878.07     0.0400     74.76      37.03      0          0
4101GASTWC0004   GASTWN1005       GASTWN1003       308.10     0.0400     88.73      74.76      0          0
4102GASTWC0005   GASTWN1006       GASTWN1005       58.68      0.0400     92.24      88.73      0          0
4098GASTWC0006   GASTWN1002       GASTWN1426       613.25     0.0400     124.18     98.61      0          0
4136GASTWC0007   GASTWN1123       GASTWN1008       61.14      0.0400     156.39     151.12     0          0
4104GASTWC0012   GASTWN1014       GASTWN1015       38.11      0.0400     31.20      27.50      0          0
4106GASTWC0013   GASTWN1016       GASTWN1434       115.83     0.0400     25.84      20.97      0          0
4105GASTWC0014   GASTWN1015       GASTWN1016       71.09      0.0400     27.50      25.84      0          0
4039GASTWC0017   STOU15812        GASTWN1022       279.30     0.0400     199.00     170.21     0          0
4109GASTWC0018   GASTWN1029       GASTWN1014       13.42      0.0400     31.50      31.20      0          0
4108GASTWC0021   GASTWN1026       STIN16071        197.16     0.0400     144.51     125.86     0          0
4065GASTWC0022   STOU16111        GASTWN1441       80.52      0.0400     124.54     117.67     0          0
4107GASTWC0024   GASTWN1022       GASTWN1026       223.81     0.0400     170.21     144.51     0          0
4110GASTWC0027   GASTWN1035       GASTWN1052       60.87      0.0400     173.73     167.60     0          0
4085GASTWC0028   STOU27032        STIN16194        82.96      0.0400     53.90      42.72      0          0
4052GASTWC0029   STOU27048        STOU26973        170.31     0.0400     42.29      28.49      0          0
4043GASTWC0031   STOU15808        GASTWN1038       126.35     0.0400     163.05     151.45     0          0
4038GASTWC0032   STOU15817        STIN15807        319.06     0.0400     200.73     165.19     0          0
4017GASTWC0036   STOU15813        GASTWN1043       204.04     0.0400     179.87     162.63     0          0
4113GASTWC0037   GASTWN1044       GASTWN1045       111.46     0.0400     161.08     153.09     0          0
4115GASTWC0039   GASTWN1048       GASTWN1006       53.52      0.0400     99.67      92.24      0          0
4029GASTWC0040   STOU26948        GASTWN1049       258.11     0.0400     49.55      31.99      0          0
4118GASTWC0041   GASTWN1052       GASTWN1051       43.80      0.0400     167.60     163.42     0          0
4116GASTWC0044   GASTWN1049       STIN15856        83.65      0.0400     31.99      26.12      0          0
4123GASTWC0047   GASTWN1073       STIN16056        46.54      0.0400     34.00      29.09      0          0
4083GASTWC0048   STOU27017        GASTWN1063       252.57     0.0400     187.92     153.50     0          0
4120GASTWC0049   GASTWN1064       GASTWN1063       35.44      0.0400     158.11     153.50     0          0
4121GASTWC0053   GASTWN1069       STIN16044        78.58      0.0400     95.11      88.25      0          0
4122GASTWC0055   GASTWN1072       GASTWN1073       95.35      0.0400     41.05      34.00      0          0
4117GASTWC0056   GASTWN1051       GASTWN1064       53.29      0.0400     163.42     158.11     0          0
4124GASTWC0057   GASTWN1076       GASTWN1069       35.69      0.0400     97.31      95.11      0          0
4062GASTWC0059   STOU27052        STIN16197        34.63      0.0400     79.16      77.55      0          0
4127GASTWC0061   GASTWN1090       STIN16185        89.98      0.0400     153.87     150.13     0          0
4133GASTWC0062   GASTWN1119       STIN16184        9.82       0.0400     150.24     150.74     0          0
4084GASTWC0066   STOU27033        GASTWN1432       91.03      0.0400     44.38      38.54      0          0
4016GASTWC0067   STOU15814        GASTWN1087       39.97      0.0400     180.32     174.00     0          0
4119GASTWC0069   GASTWN1063       GASTWN1090       3.53       0.0400     153.50     153.87     0          0
4111GASTWC0075   GASTWN1038       GASTWN1430       52.15      0.0400     151.45     146.78     0          0
4128GASTWC0076   GASTWN1100       STIN16103        51.51      0.0400     34.65      28.43      0          0
4028GASTWC0079   STOU14804        GASTWN1103       78.99      0.0400     110.54     100.52     0          0
4080GASTWC0080   STOU26953        STIN16097        207.78     0.0400     110.76     85.89      0          0
4027GASTWC0081   STOU16110        STIN16096        139.26     0.0400     129.02     111.69     0          0
4082GASTWC0082   STOU26963        STIN16050        66.45      0.0400     64.62      57.40      0          0
4125GASTWC0085   GASTWN1086       GASTWN1100       28.97      0.0400     36.66      34.65      0          0
4030GASTWC0086   STOU26954        GASTWN1435       251.77     0.0400     82.74      54.06      0          0
4059GASTWC0087   STOU27051        STIN16199        31.76      0.0400     75.04      71.57      0          0
4061GASTWC0088   STOU27053        STIN16102        77.44      0.0400     71.44      66.20      0          0
4022GASTWC0089   STOU16070        STIN16198        72.28      0.0400     88.09      79.29      0          0
4053GASTWC0092   STOU26964        STIN16104        95.70      0.0400     28.00      21.00      0          0
4244GASTWC0094   GASTMH1005       STIN16027        92.04      0.0400     21.02      14.04      0          0
4131GASTWC0095   GASTWN1114       GASTWN1113       1.08       0.0400     98.47      98.35      0          0
4089GASTWC0096   STOU26975        GASTWN1118       32.55      0.0400     159.38     155.66     0          0
4132GASTWC0097   GASTWN1118       GASTWN1122       32.66      0.0400     155.66     153.52     0          0
4134GASTWC0098   GASTWN1120       GASTWN1119       21.61      0.0400     151.85     150.24     0          0
4135GASTWC0099   GASTWN1122       GASTWN1120       16.15      0.0400     153.52     151.85     0          0
4066GASTWC0101   STOU26969        GASTWN1125       56.44      0.0400     103.23     99.84      0          0
4138GASTWC0102   GASTWN1126       STIN15757        23.91      0.0400     162.03     160.50     0          0
4087GASTWC0103   STOU15754        GASTWN1127       32.01      0.0400     158.50     158.50     0          0
4037GASTWC0105   STOU15753        GASTWN1126       100.94     0.0400     168.00     162.03     0          0
4140GASTWC0106   GASTWN1129       STIN16189        65.46      0.0400     162.50     156.95     0          0
4141GASTWC0107   GASTWN1130       STIN16119        101.43     0.0400     190.49     179.11     0          0
4071GASTWC0112   STOU14803        GASTWN1005       140.19     0.0400     105.13     88.73      0          0
4143GASTWC0113   GASTWN1140       GASTWN1445       44.77      0.0400     129.79     126.30     0          0
4150GASTWC0114   GASTWN1155       GASTWN1045       40.39      0.0400     155.93     153.09     0          0
4146GASTWC0115   GASTWN1148       GASTWN1142       53.09      0.0400     135.61     131.52     0          0
4145GASTWC0116   GASTWN1144       GASTWN1155       50.78      0.0400     157.77     155.93     0          0
4147GASTWC0118   GASTWN1149       GASTWN1148       100.57     0.0400     145.24     135.61     0          0
4148GASTWC0119   GASTWN1150       STIN15806        59.93      0.0400     157.34     156.50     0          0
4149GASTWC0120   GASTWN1153       STIN15806        58.77      0.0400     163.18     156.50     0          0
4114GASTWC0121   GASTWN1045       GASTWN1149       68.02      0.0400     153.09     145.24     0          0
4144GASTWC0123   GASTWN1142       GASTWN1140       43.87      0.0400     131.52     129.79     0          0
4095GASTWC0124   STOU16071        GASTWN1159       72.56      0.0400     85.40      78.94      0          0
4094GASTWC0125   STOU27037        GASTWN1442       458.94     0.0400     118.48     88.70      0          0
4033GASTWC0126   STOU16082        STIN16053        8.52       0.0400     35.54      34.99      0          0
4090GASTWC0127   STOU16080        GASTWN1160       25.81      0.0400     56.77      55.14      0          0
4151GASTWC0128   GASTWN1159       STIN16050        331.51     0.0400     78.94      57.40      0          0
4153GASTWC0129   GASTWN1162       STIN16052        80.74      0.0400     36.59      35.82      0          0
4154GASTWC0130   GASTWN1163       GASTWN1444       63.31      0.0400     40.82      37.83      0          0
4155GASTWC0131   GASTWN1164       GASTWN1165       59.31      0.0400     43.67      40.95      0          0
4157GASTWC0132   GASTWN1166       GASTWN1167       82.70      0.0400     46.58      43.74      0          0
4159GASTWC0133   GASTWN1168       GASTWN1169       77.39      0.0400     54.81      46.90      0          0
4162GASTWC0134   GASTWN1172       GASTWN1170       51.00      0.0400     123.72     119.60     0          0
4163GASTWC0135   GASTWN1173       GASTWN1172       27.77      0.0400     125.70     123.72     0          0
4164GASTWC0136   GASTWN1174       STIN16170        44.03      0.0400     137.35     135.11     0          0
4093GASTWC0137   STOU27034        GASTWN1175       46.15      0.0400     144.10     138.41     0          0
4058GASTWC0138   STOU27021        GASTWN1178       13.26      0.0400     133.36     132.51     0          0
4067GASTWC0139   STOU27065        GASTWN1180       49.11      0.0400     131.63     126.07     0          0
4171GASTWC0140   GASTWN1182       GASTWN1181       30.12      0.0400     148.54     146.40     0          0
4161GASTWC0141   GASTWN1170       STMH18976        24.35      0.0400     119.60     119.03     0          0
4172GASTWC0146   GASTWN1190       STIN16068        11.94      0.0400     22.03      21.66      0          0
4088GASTWC0154   STOU26977        STIN16119        163.10     0.0400     200.05     179.11     0          0
4051GASTWC0160   STOU27036        GASTWN1214       34.08      0.0400     118.85     117.18     0          0
4175GASTWC0168   GASTWN1229       GASTWN1228       40.56      0.0400     61.69      57.73      0          0
4176GASTWC0173   GASTWN1237       GASTWN1238       59.53      0.0400     149.24     145.23     0          0
4177GASTWC0174   GASTWN1238       STIN16126        58.32      0.0400     145.23     138.55     0          0
4178GASTWC0178   GASTWN1243       STIN16168        99.66      0.0400     202.54     192.78     0          0
4179GASTWC0181   GASTWN1247       GASTWN1248       67.81      0.0400     21.27      18.77      0          0
4184GASTWC0182   GASTWN1257       GASTWN1072       44.70      0.0400     44.73      41.05      0          0
4182GASTWC0183   GASTWN1252       GASTWN1314       68.44      0.0400     115.36     109.58     0          0
4183GASTWC0184   GASTWN1253       STIN16041        47.40      0.0400     91.51      89.14      0          0
4190GASTWC0185   GASTWN1307       GASTWN1303       52.34      0.0400     37.02      35.50      0          0
4185GASTWC0186   GASTWN1260       GASTWN1257       27.97      0.0400     46.71      44.73      0          0
4186GASTWC0188   GASTWN1261       GASTWN1260       54.27      0.0400     50.35      46.71      0          0
4187GASTWC0200   GASTWN1283       GASTWN1087       88.06      0.0400     181.09     174.00     0          0
4073GASTWC0202   STOU15851        GASTWN1247       38.54      0.0400     22.69      21.27      0          0
4180GASTWC0210   GASTWN1248       GASTMH1085       23.34      0.0400     18.77      18.64      0          0
4188GASTWC0211   GASTWN1303       GASTWN1322       53.82      0.0400     35.50      33.85      0          0
4189GASTWC0213   GASTWN1306       GASTWN1307       15.87      0.0400     37.98      37.02      0          0
4191GASTWC0214   GASTWN1308       STIN16110        37.75      0.0400     123.67     120.30     0          0
4192GASTWC0216   GASTWN1312       STIN16055        48.17      0.0400     29.50      29.80      0          0
4194GASTWC0217   GASTWN1314       GASTWN1313       43.90      0.0400     109.58     106.00     0          0
4181GASTWC0218   GASTWN1251       GASTWN1252       49.26      0.0400     117.74     115.36     0          0
4195GASTWC0219   GASTWN1316       STIN16113        17.37      0.0400     131.74     131.09     0          0
4196GASTWC0223   GASTWN1322       STIN16057        118.77     0.0400     33.85      29.30      0          0
4064GASTWC0224   STOU26970        STIN16111        50.73      0.0400     130.51     129.50     0          0
4197GASTWC0225   GASTWN1326       GASTWN1169       10.57      0.0400     50.40      46.90      0          0
4198GASTWC0226   GASTWN1328       GASTWN1312       29.80      0.0400     29.50      29.50      0          0
4200GASTWC0227   GASTWN1330       GASTWN1329       39.70      0.0400     105.32     102.86     0          0
4201GASTWC0228   GASTWN1331       STIN16087        49.53      0.0400     17.57      16.50      0          0
4202GASTWC0230   GASTWN1334       GASTWN1335       14.11      0.0400     117.06     116.08     0          0
4021GASTWC0239   STOU15811        GASTWN1283       38.04      0.0400     186.58     181.09     0          0
4174GASTWC0241   GASTWN1228       GASTWN1354       61.89      0.0400     57.73      51.95      0          0
4204GASTWC0242   GASTWN1354       GASTWN1326       37.77      0.0400     51.95      50.40      0          0
4205GASTWC0250   GASTWN1368       GASTWN1114       24.95      0.0400     100.50     98.47      0          0
4206GASTWC0251   GASTWN1369       STIN16129        83.20      0.0400     135.81     128.00     0          0
4075GASTWC0252   STOU26981        STIN16107        195.22     0.0400     123.91     105.97     0          0
4207GASTWC0253   GASTWN1371       STIN16101        5.55       0.0400     65.14      64.70      0          0
4208GASTWC0254   GASTWN1372       STIN16118        56.13      0.0400     197.50     193.00     0          0
4209GASTWC0255   GASTWN1373       STIN16117        104.80     0.0400     180.12     173.24     0          0
4211GASTWC0257   GASTWN1378       GASTWN1377       9.58       0.0400     103.50     101.20     0          0
4212GASTWC0258   GASTWN1379       STIN16108        111.64     0.0400     115.94     105.88     0          0
4213GASTWC0259   GASTWN1381       GASTWN1190       32.87      0.0400     22.28      22.03      0          0
4019GASTWC0260   STOU15856        GASTWN1381       120.36     0.0400     25.59      22.28      0          0
4079GASTWC0264   STOU16107        STIN16067        120.69     0.0400     132.56     127.10     0          0
4077GASTWC0265   STOU16109        STIN16084        91.92      0.0400     125.75     120.35     0          0
4060GASTWC0266   STOU27049        GASTWN1387       40.48      0.0400     62.00      58.64      0          0
4046GASTWC0267   STOU26956        GASTWN1440       39.50      0.0400     86.62      83.36      0          0
4070GASTWC0273   STOU16086        GASTWN1396       228.36     0.0400     27.10      3.11       0          0
4055GASTWC0286   STOU27044        GASTWN1001       84.77      0.0400     156.55     147.96     0          0
4026GASTWC0293   STOU26942        GASTWN1423       70.79      0.0400     149.01     140.38     0          0
4076GASTWC0294   STOU26976        GASTWN1424       308.02     0.0400     176.74     143.06     0          0
4216GASTWC0295   GASTWN1423       GASTWN1002       211.47     0.0400     140.38     124.18     0          0
3999STCV17870A   STIN16070        GASTMH1050       8.54       0.0150     129.74     129.43     0          0
4300STCV15932A   GASTMH1081       GASTMH1087       7.80       0.0240     34.72      34.57      0          0
4254STCV15927A   GASTMH1017       GASTMH1082       13.05      0.0140     13.95      13.80      0          0
4303STCV15930A   GASTMH1086       GASTMH1089       16.02      0.0240     14.05      13.87      0          0
4286STCV17897A   GASTMH1066       STOU26964        7.26       0.0150     28.26      28.00      0          0
4217GASTWC1002   GASTWN1424       GASTWN1423       13.49      0.0400     143.06     140.38     0          0
4308GASTWC1005   GASTWN1426       GASTWN1006       175.52     0.0400     98.61      92.24      0          0
4036GASTWC1006   STOU14812        GASTWN1426       8.45       0.0400     100.54     98.61      0          0
4081GASTWC1007   STOU16057        GASTWN1003       12.87      0.0400     77.07      74.76      0          0
4078GASTWC1008   STOU16115        GASTWN1004       2.21       0.0400     36.87      37.03      0          0
4290STCV17904A   GASTMH1071       STOU26976        16.85      0.0150     178.73     177.75     0          0
4252GASTCV1001   GASTMH1015       GASTCE1002       42.26      0.0150     161.96     161.12     0          0
4041GASTWC1010   STOU15806        GASTWN1038       4.63       0.0400     152.00     151.45     0          0
4309GASTWC1014   GASTWN1430       STIN16070        198.46     0.0400     146.78     129.74     0          0
4040GASTWC1015   STOU15807        GASTWN1430       2.46       0.0400     147.34     146.78     0          0
4248STCV17954A   GASTMH1011       STOU27033        7.37       0.0150     48.30      44.38      0          0
4310GASTWC1018   GASTWN1432       GASTWN1086       34.88      0.0400     38.54      36.66      0          0
4049GASTWC1019   STOU27030        GASTWN1432       3.40       0.0400     40.19      38.54      0          0
4311GASTWC1021   GASTWN1433       GASTWN1029       113.14     0.0400     43.73      31.50      0          0
4056GASTWC1022   STOU27031        GASTWN1433       11.94      0.0400     47.17      43.73      0          0
4312GASTWC1023   GASTWN1434       STIN16051        106.11     0.0400     20.97      14.11      0          0
4042GASTWC1024   STOU15852        GASTWN1434       4.64       0.0400     22.76      20.97      0          0
4215GASTWC1025   GASTWN1396       STMH18485        5.35       0.0400     3.11       0.76       0          0
4313GASTWC1026   GASTWN1435       STIN16180        36.55      0.0400     54.06      48.58      0          0
4048GASTWC1027   STOU26961        GASTWN1435       4.78       0.0400     55.53      54.06      0          0
4262STPI15832A   GASTMH1028       STOU15812        21.48      0.0150     202.32     199.00     0          0
4287STPI18220A   GASTMH1067       STMH18169        7.35       0.0150     128.74     128.48     0          0
4265STPI18232A   GASTMH1034       GASTMH1059       8.16       0.0150     131.42     131.10     0          0
4281STPI18232B   GASTMH1059       STMH17994        10.15      0.0150     131.10     130.70     0          0
4247STPI18236A   GASTMH1010       STMH17996        26.76      0.0150     121.59     119.19     0          0
3111STPI18462A   STMH18406        STMH18293        57.40      0.0150     114.82     111.91     0          0
4268STPI18130A   GASTMH1038       STMH17943        71.97      0.0150     62.50      57.88      0          0
4288STPI18131A   VN3942           STMH18848        5.58       0.0150     55.48      54.98      0          0
4284STCV17900A   GASTMH1063       STOU26969        13.68      0.0150     103.70     103.23     0          0
4274STPI18926A   GASTMH1045       STMH18640        104.17     0.0150     119.19     110.32     0          0
4271STPI19403A   GASTMH1041       STOU27034        2.09       0.0150     144.13     144.10     0          0
4166GASTWC1029   GASTWN1176       STIN16182        29.03      0.0400     145.67     143.80     0          0
4050GASTWC1030   STOU26962        STIN16179        71.55      0.0400     64.00      55.76      0          0
3002STPI18134A   STMH18585        STMH17947        66.80      0.0150     38.96      36.31      0          0
4278STPI18143A   GASTMH1053       STMH17953        106.44     0.0150     24.50      16.58      0          0
4292STPI18129A   GASTMH1073       STMH17942        90.52      0.0150     77.88      72.21      0          0
4289STPI18075A   VN3638           STMH17865        118.93     0.0150     83.79      83.33      0          0
3665STPI18756A   STMH18257        GASTMH1016       1.59       0.0100     16.31      16.13      0          0
3099STPI18572A   STMH18381        STMH18376        18.60      0.0150     87.21      87.15      0          0
4291STPI18649A   GASTMH1072       STMH18439        4.31       0.0150     88.85      88.80      0          0
4275STPI19605A   GASTMH1046       STMH19111        2.03       0.0150     123.35     123.25     0          0
4261STPI18667A   GASTMH1027       STMH18451        8.97       0.0150     110.91     110.27     0          0
4240STPI19554A   GASTMH1001       STMH19062        4.50       0.0150     94.49      93.92      0          0
4246STPI18329A   GASTMH1007       STMH18176        75.86      0.0150     33.72      33.10      0          0
4293STCV17871A   GASTMH1074       STOU16111        10.36      0.0150     125.32     124.54     0          0
4054GASTWC1028   STOU26973        STIN16115        57.95      0.0400     28.49      24.07      0          0
4314GASTWC1031   GASTWN1439       STIN16195        490.32     0.0400     83.34      63.50      0          0
4315GASTWC1032   GASTWN1440       GASTWN1439       24.74      0.0400     83.36      83.34      0          0
4045GASTWC1033   STOU26957        GASTWN1439       1.99       0.0400     83.29      83.34      0          0
4031GASTWC1034   STOU26958        GASTWN1440       2.46       0.0400     84.97      83.36      0          0
4139GASTWC1035   GASTWN1127       STIN16189        17.58      0.0400     158.50     156.95     0          0
4167GASTCV1002   GASTWN1178       GASTWN1179       7.65       0.0150     132.51     132.36     0          0
4214STCV18016    GASTWN1387       GASTOU1001       14.20      0.0150     58.64      55.57      0          0
4173GASTCV1004   GASTWN1214       GASTWN1334       6.31       0.0150     117.18     117.06     0          0
4203GASTCV1005   GASTWN1335       GASTWN1379       7.31       0.0100     116.08     115.94     0          0
4047GASTCV1006   STOU15809        STOU26975        8.10       0.0150     159.90     159.74     0          0
4152GASTCV1007   GASTWN1160       GASTWN1168       16.73      0.0150     55.14      54.81      0          0
4316GASTWC1036   GASTOU1001       GASTWN1160       8.45       0.0400     55.57      55.14      0          0
4160GASTCV1008   GASTWN1169       GASTWN1166       15.99      0.0140     46.90      46.58      0          0
4158GASTCV1009   GASTWN1167       GASTWN1164       6.11       0.0140     43.74      43.62      0          0
4156GASTCV1010   GASTWN1165       GASTWN1163       6.62       0.0140     40.95      40.82      0          0
4068GASTWC1037   STOU26972        STIN16096        20.30      0.0400     116.84     111.69     0          0
4317GASTWC1038   GASTWN1441       GASTWN1433       580.16     0.0400     117.67     43.73      0          0
4092GASTWC1039   STOU27062        GASTWN1441       12.40      0.0400     116.70     117.67     0          0
4318GASTWC1040   GASTWN1442       STIN16045        24.91      0.0400     88.70      86.95      0          0
4074GASTWC1041   STOU16113        GASTWN1442       7.97       0.0400     89.31      88.70      0          0
4035GASTWC1048   STOU15259        STIN16011        75.87      0.0400     58.71      53.80      0          0
4023GASTWC1049   STOU26959        STIN16099        71.39      0.0400     67.73      61.92      0          0
4319GASTWC1050   GASTWN1444       GASTWN1162       38.42      0.0400     37.83      36.59      0          0
4086GASTWC1051   STOU26946        GASTWN1444       3.85       0.0400     38.65      37.83      0          0
4044GASTWC1053   STOU16023        STIN16012        5.70       0.0400     48.71      48.60      0          0
4103GASTWC1001   GASTWN1008       GASTWN1001       41.00      0.0400     151.12     147.96     0          0
4034POND2A_UP    STOU26941        POND2A           10.00      0.0140     149.51     148.90     0          0
5704POND2A_DN    POND2A           STIN16088        10.00      0.0140     148.90     149.13     0          0
4025POND3B_UP    STOU16104        POND3B           10.00      0.0140     134.00     134.00     0          0
5716POND3B_DN    POND3B           STIN16085        10.00      0.0140     134.00     134.00     0          0
4057POND4_UP     STOU27035        POND4            10.00      0.0140     145.00     145.00     0          0
5723POND4_DN     POND4            STIN16183        10.00      0.0140     145.00     145.10     0          0
4024POND3A_UP    STOU16106        POND3A           10.00      0.0140     121.47     121.50     0          0
5744POND3A_DN    POND3A           STIN16125        10.00      0.0140     121.50     119.46     0          0
4020POND5_UP     STOU16112        POND5            10.00      0.0140     90.40      90.30      0          0
5747POND5_DN     POND5            STIN16072        10.00      0.0140     90.30      90.05      0          0
4072POND6_UP     STOU16114        POND6            10.00      0.0140     37.14      37.00      0          0
5765POND6_DN     POND6            STIN16077        10.00      0.0140     37.00      36.95      0          0
4069POND8A_UP    STOU26971        POND8A           10.00      0.0140     117.20     117.20     0          0
5772POND8A_DN    POND8A           STIN16114        10.00      0.0140     117.20     117.20     0          0
4032POND8B_UP    STOU26955        POND8B           10.00      0.0140     86.19      86.00      0          0
5787POND8B_DN    POND8B           STIN16098        10.00      0.0140     86.00      85.88      0          0
4063POND10_UP    STOU26960        POND10           10.00      0.0140     60.31      60.31      0          0
5794POND10_DN    POND10           STIN16100        10.00      0.0140     60.31      58.56      0          0
4091POND12A_UP   STOU27061        POND12A          10.00      0.0140     117.90     117.90     0          0
5805POND12A_DN   POND12A          STIN16207        10.00      0.0140     117.90     117.90     0          0
5756Link2838     5D03A            Node2794         1.00       0.0010     90.94      90.94      0          0
3361Link2839     STMH18032        Node2795         1.00       0.0010     37.57      37.57      0          0
3362Link2840     STMH18038        Node2796         1.00       0.0010     36.96      36.96      0          0
3701Link2841     STMH18678        Node2797         1.00       0.0010     119.68     119.68     0          0
3714Link2842     STMH18675        Node2798         1.00       0.0010     118.89     118.89     0          0
3740Link2843     STMH18562        Node2799         1.00       0.0010     87.90      87.90      0          0
3045Link2844     STMH18563        Node2800         1.00       0.0010     87.20      87.20      0          0
3534Link2845     STMH18370        Node2801         1.00       0.0010     69.92      69.92      0          0
2977Link2846     STMH18574        Node2802         1.00       0.0010     60.88      60.88      0          0
3856Link2847     STMH19112        Node2803         1.00       0.0010     122.45     122.45     0          0
3854Link2848     STMH19116        Node2804         1.00       0.0010     121.81     121.81     0          0
3661Link2849     STMH18488        Node2805         1.00       0.0010     150.14     150.14     0          0
3152Link2850     STMH18489        Node2806         1.00       0.0010     149.79     149.79     0          0
3668Link2851     STMH18146        Node2807         1.00       0.0010     124.40     124.40     0          0
3489Link2852     STMH18147        Node2808         1.00       0.0010     123.12     123.12     0          0
2976Link2853     STMH18148        Node2809         1.00       0.0010     123.16     123.16     0          0
5719Link2854     3BD10A           Node2810         1.00       0.0010     135.55     135.55     0          0
3545Link2855     STMH18990        Node2811         1.00       0.0010     146.52     146.52     0          0
3550Link2856     STMH18993        Node2812         1.00       0.0010     148.14     148.14     0          0
3211Link2857     STMH18311        Node2813         1.00       0.0010     91.38      91.38      0          0
4129GASTWC1004   GASTWN1103       GASTWN1048       42.89      0.0400     100.52     99.67      0          0
4018GASTWC1054   STOU26965        GASTMH1005       4.55       0.0400     20.60      21.02      0          0
5880STPI18410    DMH22A           STMH18036        36.50      0.0100     38.63      38.47      0          0
5881STPI18613    DMH22B           STMH18036        36.50      0.0100     38.63      38.47      0          0
4126GASTCV1011   GASTWN1087       GASTWN1035       13.33      0.0010     174.00     173.73     0          0
4168GASTWC1055   GASTWN1179       STOU27065        12.25      0.0400     132.36     131.63     0          0
3635Link2876     STMH18716        Node2829         1.00       0.0010     159.82     159.82     0          0
3749Link2877     STMH18236        Node2830         1.00       0.0010     42.56      42.56      0          0
3506Link2878     STMH18263        Node2831         1.00       0.0010     23.52      23.52      0          0
3742Link2879     STMH18241        Node2832         1.00       0.0010     38.63      38.63      0          0
5901STPI19697    STMH19185        STMH19186        39.19      0.0150     1.39       1.02       0          0
5903STPI19696B   GASTMH1095       STMH19185        153.48     0.0140     23.00      1.39       0          0
4273STPI19696A   STMH19184        GASTMH1095       260.46     0.0140     56.80      23.00      0          0
5906GASTWC1056   GASTWN1445       GASTWN1180       3.27       0.0400     126.30     126.07     0          0
5906STCV18015    GASTWN1445       GASTWN1173       15.22      0.0150     126.30     125.70     0          0

[ORIFICES]
;;Name           From             To               Type       Offset     Qcoeff     Gated    CloseTime
;;-------------- ---------------- ---------------- ---------- ---------- ---------- -------- ----------
36612A-SG-01     HW_36612A-SG-01  2AD109           SIDE       0          0.650      NO       0
31522A-SG-02     HW_31522A-SG-02  2AD108B          SIDE       0          0.650      NO       0
57193B-SG-01     HW_57193B-SG-01  3BD10B           SIDE       0          0.650      NO       0
35454-SG-02      HW_35454-SG-02   4T5B             SIDE       0          0.650      NO       0
35504-SG-01      HW_35504-SG-01   4T8A             SIDE       0          0.650      NO       0
36683A-SG-01     HW_36683A-SG-01  3AD30            SIDE       0          0.650      NO       0
29763A-SG-02     HW_29763A-SG-02  3AD26A           SIDE       0          0.650      NO       0
32115-SG-01      HW_32115-SG-01   5T05A            SIDE       0          0.650      NO       0
57565-SG-02      HW_57565-SG-02   5D03B            SIDE       0          0.650      NO       0
33616-SG-02      HW_33616-SG-02   6D13B            SIDE       0          0.650      NO       0
33626-SG-01      HW_33626-SG-01   6D16B            SIDE       0          0.650      NO       0
37148A-SG-02     HW_37148A-SG-02  8AD53B           SIDE       0          0.650      NO       0
37018A-SG-01     HW_37018A-SG-01  8AD45A           SIDE       0          0.650      NO       0
37408B-SG-01     HW_37408B-SG-01  8BD100A          SIDE       0          0.650      NO       0
30458B-SG-02     HW_30458B-SG-02  8BD99A           SIDE       0          0.650      NO       0
353410-SG-01     HW_353410-SG-01  10D83A           SIDE       0          0.650      NO       0
297710-SG-02     HW_297710-SG-02  10D73A           SIDE       0          0.650      NO       0
385612A-SG-01    HW_385612A-SG-01 12AD106B         SIDE       0          0.650      NO       0
385412A-SG-02    HW_385412A-SG-02 12AD105B         SIDE       0          0.650      NO       0
34893A-SG-03     HW_34893A-SG-03  3AT08A           SIDE       0          0.650      NO       0
5862SG-02        D24A             D24B             SIDE       0          0.650      NO       0
3635SG-03        STMH18716        D1B              SIDE       0          0.650      NO       0
3749SG-18        STMH18236        DMH3A            SIDE       0          0.650      NO       0
3742SG-19_1      STMH18241        DMH22A           SIDE       0          0.650      NO       0
3742SG-19_2      STMH18241        DMH22B           SIDE       0          0.650      NO       0
3506SG-20        STMH18263        D16A             SIDE       0          0.650      NO       0
5911SG-23        D2A              D2B              SIDE       0          0.650      NO       0
3002SG23         STMH18585        DMH23            SIDE       0          0.650      NO       0

[WEIRS]
;;Name           From             To               Type       CrestHt    Qcoeff     Gated    EndCon   EndCoeff   Surcharge
;;-------------- ---------------- ---------------- ---------- ---------- ---------- -------- -------- ---------- ----------
31512A-WR-01     HW_31512A-WR-01  2AD81            TRANSVERSE 150.75     1.840      NO       0        0          YES
31522A-WR-02     HW_31522A-WR-02  2AD108A          TRANSVERSE 150.06     1.840      NO       0        0          YES
57193B-WR-01     HW_57193B-WR-01  STMH17986        V-NOTCH    135.91     1.840      NO       0        0          YES
35454-WR-02      HW_35454-WR-02   4T5A             V-NOTCH    146.75     1.840      NO       0        0          YES
35504-WR-01      HW_35504-WR-01   4T8B             V-NOTCH    148.75     1.840      NO       0        0          YES
31883A-WR-01     HW_31883A-WR-01  3AD05            TRANSVERSE 125.50     1.840      NO       0        0          YES
29763A-WR-02     HW_29763A-WR-02  3AD26B           TRANSVERSE 123.63     1.840      NO       0        0          YES
32115-WR-02      HW_32115-WR-02   5T05B            TRANSVERSE 92.10      1.840      NO       0        0          YES
32105-WR-01      HW_32105-WR-01   5D3A             TRANSVERSE 92.28      1.840      NO       0        0          YES
57565-WR-03      HW_57565-WR-03   STMH18308        V-NOTCH    91.32      1.840      NO       0        0          YES
33626-WR-01      HW_33626-WR-01   6D16A            V-NOTCH    37.39      1.840      NO       0        0          YES
37148A-WR-02     HW_37148A-WR-02  8AD53A           V-NOTCH    119.16     1.840      NO       0        0          YES
37018A-WR-01     HW_37018A-WR-01  8AD45B           V-NOTCH    120.07     1.840      NO       0        0          YES
37408B-WR-01     HW_37408B-WR-01  8BD100B          V-NOTCH    88.16      1.840      NO       0        0          YES
30458B-WR-02     HW_30458B-WR-02  8BD99B           TRANSVERSE 87.42      1.840      NO       0        0          YES
353410-WR-01     HW_353410-WR-01  10D83B           V-NOTCH    70.32      1.840      NO       0        0          YES
297710-WR-02     HW_297710-WR-02  10D73B           TRANSVERSE 61.31      1.840      NO       0        0          YES
385612A-WR-01    HW_385612A-WR-01 12AD106A         TRANSVERSE 123.00     1.840      NO       0        0          YES
385412A-WR-02    HW_385412A-WR-02 12AD105A         TRANSVERSE 122.39     1.840      NO       0        0          YES
34893A-WR-03     HW_34893A-WR-03  3AT08B           V-NOTCH    123.52     1.840      NO       0        0          YES
3413WR-02        STMH18720        D24A             TRANSVERSE 180.31     1.840      NO       0        0          YES
3635WR-03        STMH18716        D1A              TRANSVERSE 159.94     1.840      NO       0        0          YES
3415WR-08_1      STMH18515        MH2_A            TRANSVERSE 111.93     1.840      NO       0        0          YES
3415WR-08_2      STMH18515        MH2_B            TRANSVERSE 111.93     1.840      NO       0        0          YES
3749WR-18        STMH18236        DMH3B            V-NOTCH    42.91      1.840      NO       0        0          YES
3506WR-20        STMH18263        D16B             V-NOTCH    23.90      1.840      NO       0        0          YES
3554WR-23        STMH19043        D2A              TRANSVERSE 128.86     1.840      NO       0        0          YES

[XSECTIONS]
;;Link           Shape        Geom1      Geom2      Geom3      Geom4      Barrels
;;-------------- ------------ ---------- ---------- ---------- ---------- ----------
3676STPI19262    CIRCULAR     0.25       0          0          0          1
3147STPI18361    CIRCULAR     0.25       0          0          0          1
3765STPI19593    CIRCULAR     0.60       0          0          0          1
3962STPI15854    CIRCULAR     0.25       0          0          0          1
3753STPI18576    CIRCULAR     0.53       0          0          0          1
3909STPI18202    CIRCULAR     0.30       0          0          0          1
3703STPI18961    CIRCULAR     0.68       0          0          0          1
3858STPI19598    CIRCULAR     0.25       0          0          0          1
2988STPI19644    CIRCULAR     0.30       0          0          0          1
3511STPI19399    CIRCULAR     0.45       0          0          0          1
3586STPI18557    CIRCULAR     0.90       0          0          0          1
3754STPI19549    CIRCULAR     0.38       0          0          0          1
3479STPI18309    CIRCULAR     0.45       0          0          0          1
3275STPI15844    CIRCULAR     0.30       0          0          0          1
3735STPI19300    CIRCULAR     0.25       0          0          0          1
3839STPI19073    CIRCULAR     0.38       0          0          0          1
3324STPI18915    CIRCULAR     0.75       0          0          0          1
3232STPI19304    CIRCULAR     0.30       0          0          0          1
3572STPI15882    CIRCULAR     0.38       0          0          0          1
3227STPI15851    CIRCULAR     0.38       0          0          0          1
3157STPI18724    CIRCULAR     0.60       0          0          0          1
3354STPI18178    CIRCULAR     1.05       0          0          0          1
3842STPI18933    CIRCULAR     0.38       0          0          0          1
3625STPI19014    CIRCULAR     0.60       0          0          0          1
2964STPI18994    CIRCULAR     0.45       0          0          0          1
3300STPI18285    CIRCULAR     0.60       0          0          0          1
3530STPI18543    CIRCULAR     0.25       0          0          0          1
3228STPI15852    CIRCULAR     0.45       0          0          0          1
3919STPI18725    CIRCULAR     0.25       0          0          0          1
3226STPI18956    CIRCULAR     0.25       0          0          0          1
3757STPI19545    CIRCULAR     0.25       0          0          0          1
3834STPI18824    CIRCULAR     0.60       0          0          0          1
3004STPI15426    CIRCULAR     0.60       0          0          0          1
3078STPI18162    CIRCULAR     1.05       0          0          0          1
5775STPI18985    CIRCULAR     0.60       0          0          0          1
3659STPI18508    CIRCULAR     0.60       0          0          0          1
3499STPI18250    CIRCULAR     0.25       0          0          0          1
3495STPI18234    CIRCULAR     1.05       0          0          0          1
3219STPI18948    CIRCULAR     0.30       0          0          0          1
3753STPI18579    CIRCULAR     0.45       0          0          0          1
3386STPI18371    CIRCULAR     0.53       0          0          0          1
3746STPI18419    CIRCULAR     0.30       0          0          0          1
3786STPI19280    CIRCULAR     0.45       0          0          0          1
3885STPI19599    CIRCULAR     0.20       0          0          0          1
3036STPI18732    CIRCULAR     0.30       0          0          0          1
3540STPI19339    CIRCULAR     0.30       0          0          0          1
3831STPI18496    CIRCULAR     0.45       0          0          0          1
3218STPI18947    CIRCULAR     0.30       0          0          0          1
3076STPI18149    CIRCULAR     0.38       0          0          0          1
3438STPI19313    CIRCULAR     0.60       0          0          0          1
3945STPI15893    CIRCULAR     0.20       0          0          0          1
3767STPI19578    CIRCULAR     0.60       0          0          0          1
3567STPI15861    CIRCULAR     0.30       0          0          0          1
3282STPI18928    CIRCULAR     0.25       0          0          0          1
5807STPI19611    CIRCULAR     0.38       0          0          0          1
3726STPI19291    CIRCULAR     0.30       0          0          0          1
3204STPI19090    CIRCULAR     0.53       0          0          0          1
4218STPI18917    CIRCULAR     0.38       0          0          0          1
3928STPI18688    CIRCULAR     0.45       0          0          0          1
3253STPI18904    CIRCULAR     0.25       0          0          0          1
5712STPI18722    CIRCULAR     0.45       0          0          0          1
3820STPI15437    CIRCULAR     0.68       0          0          0          1
3234STPI19308    CIRCULAR     0.25       0          0          0          1
3581STPI15856    CIRCULAR     0.60       0          0          0          1
3697STPI18975    CIRCULAR     0.25       0          0          0          1
3738STPI19294    CIRCULAR     0.25       0          0          0          1
3747STPI18405    CIRCULAR     0.90       0          0          0          1
3770STPI19581    CIRCULAR     0.60       0          0          0          1
3231STPI19396    CIRCULAR     0.68       0          0          0          1
3456STPI18077    CIRCULAR     0.75       0          0          0          1
3853STPI19618    CIRCULAR     0.60       0          0          0          1
2968STPI19682    CIRCULAR     1.80       0          0          0          1
3924STPI18600    CIRCULAR     0.45       0          0          0          1
5762STPI18318    CIRCULAR     0.45       0          0          0          1
4219STPI19059    CIRCULAR     0.25       0          0          0          1
4220STPI19282    CIRCULAR     0.53       0          0          0          1
3638STPI18983    CIRCULAR     0.25       0          0          0          1
3907STPI15863    CIRCULAR     0.25       0          0          0          1
3917STPI18270    CIRCULAR     0.20       0          0          0          1
3158STPI18421    CIRCULAR     0.60       0          0          0          1
3727STPI19285    CIRCULAR     0.38       0          0          0          1
3537STPI18650    CIRCULAR     0.90       0          0          0          1
3667STPI18446    CIRCULAR     0.25       0          0          0          1
5817STPI18245    CIRCULAR     0.38       0          0          0          1
3081STPI18156    CIRCULAR     0.25       0          0          0          1
3942STPI17868    CIRCULAR     0.30       0          0          0          1
3138STPI18272    CIRCULAR     0.38       0          0          0          1
3702STPI18957    CIRCULAR     0.25       0          0          0          1
3829STPI18248    CIRCULAR     0.38       0          0          0          1
5870STPI18474    CIRCULAR     0.60       0          0          0          1
5795STPI18846    CIRCULAR     0.45       0          0          0          1
3525STPI18562    CIRCULAR     0.90       0          0          0          1
3850STPI18687    CIRCULAR     0.75       0          0          0          1
3584STPI19297    CIRCULAR     0.25       0          0          0          1
3626STPI19159    CIRCULAR     0.25       0          0          0          1
3007STPI15451    CIRCULAR     0.20       0          0          0          1
3824STPI15036    CIRCULAR     0.38       0          0          0          1
3146STPI18253    CIRCULAR     1.05       0          0          0          1
3347STPI18219    CIRCULAR     0.25       0          0          0          1
3636STPI18987    CIRCULAR     0.60       0          0          0          1
3903STPI18588    CIRCULAR     0.30       0          0          0          1
3206STPI14581    CIRCULAR     0.38       0          0          0          1
3118STPI18323    CIRCULAR     0.25       0          0          0          1
3633STPI19391    CIRCULAR     0.68       0          0          0          1
3812STPI18806    CIRCULAR     0.25       0          0          0          1
3880STPI18620    CIRCULAR     0.25       0          0          0          1
3183STPI18424    CIRCULAR     0.75       0          0          0          1
3548STPI19410    CIRCULAR     0.53       0          0          0          1
3816STPI19230    CIRCULAR     0.53       0          0          0          1
3239STPI15430    CIRCULAR     0.25       0          0          0          1
3570STPI15890    CIRCULAR     0.30       0          0          0          1
3972STPI18423    CIRCULAR     0.45       0          0          0          1
3490STPI18137    CIRCULAR     0.45       0          0          0          1
2978STPI18684    CIRCULAR     0.75       0          0          0          1
3899STPI18944    CIRCULAR     0.20       0          0          0          1
3851STPI19600    CIRCULAR     0.20       0          0          0          1
3844STPI19632    CIRCULAR     0.30       0          0          0          1
3336STPI19590    CIRCULAR     0.30       0          0          0          1
3542STPI19338    CIRCULAR     0.30       0          0          0          1
4249STPI18470    CIRCULAR     1.05       0          0          0          1
3095STPI18205    CIRCULAR     0.68       0          0          0          1
3925STPI18580    CIRCULAR     0.38       0          0          0          1
3315STPI18532    CIRCULAR     0.25       0          0          0          1
3210STPI18488    CIRCULAR     0.60       0          0          0          1
3196STPI18476    CIRCULAR     0.45       0          0          0          1
3911STPI18303    CIRCULAR     0.25       0          0          0          1
3292STPI18067    CIRCULAR     0.75       0          0          0          1
3030STPI15850    CIRCULAR     0.60       0          0          0          1
3280STPI18914    CIRCULAR     0.75       0          0          0          1
3073STPI18180    CIRCULAR     0.45       0          0          0          1
3329STPI18979    CIRCULAR     0.25       0          0          0          1
3207STPI18486    CIRCULAR     0.75       0          0          0          1
3378STPI19392    CIRCULAR     0.68       0          0          0          1
4250STPI19531    CIRCULAR     0.45       0          0          0          1
3302STPI18294    CIRCULAR     0.25       0          0          0          1
3236STPI19307    CIRCULAR     0.25       0          0          0          1
3836STPI15795    CIRCULAR     0.38       0          0          0          1
3323STPI18567    CIRCULAR     0.90       0          0          0          1
4221STPI19207    CIRCULAR     0.25       0          0          0          1
3249STPI18905    CIRCULAR     0.30       0          0          0          1
3935STPI19060    CIRCULAR     0.25       0          0          0          1
2993STPI18434    CIRCULAR     0.30       0          0          0          1
4222STPI19022    CIRCULAR     0.30       0          0          0          1
3310STPI18538    CIRCULAR     0.25       0          0          0          1
3968STPI19617    CIRCULAR     0.45       0          0          0          1
3484STPI18271    CIRCULAR     0.38       0          0          0          1
3971STPI18498    CIRCULAR     0.45       0          0          0          1
3691STPI18661    CIRCULAR     0.38       0          0          0          1
3035STPI18733    CIRCULAR     0.30       0          0          0          1
3348STPI19496    CIRCULAR     0.25       0          0          0          1
3369STPI19064    CIRCULAR     0.38       0          0          0          1
3756STPI19546    CIRCULAR     0.38       0          0          0          1
3808STPI18225    CIRCULAR     0.38       0          0          0          1
3427STPI17696    CIRCULAR     0.45       0          0          0          1
4223STPI19387    CIRCULAR     0.38       0          0          0          1
3569STPI15849    CIRCULAR     0.68       0          0          0          1
3297STPI18066    CIRCULAR     0.75       0          0          0          1
3116STPI18302    CIRCULAR     0.25       0          0          0          1
3720STPI19382    CIRCULAR     0.68       0          0          0          1
3389STPI18377    CIRCULAR     0.60       0          0          0          1
3612STPI19094    CIRCULAR     0.45       0          0          0          1
3920STPI18656    CIRCULAR     0.45       0          0          0          1
3565STPI15812    CIRCULAR     0.25       0          0          0          1
3127STPI18484    CIRCULAR     0.90       0          0          0          1
3351STPI18165    CIRCULAR     1.05       0          0          0          1
3454STPI18134    CIRCULAR     0.90       0          0          0          1
3025STPI15836    CIRCULAR     0.20       0          0          0          1
3797STPI19329    CIRCULAR     0.30       0          0          0          1
3632STPI19389    CIRCULAR     0.60       0          0          0          1
3287STPI18755    CIRCULAR     0.60       0          0          0          1
3823STPI15035    CIRCULAR     0.38       0          0          0          1
4251STPI19573    CIRCULAR     0.25       0          0          0          1
3684STPI18166    CIRCULAR     0.45       0          0          0          1
3325STPI18916    CIRCULAR     0.90       0          0          0          1
4224STPI19017    CIRCULAR     0.30       0          0          0          1
3796STPI19324    CIRCULAR     0.53       0          0          0          1
3932STPI18500    CIRCULAR     0.25       0          0          0          1
5786STPI18826    CIRCULAR     0.45       0          0          0          1
3879STPI18316    CIRCULAR     0.15       0          0          0          1
3316STPI18531    CIRCULAR     0.25       0          0          0          1
3376STPI18546    CIRCULAR     1.65       0          0          0          1
2997STPI19661    CIRCULAR     0.30       0          0          0          1
3781STPI19649    CIRCULAR     0.25       0          0          0          1
3846STPI19637    CIRCULAR     0.45       0          0          0          1
3165STPI18374    CIRCULAR     0.60       0          0          0          1
5741STPI18244    CIRCULAR     0.53       0          0          0          1
3126STPI18517    CIRCULAR     0.90       0          0          0          1
3510STPI18157    CIRCULAR     0.25       0          0          0          1
3455STPI18322    CIRCULAR     0.60       0          0          0          1
3480STPI18607    CIRCULAR     0.60       0          0          0          1
3094STPI18204    CIRCULAR     0.68       0          0          0          1
5816STPI18246    CIRCULAR     0.45       0          0          0          1
3404STPI19040    CIRCULAR     0.25       0          0          0          1
3793STPI19182    CIRCULAR     0.60       0          0          0          1
3762STPI19569    CIRCULAR     0.53       0          0          0          1
3233STPI19306    CIRCULAR     0.25       0          0          0          1
3595STPI18665    CIRCULAR     0.30       0          0          0          1
3272STPI18923    CIRCULAR     0.53       0          0          0          1
3596STPI18693    CIRCULAR     0.75       0          0          0          1
3380STPI19393    CIRCULAR     0.68       0          0          0          1
3115STPI18143    CIRCULAR     1.35       0          0          0          1
4253STPI18426    CIRCULAR     0.75       0          0          0          1
3102STPI18554    CIRCULAR     0.75       0          0          0          1
3433STPI18676    CIRCULAR     0.90       0          0          0          1
3849STPI19636    CIRCULAR     0.30       0          0          0          1
3242STPI15422    CIRCULAR     0.20       0          0          0          1
3889STPI15431    CIRCULAR     0.25       0          0          0          1
3827STPI15800    CIRCULAR     0.60       0          0          0          1
3472STPI18208    CIRCULAR     0.25       0          0          0          1
3254STPI18906    CIRCULAR     0.30       0          0          0          1
3067STPI18239    CIRCULAR     0.25       0          0          0          1
3057STPI18074    CIRCULAR     1.80       0          0          0          1
3927STPI18694    CIRCULAR     0.75       0          0          0          1
3420STPI18283    CIRCULAR     0.60       0          0          0          1
3340STPI19603    CIRCULAR     0.25       0          0          0          1
3353STPI18173    CIRCULAR     1.05       0          0          0          1
3100STPI19055    CIRCULAR     0.30       0          0          0          1
5761STPI18609    CIRCULAR     0.45       0          0          0          1
3182STPI18132    CIRCULAR     0.90       0          0          0          1
3003STPI15429    CIRCULAR     0.25       0          0          0          1
3274STPI14576    CIRCULAR     0.30       0          0          0          1
3321STPI18545    CIRCULAR     0.25       0          0          0          1
3686STPI19232    CIRCULAR     0.25       0          0          0          1
3743STPI18408    CIRCULAR     0.45       0          0          0          1
3230STPI19303    CIRCULAR     0.30       0          0          0          1
3113STPI18597    CIRCULAR     0.25       0          0          0          1
3763STPI19567    CIRCULAR     0.53       0          0          0          1
3551STPI19530    CIRCULAR     0.45       0          0          0          1
3515STPI18462    CIRCULAR     1.05       0          0          0          1
3065STPI18129    CIRCULAR     1.80       0          0          0          1
3390STPI18376    CIRCULAR     0.60       0          0          0          1
2970STPI19551    CIRCULAR     0.75       0          0          0          1
3085STPI18174    CIRCULAR     1.05       0          0          0          1
3053STPI18075    CIRCULAR     1.80       0          0          0          1
3673STPI19181    CIRCULAR     0.25       0          0          0          1
3709STPI18973    CIRCULAR     0.25       0          0          0          1
5708STPI18718    CIRCULAR     0.53       0          0          0          1
3344STPI19500    CIRCULAR     0.30       0          0          0          1
3096STPI18199    CIRCULAR     0.68       0          0          0          1
3680STPI19231    CIRCULAR     0.53       0          0          0          1
3107STPI18468    CIRCULAR     1.05       0          0          0          1
3631STPI19013    CIRCULAR     0.60       0          0          0          1
3497STPI18277    CIRCULAR     0.45       0          0          0          1
2967STPI19690    CIRCULAR     1.80       0          0          0          1
3174STPI18428    CIRCULAR     0.30       0          0          0          1
3755STPI19548    CIRCULAR     0.38       0          0          0          1
3261STPI15452    CIRCULAR     1.20       0          0          0          1
3352STPI18164    CIRCULAR     1.05       0          0          0          1
3700STPI18954    CIRCULAR     0.25       0          0          0          1
3675STPI19202    CIRCULAR     1.80       0          0          0          1
3908STPI15860    CIRCULAR     0.30       0          0          0          1
4256STPI18340    CIRCULAR     1.35       0          0          0          1
3054STPI18679    CIRCULAR     0.60       0          0          0          1
3444STPI18526    CIRCULAR     0.25       0          0          0          1
3597STPI18653    CIRCULAR     0.90       0          0          0          1
3417STPI18422    CIRCULAR     0.60       0          0          0          1
3098STPI18565    CIRCULAR     0.90       0          0          0          1
2960STPI18669    CIRCULAR     0.38       0          0          0          1
3960STPI15855    CIRCULAR     0.60       0          0          0          1
3264STPI18678    CIRCULAR     0.90       0          0          0          1
3575STPI15879    CIRCULAR     0.30       0          0          0          1
3979STPI19676    CIRCULAR     0.25       0          0          0          1
3419STPI18518    CIRCULAR     0.25       0          0          0          1
3046STPI17688    CIRCULAR     0.30       0          0          0          1
3188STPI18241    CIRCULAR     0.45       0          0          0          1
3372STPI19058    CIRCULAR     0.30       0          0          0          1
3521STPI18575    CIRCULAR     0.53       0          0          0          1
3186STPI18448    CIRCULAR     0.30       0          0          0          1
3422STPI19067    CIRCULAR     0.25       0          0          0          1
3216STPI18945    CIRCULAR     0.25       0          0          0          1
3627STPI19026    CIRCULAR     0.25       0          0          0          1
3412STPI19033    CIRCULAR     0.38       0          0          0          1
2991STPI19640    CIRCULAR     0.45       0          0          0          1
3859STPI19615    CIRCULAR     0.38       0          0          0          1
3669STPI19204    CIRCULAR     1.80       0          0          0          1
3830STPI18314    CIRCULAR     0.60       0          0          0          1
3270STPI18936    CIRCULAR     0.60       0          0          0          1
3865STPI19602    CIRCULAR     0.25       0          0          0          1
3162STPI18170    CIRCULAR     1.05       0          0          0          1
3449STPI18527    CIRCULAR     0.25       0          0          0          1
3852STPI19612    CIRCULAR     0.38       0          0          0          1
3693STPI18958    CIRCULAR     0.68       0          0          0          1
2994STPI19643    CIRCULAR     0.25       0          0          0          1
3124STPI18513    CIRCULAR     0.68       0          0          0          1
3620STPI19036    CIRCULAR     0.25       0          0          0          1
3063STPI18443    CIRCULAR     0.38       0          0          0          1
3068STPI18160    CIRCULAR     0.25       0          0          0          1
3307STPI18539    CIRCULAR     0.30       0          0          0          1
4259STPI19095    CIRCULAR     0.38       0          0          0          1
3281STPI18926    CIRCULAR     0.38       0          0          0          1
3122STPI18413    CIRCULAR     0.45       0          0          0          1
3647STPI18844    CIRCULAR     0.75       0          0          0          1
3955STPI15798    CIRCULAR     0.38       0          0          0          1
3623STPI19160    CIRCULAR     0.25       0          0          0          1
3719STPI19388    CIRCULAR     0.68       0          0          0          1
3191STPI19267    CIRCULAR     0.25       0          0          0          1
3474STPI18154    CIRCULAR     0.25       0          0          0          1
3108STPI18300    CIRCULAR     0.30       0          0          0          1
3965STPI18141    CIRCULAR     0.45       0          0          0          1
3862STPI19613    CIRCULAR     0.38       0          0          0          1
3159STPI18369    CIRCULAR     0.53       0          0          0          1
4225STPI19386    CIRCULAR     0.38       0          0          0          1
3898STPI18989    CIRCULAR     0.20       0          0          0          1
3952STPI18610    CIRCULAR     0.60       0          0          0          1
3582STPI15857    CIRCULAR     0.30       0          0          0          1
3795STPI19184    CIRCULAR     0.60       0          0          0          1
3775STPI19585    CIRCULAR     0.30       0          0          0          1
3252STPI18907    CIRCULAR     0.30       0          0          0          1
3713STPI18969    CIRCULAR     0.38       0          0          0          1
3135STPI18222    CIRCULAR     0.25       0          0          0          1
3238STPI15434    CIRCULAR     0.30       0          0          0          1
3857STPI19608    CIRCULAR     0.68       0          0          0          1
3330STPI18978    CIRCULAR     0.25       0          0          0          1
3334STPI19595    CIRCULAR     0.20       0          0          0          1
3087STPI18176    CIRCULAR     1.05       0          0          0          1
3904STPI18587    CIRCULAR     0.30       0          0          0          1
3707STPI18955    CIRCULAR     0.25       0          0          0          1
3333STPI18674    CIRCULAR     0.60       0          0          0          1
3240STPI15428    CIRCULAR     1.05       0          0          0          1
3161STPI18373    CIRCULAR     0.60       0          0          0          1
3888STPI19299    CIRCULAR     0.20       0          0          0          1
2996STPI19664    CIRCULAR     0.38       0          0          0          1
3350STPI15432    CIRCULAR     0.30       0          0          0          1
3522STPI18850    CIRCULAR     0.53       0          0          0          1
3112STPI18612    CIRCULAR     0.45       0          0          0          1
5874STPI18406    CIRCULAR     0.45       0          0          0          1
3976STPI18723    CIRCULAR     0.60       0          0          0          1
3748STPI18398    CIRCULAR     1.05       0          0          0          1
4257STPI18341    CIRCULAR     1.35       0          0          0          1
5750STPI18485    CIRCULAR     0.75       0          0          0          1
3338STPI19574    CIRCULAR     0.25       0          0          0          1
3677STPI19667    CIRCULAR     1.80       0          0          0          1
3217STPI18946    CIRCULAR     0.25       0          0          0          1
3461STPI18417    CIRCULAR     0.60       0          0          0          1
3193STPI18479    CIRCULAR     0.45       0          0          0          1
3482STPI18311    CIRCULAR     0.75       0          0          0          1
3688STPI18903    CIRCULAR     0.30       0          0          0          1
3092STPI18262    CIRCULAR     0.53       0          0          0          1
3265STPI18680    CIRCULAR     0.75       0          0          0          1
3392STPI18342    CIRCULAR     1.35       0          0          0          1
3574STPI15878    CIRCULAR     0.30       0          0          0          1
3777STPI19587    CIRCULAR     0.30       0          0          0          1
3590STPI18668    CIRCULAR     0.38       0          0          0          1
3883STPI19273    CIRCULAR     0.20       0          0          0          1
3180STPI18673    CIRCULAR     0.90       0          0          0          1
3084STPI18147    CIRCULAR     0.25       0          0          0          1
3695STPI18967    CIRCULAR     0.60       0          0          0          1
3683STPI18163    CIRCULAR     1.05       0          0          0          1
3256STPI19498    CIRCULAR     0.25       0          0          0          1
3403STPI19028    CIRCULAR     0.25       0          0          0          1
3772STPI19576    CIRCULAR     0.30       0          0          0          1
3320STPI19150    CIRCULAR     1.65       0          0          0          1
4255STPI18469    CIRCULAR     1.05       0          0          0          1
3276STPI15831    CIRCULAR     0.20       0          0          0          1
3132STPI18307    CIRCULAR     0.30       0          0          0          1
3066STPI18140    CIRCULAR     0.45       0          0          0          1
3005STPI15413    CIRCULAR     0.25       0          0          0          1
3103STPI18851    CIRCULAR     0.53       0          0          0          1
3012STPI15034    CIRCULAR     0.30       0          0          0          1
3685STPI19068    CIRCULAR     0.25       0          0          0          1
3225STPI18953    CIRCULAR     0.25       0          0          0          1
2981STPI19620    CIRCULAR     0.25       0          0          0          1
3708STPI18968    CIRCULAR     0.60       0          0          0          1
3187STPI18441    CIRCULAR     0.75       0          0          0          1
3549STPI19411    CIRCULAR     0.45       0          0          0          1
3712STPI18976    CIRCULAR     0.25       0          0          0          1
4263STPI18756    CIRCULAR     0.45       0          0          0          1
3725STPI19677    CIRCULAR     0.25       0          0          0          1
3821STPI15037    CIRCULAR     0.38       0          0          0          1
3069STPI18158    CIRCULAR     0.25       0          0          0          1
3657STPI19312    CIRCULAR     0.60       0          0          0          1
4004STPI15794    CIRCULAR     0.38       0          0          0          1
3221STPI18949    CIRCULAR     0.25       0          0          0          1
3437STPI19000    CIRCULAR     0.25       0          0          0          1
3501STPI18209    CIRCULAR     0.68       0          0          0          1
3808STPI18223    CIRCULAR     0.38       0          0          0          1
3524STPI18561    CIRCULAR     0.90       0          0          0          1
3576STPI15870    CIRCULAR     0.25       0          0          0          1
3599STPI18662    CIRCULAR     0.30       0          0          0          1
3593STPI18660    CIRCULAR     0.30       0          0          0          1
3646STPI18829    CIRCULAR     0.53       0          0          0          1
3710STPI18962    CIRCULAR     0.75       0          0          0          1
5731STPI19412    CIRCULAR     0.45       0          0          0          1
3229STPI19330    CIRCULAR     0.38       0          0          0          1
3547STPI19495    CIRCULAR     0.25       0          0          0          1
3806STPI19507    CIRCULAR     0.38       0          0          0          1
3679STPI19205    CIRCULAR     1.80       0          0          0          1
3630STPI19042    CIRCULAR     0.25       0          0          0          1
5809STPI19607    CIRCULAR     0.68       0          0          0          1
3744STPI18407    CIRCULAR     0.45       0          0          0          1
3011STPI15038    CIRCULAR     0.38       0          0          0          1
3804STPI19504    CIRCULAR     0.25       0          0          0          1
2965STPI18992    CIRCULAR     0.45       0          0          0          1
3367STPI18378    CIRCULAR     0.90       0          0          0          1
3368STPI18528    CIRCULAR     0.45       0          0          0          1
3042STPI18284    CIRCULAR     0.60       0          0          0          1
3460STPI18412    CIRCULAR     0.38       0          0          0          1
3074STPI18189    CIRCULAR     0.25       0          0          0          1
3407STPI19021    CIRCULAR     0.60       0          0          0          1
3295STPI18073    CIRCULAR     0.75       0          0          0          1
3779STPI19589    CIRCULAR     0.25       0          0          0          1
3699STPI18964    CIRCULAR     0.60       0          0          0          1
3075STPI18182    CIRCULAR     0.53       0          0          0          1
3807STPI19506    CIRCULAR     0.38       0          0          0          1
3291STPI18089    CIRCULAR     0.75       0          0          0          1
5785STPI18827    CIRCULAR     0.60       0          0          0          1
3902STPI18071    CIRCULAR     0.45       0          0          0          1
3802STPI19508    CIRCULAR     0.30       0          0          0          1
3922STPI18258    CIRCULAR     0.30       0          0          0          1
3394STPI18619    CIRCULAR     0.25       0          0          0          1
STPI18136A       CIRCULAR     0.90       0          0          0          1
3209STPI18339    CIRCULAR     1.35       0          0          0          1
5871STPI18475    CIRCULAR     0.45       0          0          0          1
3402STPI19646    CIRCULAR     0.25       0          0          0          1
4002STPI18088    CIRCULAR     0.45       0          0          0          1
5707STPI18384    CIRCULAR     1.05       0          0          0          1
3644STPI19089    CIRCULAR     0.53       0          0          0          1
3791STPI19672    CIRCULAR     0.45       0          0          0          1
3358STPI18210    CIRCULAR     0.90       0          0          0          1
3331STPI18980    CIRCULAR     0.25       0          0          0          1
3142STPI18264    CIRCULAR     0.53       0          0          0          1
3882STPI18999    CIRCULAR     0.20       0          0          0          1
4266STPI18142    CIRCULAR     1.35       0          0          0          1
3666STPI18447    CIRCULAR     0.30       0          0          0          1
3244STPI19402    CIRCULAR     0.25       0          0          0          1
3245STPI19405    CIRCULAR     0.53       0          0          0          1
3388STPI18368    CIRCULAR     0.53       0          0          0          1
3916STPI18589    CIRCULAR     0.30       0          0          0          1
4226STPI18566    CIRCULAR     0.53       0          0          0          1
3093STPI18233    CIRCULAR     1.05       0          0          0          1
5776STPI18963    CIRCULAR     0.53       0          0          0          1
3943STPI18836    CIRCULAR     0.90       0          0          0          1
3313STPI18296    CIRCULAR     0.45       0          0          0          1
3425STPI17687    CIRCULAR     0.30       0          0          0          1
3247STPI19403    CIRCULAR     0.53       0          0          0          1
5797STPI18832    CIRCULAR     0.60       0          0          0          1
2961STPI18991    CIRCULAR     0.45       0          0          0          1
3864STPI19609    CIRCULAR     0.68       0          0          0          1
3435STPI18308    CIRCULAR     0.38       0          0          0          1
3026STPI15837    CIRCULAR     0.25       0          0          0          1
3201STPI19091    CIRCULAR     0.53       0          0          0          1
3203STPI19092    CIRCULAR     0.53       0          0          0          1
3144STPI18257    CIRCULAR     0.53       0          0          0          1
3465STPI18167    CIRCULAR     1.05       0          0          0          1
3382STPI18382    CIRCULAR     1.05       0          0          0          1
4267STPI15405    CIRCULAR     0.20       0          0          0          1
3048STPI17697    CIRCULAR     0.45       0          0          0          1
3400STPI19645    CIRCULAR     0.25       0          0          0          1
3395STPI18435    CIRCULAR     0.53       0          0          0          1
3809STPI19509    CIRCULAR     0.25       0          0          0          1
5726STPI19418    CIRCULAR     0.45       0          0          0          1
3059STPI19271    CIRCULAR     0.30       0          0          0          1
3617STPI19024    CIRCULAR     0.30       0          0          0          1
3083STPI18179    CIRCULAR     1.05       0          0          0          1
3651STPI18845    CIRCULAR     0.75       0          0          0          1
3079STPI18175    CIRCULAR     1.05       0          0          0          1
3430STPI17685    CIRCULAR     0.45       0          0          0          1
3193STPI18467    CIRCULAR     1.05       0          0          0          1
3385STPI18356    CIRCULAR     0.25       0          0          0          1
3466STPI18169    CIRCULAR     1.05       0          0          0          1
3477STPI18146    CIRCULAR     0.25       0          0          0          1
3136STPI18193    CIRCULAR     0.25       0          0          0          1
3840STPI19074    CIRCULAR     0.38       0          0          0          1
3629STPI19015    CIRCULAR     0.30       0          0          0          1
3583STPI19296    CIRCULAR     0.25       0          0          0          1
3608STPI18510    CIRCULAR     0.25       0          0          0          1
3553STPI19528    CIRCULAR     0.60       0          0          0          1
3815STPI18807    CIRCULAR     0.25       0          0          0          1
3670STPI19180    CIRCULAR     0.25       0          0          0          1
4227STPI19005    CIRCULAR     0.20       0          0          0          1
3149STPI18315    CIRCULAR     0.25       0          0          0          1
3721STPI18913    CIRCULAR     0.68       0          0          0          1
3342STPI19503    CIRCULAR     0.25       0          0          0          1
3750STPI18399    CIRCULAR     1.05       0          0          0          1
5914STPI18855    CIRCULAR     0.38       0          0          0          1
3602STPI18655    CIRCULAR     0.45       0          0          0          1
3391STPI18375    CIRCULAR     0.60       0          0          0          1
3505STPI18466    CIRCULAR     1.05       0          0          0          1
3200STPI19039    CIRCULAR     0.25       0          0          0          1
3825STPI19594    CIRCULAR     0.20       0          0          0          1
3742STPI18409    CIRCULAR     0.45       0          0          0          1
3949STPI18799    CIRCULAR     0.60       0          0          0          1
3929STPI18692    CIRCULAR     0.75       0          0          0          1
3764STPI19568    CIRCULAR     0.53       0          0          0          1
3434STPI18345    CIRCULAR     0.25       0          0          0          1
3813STPI19310    CIRCULAR     0.30       0          0          0          1
3332STPI18981    CIRCULAR     0.25       0          0          0          1
5784STPI18823    CIRCULAR     0.60       0          0          0          1
3328STPI18935    CIRCULAR     0.45       0          0          0          1
3198STPI19027    CIRCULAR     0.25       0          0          0          1
3139STPI18183    CIRCULAR     0.53       0          0          0          1
5798STPI18555    CIRCULAR     0.75       0          0          0          1
5773STPI18990    CIRCULAR     0.45       0          0          0          1
3375STPI19263    CIRCULAR     0.25       0          0          0          1
3471STPI18159    CIRCULAR     0.25       0          0          0          1
3237STPI15438    CIRCULAR     0.20       0          0          0          1
3912STPI18606    CIRCULAR     0.25       0          0          0          1
3526STPI18564    CIRCULAR     0.90       0          0          0          1
3737STPI19293    CIRCULAR     0.30       0          0          0          1
3607STPI18512    CIRCULAR     0.25       0          0          0          1
3399STPI18267    CIRCULAR     0.25       0          0          0          1
3273STPI15799    CIRCULAR     0.38       0          0          0          1
3447STPI18292    CIRCULAR     0.45       0          0          0          1
3614STPI19098    CIRCULAR     0.25       0          0          0          1
4269STPI19698    CIRCULAR     2.40       0          0          0          1
3088STPI18161    CIRCULAR     1.05       0          0          0          1
4228STPI18922    CIRCULAR     0.30       0          0          0          1
4229STPI19543    CIRCULAR     0.25       0          0          0          1
3566STPI15811    CIRCULAR     0.25       0          0          0          1
3656STPI19179    CIRCULAR     0.25       0          0          0          1
3177STPI18431    CIRCULAR     0.60       0          0          0          1
3143STPI18273    CIRCULAR     0.38       0          0          0          1
3192STPI19268    CIRCULAR     0.25       0          0          0          1
3458STPI18472    CIRCULAR     1.05       0          0          0          1
3243STPI19406    CIRCULAR     0.53       0          0          0          1
3263STPI15424    CIRCULAR     0.45       0          0          0          1
3822STPI15033    CIRCULAR     0.30       0          0          0          1
3478STPI18346    CIRCULAR     0.30       0          0          0          1
3027STPI15818    CIRCULAR     0.20       0          0          0          1
3940STPI15900    CIRCULAR     0.45       0          0          0          1
3648STPI18831    CIRCULAR     0.53       0          0          0          1
3356STPI18177    CIRCULAR     1.05       0          0          0          1
3266STPI18683    CIRCULAR     0.75       0          0          0          1
3561STPI19346    CIRCULAR     0.30       0          0          0          1
4270STPI18924    CIRCULAR     0.45       0          0          0          1
3585STPI18542    CIRCULAR     0.25       0          0          0          1
3776STPI19586    CIRCULAR     0.30       0          0          0          1
3615STPI18658    CIRCULAR     0.38       0          0          0          1
3393STPI18618    CIRCULAR     0.25       0          0          0          1
3838STPI18934    CIRCULAR     0.38       0          0          0          1
2958STPI18941    CIRCULAR     0.25       0          0          0          1
3409STPI19019    CIRCULAR     0.60       0          0          0          1
3398STPI18268    CIRCULAR     0.25       0          0          0          1
3642STPI19105    CIRCULAR     0.25       0          0          0          1
3918STPI18221    CIRCULAR     0.30       0          0          0          1
3044STPI18834    CIRCULAR     0.60       0          0          0          1
3345STPI19501    CIRCULAR     0.25       0          0          0          1
3377STPI18279    CIRCULAR     0.25       0          0          0          1
2987STPI19625    CIRCULAR     0.25       0          0          0          1
3579STPI15862    CIRCULAR     0.30       0          0          0          1
3047STPI17693    CIRCULAR     0.25       0          0          0          1
3716STPI19332    CIRCULAR     0.30       0          0          0          1
3814STPI19187    CIRCULAR     0.38       0          0          0          1
3539STPI19334    CIRCULAR     0.30       0          0          0          1
3436STPI18521    CIRCULAR     0.75       0          0          0          1
3782STPI19275    CIRCULAR     0.68       0          0          0          1
3604STPI18695    CIRCULAR     0.75       0          0          0          1
3464STPI18168    CIRCULAR     1.05       0          0          0          1
3278STPI15858    CIRCULAR     0.30       0          0          0          1
3618STPI19031    CIRCULAR     0.45       0          0          0          1
3009STPI15436    CIRCULAR     0.20       0          0          0          1
3741STPI18404    CIRCULAR     0.90       0          0          0          1
3170STPI19494    CIRCULAR     0.25       0          0          0          1
3598STPI18689    CIRCULAR     0.75       0          0          0          1
3498STPI18240    CIRCULAR     0.30       0          0          0          1
3039STPI18729    CIRCULAR     0.30       0          0          0          1
3730STPI19288    CIRCULAR     0.30       0          0          0          1
3512STPI18427    CIRCULAR     0.30       0          0          0          1
3223STPI18951    CIRCULAR     0.25       0          0          0          1
3861STPI19616    CIRCULAR     0.38       0          0          0          1
3134STPI18259    CIRCULAR     0.60       0          0          0          1
3622STPI19025    CIRCULAR     0.25       0          0          0          1
3957STPI15807    CIRCULAR     0.38       0          0          0          1
3440STPI18998    CIRCULAR     0.25       0          0          0          1
3309STPI18540    CIRCULAR     0.30       0          0          0          1
4260STPI18343    CIRCULAR     1.35       0          0          0          1
3794STPI19183    CIRCULAR     0.60       0          0          0          1
3259STPI15414    CIRCULAR     0.25       0          0          0          1
3557STPI19208    CIRCULAR     0.53       0          0          0          1
3915STPI18090    CIRCULAR     0.75       0          0          0          1
3664STPI18425    CIRCULAR     0.75       0          0          0          1
3475STPI18155    CIRCULAR     0.25       0          0          0          1
3150STPI18358    CIRCULAR     0.25       0          0          0          1
3803STPI19505    CIRCULAR     0.25       0          0          0          1
3294STPI18064    CIRCULAR     0.75       0          0          0          1
3895STPI18982    CIRCULAR     0.20       0          0          0          1
3724STPI19295    CIRCULAR     0.25       0          0          0          1
2972STPI19687    CIRCULAR     1.80       0          0          0          1
3897STPI18972    CIRCULAR     0.20       0          0          0          1
3077STPI18207    CIRCULAR     0.25       0          0          0          1
3308STPI18536    CIRCULAR     0.25       0          0          0          1
3041STPI18840    CIRCULAR     0.90       0          0          0          1
3318STPI18289    CIRCULAR     0.45       0          0          0          1
3751STPI19679    CIRCULAR     0.25       0          0          0          1
3101STPI18572    CIRCULAR     0.53       0          0          0          1
4230STPI19283    CIRCULAR     0.30       0          0          0          1
3736STPI19292    CIRCULAR     0.30       0          0          0          1
3678STPI19209    CIRCULAR     0.53       0          0          0          1
3413STPI18367    CIRCULAR     0.53       0          0          0          1
3090STPI18256    CIRCULAR     0.38       0          0          0          1
5866STPI18172    CIRCULAR     0.38       0          0          0          1
3564STPI14800    CIRCULAR     0.45       0          0          0          1
3658STPI19178    CIRCULAR     0.25       0          0          0          1
3279STPI18919    CIRCULAR     0.60       0          0          0          1
3690STPI19206    CIRCULAR     1.65       0          0          0          1
3169STPI19493    CIRCULAR     0.30       0          0          0          1
3884STPI19272    CIRCULAR     0.20       0          0          0          1
3789STPI18593    CIRCULAR     0.45       0          0          0          1
3019STPI14582    CIRCULAR     0.25       0          0          0          1
3792STPI19447    CIRCULAR     0.90       0          0          0          1
3481STPI18608    CIRCULAR     0.75       0          0          0          1
3761STPI19550    CIRCULAR     0.75       0          0          0          1
3246STPI19400    CIRCULAR     0.45       0          0          0          1
3148STPI18312    CIRCULAR     0.75       0          0          0          1
3711STPI18971    CIRCULAR     0.25       0          0          0          1
3357STPI18320    CIRCULAR     0.60       0          0          0          1
3463STPI18596    CIRCULAR     0.30       0          0          0          1
3746STPI18418    CIRCULAR     0.60       0          0          0          1
3055STPI18085    CIRCULAR     0.45       0          0          0          1
3424STPI18171    CIRCULAR     0.38       0          0          0          1
3516STPI18569    CIRCULAR     0.90       0          0          0          1
4015STPI19407    CIRCULAR     0.45       0          0          0          1
3000STPI19662    CIRCULAR     0.30       0          0          0          1
3514STPI18473    CIRCULAR     0.60       0          0          0          1
4014STPI19404    CIRCULAR     0.30       0          0          0          1
3202STPI19093    CIRCULAR     0.45       0          0          0          1
4231STPI19570    CIRCULAR     0.45       0          0          0          1
3613STPI18487    CIRCULAR     0.75       0          0          0          1
3986STPI19417    CIRCULAR     0.60       0          0          0          1
3973STPI18265    CIRCULAR     0.53       0          0          0          1
3418STPI19061    CIRCULAR     0.38       0          0          0          1
3828STPI18185    CIRCULAR     0.53       0          0          0          1
3361STPI18317    CIRCULAR     0.53       0          0          0          1
3337STPI19537    CIRCULAR     0.60       0          0          0          1
2974STPI19686    CIRCULAR     1.80       0          0          0          1
3641STPI19088    CIRCULAR     0.53       0          0          0          1
3937STPI15832    CIRCULAR     1.20       0          0          0          1
5889STPI18611    CIRCULAR     0.45       0          0          0          1
3760STPI19541    CIRCULAR     0.25       0          0          0          1
3577STPI15876    CIRCULAR     0.25       0          0          0          1
3655STPI18833    CIRCULAR     0.60       0          0          0          1
3017STPI15843    CIRCULAR     0.30       0          0          0          1
3304STPI18298    CIRCULAR     0.25       0          0          0          1
3306STPI18534    CIRCULAR     0.25       0          0          0          1
3589STPI18571    CIRCULAR     0.90       0          0          0          1
3769STPI19580    CIRCULAR     0.60       0          0          0          1
3230STPI19397    CIRCULAR     0.20       0          0          0          1
3109STPI18365    CIRCULAR     0.30       0          0          0          1
3199STPI19032    CIRCULAR     0.45       0          0          0          1
3587STPI18549    CIRCULAR     1.65       0          0          0          1
3681STPI18344    CIRCULAR     1.35       0          0          0          1
3800STPI19325    CIRCULAR     0.53       0          0          0          1
3037STPI18730    CIRCULAR     0.30       0          0          0          1
3349STPI15408    CIRCULAR     0.30       0          0          0          1
3024STPI15835    CIRCULAR     0.20       0          0          0          1
3153STPI18372    CIRCULAR     0.53       0          0          0          1
3541STPI19335    CIRCULAR     0.30       0          0          0          1
3034STPI18217    CIRCULAR     0.25       0          0          0          1
3893STPI18357    CIRCULAR     0.20       0          0          0          1
3914STPI19201    CIRCULAR     1.80       0          0          0          1
3160STPI18362    CIRCULAR     0.25       0          0          0          1
5751STPI18495    CIRCULAR     0.45       0          0          0          1
3639STPI18986    CIRCULAR     0.60       0          0          0          1
3790STPI19190    CIRCULAR     0.45       0          0          0          1
3687STPI19681    CIRCULAR     1.80       0          0          0          1
3578STPI15869    CIRCULAR     0.30       0          0          0          1
3070STPI18211    CIRCULAR     0.90       0          0          0          1
3634STPI19030    CIRCULAR     0.60       0          0          0          1
3554STPI19527    CIRCULAR     0.75       0          0          0          1
3560STPI19344    CIRCULAR     0.25       0          0          0          1
3571STPI15887    CIRCULAR     0.30       0          0          0          1
3810STPI19186    CIRCULAR     0.38       0          0          0          1
3271STPI18921    CIRCULAR     0.53       0          0          0          1
3745STPI19565    CIRCULAR     0.45       0          0          0          1
3145STPI18260    CIRCULAR     0.60       0          0          0          1
4272STPI19046    CIRCULAR     0.60       0          0          0          1
3184STPI18449    CIRCULAR     0.30       0          0          0          1
3462STPI18414    CIRCULAR     0.25       0          0          0          1
3019STPI15840    CIRCULAR     0.53       0          0          0          1
3426STPI17686    CIRCULAR     0.90       0          0          0          1
5808STPI19610    CIRCULAR     0.53       0          0          0          1
3562STPI14801    CIRCULAR     0.45       0          0          0          1
5774STPI18995    CIRCULAR     0.45       0          0          0          1
3649STPI18838    CIRCULAR     0.25       0          0          0          1
3723STPI19001    CIRCULAR     0.25       0          0          0          1
3600STPI18690    CIRCULAR     0.75       0          0          0          1
3671STPI18501    CIRCULAR     0.38       0          0          0          1
3991STPI19536    CIRCULAR     0.60       0          0          0          1
3156STPI18727    CIRCULAR     0.25       0          0          0          1
3504STPI18477    CIRCULAR     0.45       0          0          0          1
3376STPI18130    CIRCULAR     1.80       0          0          0          1
3373STPI19053    CIRCULAR     0.45       0          0          0          1
3843STPI19633    CIRCULAR     0.25       0          0          0          1
3448STPI18295    CIRCULAR     0.45       0          0          0          1
3022STPI15825    CIRCULAR     0.45       0          0          0          1
3441STPI19002    CIRCULAR     0.30       0          0          0          1
3114STPI18347    CIRCULAR     0.30       0          0          0          1
3155STPI18721    CIRCULAR     0.45       0          0          0          1
3154STPI18381    CIRCULAR     1.05       0          0          0          1
3739STPI19290    CIRCULAR     0.30       0          0          0          1
3013STPI19693    CIRCULAR     2.40       0          0          0          1
3248STPI19414    CIRCULAR     0.60       0          0          0          1
3910STPI18395    CIRCULAR     0.75       0          0          0          1
2983STPI19626    CIRCULAR     0.25       0          0          0          1
3998STPI18927    CIRCULAR     0.38       0          0          0          1
3832STPI18266    CIRCULAR     0.20       0          0          0          1
3704STPI18664    CIRCULAR     0.25       0          0          0          1
3718STPI19384    CIRCULAR     0.68       0          0          0          1
2999STPI19663    CIRCULAR     0.30       0          0          0          1
3467STPI18150    CIRCULAR     0.38       0          0          0          1
3164STPI18363    CIRCULAR     0.25       0          0          0          1
3487STPI18261    CIRCULAR     0.53       0          0          0          1
3981STPI19161    CIRCULAR     0.38       0          0          0          1
3290STPI18400    CIRCULAR     1.05       0          0          0          1
3694STPI18965    CIRCULAR     0.60       0          0          0          1
3966STPI18830    CIRCULAR     0.53       0          0          0          1
3660STPI18507    CIRCULAR     0.60       0          0          0          1
3507STPI18190    CIRCULAR     0.25       0          0          0          1
3241STPI15425    CIRCULAR     0.53       0          0          0          1
3519STPI18514    CIRCULAR     0.68       0          0          0          1
3967STPI18848    CIRCULAR     0.53       0          0          0          1
3365STPI18366    CIRCULAR     0.30       0          0          0          1
2962STPI18943    CIRCULAR     0.25       0          0          0          1
3468STPI18151    CIRCULAR     0.38       0          0          0          1
3645STPI18490    CIRCULAR     0.45       0          0          0          1
3423STPI19056    CIRCULAR     0.30       0          0          0          1
3953STPI15819    CIRCULAR     0.25       0          0          0          1
3091STPI18197    CIRCULAR     0.68       0          0          0          1
3383STPI18383    CIRCULAR     1.05       0          0          0          1
3381STPI18068    CIRCULAR     0.30       0          0          0          1
2955STPI18939    CIRCULAR     0.38       0          0          0          1
3014STPI15792    CIRCULAR     0.60       0          0          0          1
3366STPI18726    CIRCULAR     0.25       0          0          0          1
2989STPI19642    CIRCULAR     0.30       0          0          0          1
3503STPI18754    CIRCULAR     0.45       0          0          0          1
3220STPI18970    CIRCULAR     0.38       0          0          0          1
3459STPI18416    CIRCULAR     0.45       0          0          0          1
3529STPI18544    CIRCULAR     0.25       0          0          0          1
3611STPI18494    CIRCULAR     0.45       0          0          0          1
3171STPI18397    CIRCULAR     0.90       0          0          0          1
3086STPI18249    CIRCULAR     0.30       0          0          0          1
3058STPI18079    CIRCULAR     0.75       0          0          0          1
3705STPI18959    CIRCULAR     0.68       0          0          0          1
3508STPI18218    CIRCULAR     0.25       0          0          0          1
3179STPI18666    CIRCULAR     0.90       0          0          0          1
3450STPI19062    CIRCULAR     0.38       0          0          0          1
3663STPI18203    CIRCULAR     0.60       0          0          0          1
3401STPI19648    CIRCULAR     0.30       0          0          0          1
2979STPI18681    CIRCULAR     0.75       0          0          0          1
3546STPI19416    CIRCULAR     0.68       0          0          0          1
3359STPI18213    CIRCULAR     0.25       0          0          0          1
3339STPI19592    CIRCULAR     0.38       0          0          0          1
3285STPI18436    CIRCULAR     0.53       0          0          0          1
3752STPI19553    CIRCULAR     0.75       0          0          0          1
3758STPI19544    CIRCULAR     0.25       0          0          0          1
5730STPI19415    CIRCULAR     0.68       0          0          0          1
3759STPI19542    CIRCULAR     0.25       0          0          0          1
3964STPI17869    CIRCULAR     0.30       0          0          0          1
4276STPI18577    CIRCULAR     0.45       0          0          0          1
3923STPI15865    CIRCULAR     0.25       0          0          0          1
3533STPI18556    CIRCULAR     0.90       0          0          0          1
3105STPI18574    CIRCULAR     0.53       0          0          0          1
3543STPI19333    CIRCULAR     0.25       0          0          0          1
3364STPI18380    CIRCULAR     1.05       0          0          0          1
3406STPI19029    CIRCULAR     0.25       0          0          0          1
3722STPI18433    CIRCULAR     0.30       0          0          0          1
3689STPI19203    CIRCULAR     1.80       0          0          0          1
3250STPI18196    CIRCULAR     0.68       0          0          0          1
3213STPI18287    CIRCULAR     0.25       0          0          0          1
3535STPI18550    CIRCULAR     1.65       0          0          0          1
2990STPI19641    CIRCULAR     0.25       0          0          0          1
3001STPI19666    CIRCULAR     0.45       0          0          0          1
3128STPI18516    CIRCULAR     0.90       0          0          0          1
3106STPI18471    CIRCULAR     1.05       0          0          0          1
3527STPI18563    CIRCULAR     0.90       0          0          0          1
3293STPI18069    CIRCULAR     0.60       0          0          0          1
3194STPI18463    CIRCULAR     1.05       0          0          0          1
3363STPI18359    CIRCULAR     0.25       0          0          0          1
3488STPI18238    CIRCULAR     0.20       0          0          0          1
3033STPI15859    CIRCULAR     0.30       0          0          0          1
2998STPI19660    CIRCULAR     0.25       0          0          0          1
3317STPI18530    CIRCULAR     0.45       0          0          0          1
3397STPI19619    CIRCULAR     0.75       0          0          0          1
3987STPI19419    CIRCULAR     0.60       0          0          0          1
3405STPI19043    CIRCULAR     0.25       0          0          0          1
3959STPI15826    CIRCULAR     0.38       0          0          0          1
3956STPI15839    CIRCULAR     0.38       0          0          0          1
3926STPI18696    CIRCULAR     0.75       0          0          0          1
5101.1           CIRCULAR     0.45       0          0          0          1
3799STPI19327    CIRCULAR     0.53       0          0          0          1
3591STPI19151    CIRCULAR     0.90       0          0          0          1
3654STPI18835    CIRCULAR     0.75       0          0          0          1
3137STPI18181    CIRCULAR     0.53       0          0          0          1
3089STPI18200    CIRCULAR     0.68       0          0          0          1
4005STPI19076    CIRCULAR     0.38       0          0          0          1
3580STPI15853    CIRCULAR     0.25       0          0          0          1
3532STPI18552    CIRCULAR     1.65       0          0          0          1
3906STPI15881    CIRCULAR     0.25       0          0          0          1
3698STPI18974    CIRCULAR     0.25       0          0          0          1
3605STPI18649    CIRCULAR     0.90       0          0          0          1
3896STPI18977    CIRCULAR     0.20       0          0          0          1
3642STPI19650    CIRCULAR     0.25       0          0          0          1
3692STPI18960    CIRCULAR     0.68       0          0          0          1
3442STPI19003    CIRCULAR     0.30       0          0          0          1
3421STPI19057    CIRCULAR     0.30       0          0          0          1
3167STPI18379    CIRCULAR     0.90       0          0          0          1
3619STPI19023    CIRCULAR     0.25       0          0          0          1
3848STPI19638    CIRCULAR     0.45       0          0          0          1
3008STPI15433    CIRCULAR     0.30       0          0          0          1
3938STPI15846    CIRCULAR     0.45       0          0          0          1
3728STPI19284    CIRCULAR     0.53       0          0          0          1
3410STPI19044    CIRCULAR     0.60       0          0          0          1
3841STPI19075    CIRCULAR     0.38       0          0          0          1
3544STPI19408    CIRCULAR     0.25       0          0          0          1
3682STPI18144    CIRCULAR     1.05       0          0          0          1
3411STPI19020    CIRCULAR     0.60       0          0          0          1
4003STPI15793    CIRCULAR     0.60       0          0          0          1
3616STPI19034    CIRCULAR     0.38       0          0          0          1
3948STPI18274    CIRCULAR     0.45       0          0          0          1
3286STPI18437    CIRCULAR     0.53       0          0          0          1
3257STPI19497    CIRCULAR     0.25       0          0          0          1
4232STPI19552    CIRCULAR     0.25       0          0          0          1
3500STPI18212    CIRCULAR     0.90       0          0          0          1
3877STPI15828    CIRCULAR     0.20       0          0          0          1
3346STPI18482    CIRCULAR     0.30       0          0          0          1
3141STPI18198    CIRCULAR     0.68       0          0          0          1
3768STPI19579    CIRCULAR     0.60       0          0          0          1
3181STPI18677    CIRCULAR     0.90       0          0          0          1
3536STPI18548    CIRCULAR     1.65       0          0          0          1
3785STPI19277    CIRCULAR     0.53       0          0          0          1
3214STPI18280    CIRCULAR     0.25       0          0          0          1
3531STPI18551    CIRCULAR     1.65       0          0          0          1
3963STPI17689    CIRCULAR     0.38       0          0          0          1
3311STPI18537    CIRCULAR     0.25       0          0          0          1
3050STPI19269    CIRCULAR     0.25       0          0          0          1
3031STPI15877    CIRCULAR     0.30       0          0          0          1
3212STPI18800    CIRCULAR     0.30       0          0          0          1
4233STPI19112    CIRCULAR     0.25       0          0          0          1
3049STPI19281    CIRCULAR     0.53       0          0          0          1
3640STPI18988    CIRCULAR     0.25       0          0          0          1
2992STPI19639    CIRCULAR     0.45       0          0          0          1
3555STPI19323    CIRCULAR     0.53       0          0          0          1
2957STPI18940    CIRCULAR     0.25       0          0          0          1
3486STPI18254    CIRCULAR     0.38       0          0          0          1
3129STPI18509    CIRCULAR     0.25       0          0          0          1
3283STPI18911    CIRCULAR     0.90       0          0          0          1
2971STPI19685    CIRCULAR     1.80       0          0          0          1
3558STPI19345    CIRCULAR     0.30       0          0          0          1
3715STPI19331    CIRCULAR     0.30       0          0          0          1
3855STPI19606    CIRCULAR     0.68       0          0          0          1
3950STPI18918    CIRCULAR     0.38       0          0          0          1
3847STPI19635    CIRCULAR     0.25       0          0          0          1
3110STPI19566    CIRCULAR     0.25       0          0          0          1
3374STPI19066    CIRCULAR     0.25       0          0          0          1
3298STPI18282    CIRCULAR     0.25       0          0          0          1
3624STPI19037    CIRCULAR     0.25       0          0          0          1
4000STPI18931    CIRCULAR     0.45       0          0          0          1
3066STPI18713    CIRCULAR     0.30       0          0          0          1
3173STPI18396    CIRCULAR     0.75       0          0          0          1
3296STPI18065    CIRCULAR     0.75       0          0          0          1
3766STPI19577    CIRCULAR     0.60       0          0          0          1
3396STPI18430    CIRCULAR     0.38       0          0          0          1
3784STPI19278    CIRCULAR     0.45       0          0          0          1
3341STPI19596    CIRCULAR     0.20       0          0          0          1
3592STPI18691    CIRCULAR     0.75       0          0          0          1
3133STPI18243    CIRCULAR     0.60       0          0          0          1
3643STPI19102    CIRCULAR     0.25       0          0          0          1
3064STPI19270    CIRCULAR     0.30       0          0          0          1
3117STPI18325    CIRCULAR     0.30       0          0          0          1
2969STPI19691    CIRCULAR     1.80       0          0          0          1
5796STPI18841    CIRCULAR     0.53       0          0          0          1
3360STPI18206    CIRCULAR     0.68       0          0          0          1
3166STPI18360    CIRCULAR     0.25       0          0          0          1
3774STPI19584    CIRCULAR     0.30       0          0          0          1
3208STPI18499    CIRCULAR     0.45       0          0          0          1
3496STPI18276    CIRCULAR     0.45       0          0          0          1
3826STPI19605    CIRCULAR     0.68       0          0          0          1
2973STPI19688    CIRCULAR     1.80       0          0          0          1
3778STPI19588    CIRCULAR     0.25       0          0          0          1
3205STPI18432    CIRCULAR     0.38       0          0          0          1
4234STPI19547    CIRCULAR     0.38       0          0          0          1
3588STPI18667    CIRCULAR     0.90       0          0          0          1
3379STPI19394    CIRCULAR     0.68       0          0          0          1
3845STPI18442    CIRCULAR     0.30       0          0          0          1
3961STPI15868    CIRCULAR     0.30       0          0          0          1
3029STPI15806    CIRCULAR     0.38       0          0          0          1
3653STPI19104    CIRCULAR     0.25       0          0          0          1
3601STPI18654    CIRCULAR     0.45       0          0          0          1
3628STPI19041    CIRCULAR     0.25       0          0          0          1
3163STPI18364    CIRCULAR     0.30       0          0          0          1
4235STPI19340    CIRCULAR     0.25       0          0          0          1
3860STPI19604    CIRCULAR     0.30       0          0          0          1
3384STPI18385    CIRCULAR     1.05       0          0          0          1
3032STPI15872    CIRCULAR     0.25       0          0          0          1
3197STPI15884    CIRCULAR     0.38       0          0          0          1
3958STPI15845    CIRCULAR     0.45       0          0          0          1
3731STPI19289    CIRCULAR     0.25       0          0          0          1
3343STPI19502    CIRCULAR     0.25       0          0          0          1
3662STPI19045    CIRCULAR     0.60       0          0          0          1
3172STPI18481    CIRCULAR     0.60       0          0          0          1
3222STPI18950    CIRCULAR     0.25       0          0          0          1
3652STPI19099    CIRCULAR     0.25       0          0          0          1
3491STPI18251    CIRCULAR     1.05       0          0          0          1
3043STPI18837    CIRCULAR     0.25       0          0          0          1
3355STPI18232    CIRCULAR     1.05       0          0          0          1
4280STPI19692    CIRCULAR     2.40       0          0          0          1
3706STPI18966    CIRCULAR     0.60       0          0          0          1
3878STPI17690    CIRCULAR     0.38       0          0          0          1
3429STPI17698    CIRCULAR     0.45       0          0          0          1
3520STPI18511    CIRCULAR     0.25       0          0          0          1
3255STPI18908    CIRCULAR     0.30       0          0          0          1
3020STPI15838    CIRCULAR     0.30       0          0          0          1
5875STPI18403    CIRCULAR     0.90       0          0          0          1
3913STPI18324    CIRCULAR     0.25       0          0          0          1
3894STPI19101    CIRCULAR     0.25       0          0          0          1
3610STPI18842    CIRCULAR     0.53       0          0          0          1
3215STPI18281    CIRCULAR     0.25       0          0          0          1
3097STPI18541    CIRCULAR     0.30       0          0          0          1
3371STPI19054    CIRCULAR     0.45       0          0          0          1
3891STPI17684    CIRCULAR     0.38       0          0          0          1
5890STPI18439    CIRCULAR     0.75       0          0          0          1
3038STPI18731    CIRCULAR     0.30       0          0          0          1
4279STPI18937    CIRCULAR     0.60       0          0          0          1
3470STPI18152    CIRCULAR     0.45       0          0          0          1
3528STPI18288    CIRCULAR     0.45       0          0          0          1
3416STPI15823    CIRCULAR     0.25       0          0          0          1
3023STPI15827    CIRCULAR     0.45       0          0          0          1
4236STPI18072    CIRCULAR     1.80       0          0          0          1
3518STPI18290    CIRCULAR     0.45       0          0          0          1
3016STPI15848    CIRCULAR     0.45       0          0          0          1
3453STPI18131    CIRCULAR     0.90       0          0          0          1
5740STPI18247    CIRCULAR     0.38       0          0          0          1
3256STPI19511    CIRCULAR     0.25       0          0          0          1
3523STPI18849    CIRCULAR     0.53       0          0          0          1
2966STPI19554    CIRCULAR     0.75       0          0          0          1
3432STPI18675    CIRCULAR     0.90       0          0          0          1
3493STPI18235    CIRCULAR     1.05       0          0          0          1
3892STPI17694    CIRCULAR     0.25       0          0          0          1
4237STPI19390    CIRCULAR     0.45       0          0          0          1
3811STPI18805    CIRCULAR     0.30       0          0          0          1
3509STPI18194    CIRCULAR     0.25       0          0          0          1
2980STPI18682    CIRCULAR     0.75       0          0          0          1
3176STPI18438    CIRCULAR     0.75       0          0          0          1
3483STPI18263    CIRCULAR     0.38       0          0          0          1
3818STPI19298    CIRCULAR     0.20       0          0          0          1
5752STPI18489    CIRCULAR     0.45       0          0          0          1
3819STPI19233    CIRCULAR     0.45       0          0          0          1
3513STPI18568    CIRCULAR     0.90       0          0          0          1
3443STPI18520    CIRCULAR     0.25       0          0          0          1
3494STPI18220    CIRCULAR     0.45       0          0          0          1
3062STPI19634    CIRCULAR     0.30       0          0          0          1
3072STPI18186    CIRCULAR     0.53       0          0          0          1
3130STPI18321    CIRCULAR     0.60       0          0          0          1
3733STPI19301    CIRCULAR     0.25       0          0          0          1
3258STPI19499    CIRCULAR     0.25       0          0          0          1
4238STPI19096    CIRCULAR     0.25       0          0          0          1
3267STPI15411    CIRCULAR     0.30       0          0          0          1
3780STPI19601    CIRCULAR     0.25       0          0          0          1
3021STPI15830    CIRCULAR     0.20       0          0          0          1
3235STPI19305    CIRCULAR     0.30       0          0          0          1
3190STPI19485    CIRCULAR     0.30       0          0          0          1
3314STPI18529    CIRCULAR     0.45       0          0          0          1
3326STPI18930    CIRCULAR     0.68       0          0          0          1
3881STPI19065    CIRCULAR     0.20       0          0          0          1
3833STPI18720    CIRCULAR     0.45       0          0          0          1
3060STPI18081    CIRCULAR     0.45       0          0          0          1
3696STPI18659    CIRCULAR     0.38       0          0          0          1
2995STPI18553    CIRCULAR     1.80       0          0          0          1
2985STPI19621    CIRCULAR     0.25       0          0          0          1
3939STPI19072    CIRCULAR     0.30       0          0          0          1
3771STPI19582    CIRCULAR     0.60       0          0          0          1
5727STPI19409    CIRCULAR     0.25       0          0          0          1
3123STPI18415    CIRCULAR     0.60       0          0          0          1
3835STPI18847    CIRCULAR     0.45       0          0          0          1
3476STPI18148    CIRCULAR     0.25       0          0          0          1
3734STPI19678    CIRCULAR     0.25       0          0          0          1
3168STPI18355    CIRCULAR     0.25       0          0          0          1
2986STPI19623    CIRCULAR     0.25       0          0          0          1
3305STPI18533    CIRCULAR     0.45       0          0          0          1
3140STPI18252    CIRCULAR     1.05       0          0          0          1
3303STPI18524    CIRCULAR     0.25       0          0          0          1
3563STPI14803    CIRCULAR     0.53       0          0          0          1
3322STPI18547    CIRCULAR     1.65       0          0          0          1
3120STPI18493    CIRCULAR     0.45       0          0          0          1
3080STPI18214    CIRCULAR     0.25       0          0          0          1
4239STPI19401    CIRCULAR     0.45       0          0          0          1
3609STPI19097    CIRCULAR     0.38       0          0          0          1
3061STPI18444    CIRCULAR     0.45       0          0          0          1
3251STPI18909    CIRCULAR     0.25       0          0          0          1
3178STPI18429    CIRCULAR     0.30       0          0          0          1
3224STPI18952    CIRCULAR     0.25       0          0          0          1
3729STPI19276    CIRCULAR     0.68       0          0          0          1
3269STPI15409    CIRCULAR     0.30       0          0          0          1
5736STPI18236    CIRCULAR     1.05       0          0          0          1
3370STPI19063    CIRCULAR     0.38       0          0          0          1
2982STPI19622    CIRCULAR     0.25       0          0          0          1
3556STPI19343    CIRCULAR     0.25       0          0          0          1
3010STPI15435    CIRCULAR     0.60       0          0          0          1
2956STPI18938    CIRCULAR     0.38       0          0          0          1
3984STPI19311    CIRCULAR     0.60       0          0          0          1
4283STPI18338    CIRCULAR     1.35       0          0          0          1
3890STPI15460    CIRCULAR     0.15       0          0          0          1
3327STPI18932    CIRCULAR     0.45       0          0          0          1
3469STPI18153    CIRCULAR     0.45       0          0          0          1
3408STPI19038    CIRCULAR     0.38       0          0          0          1
3672STPI18515    CIRCULAR     0.30       0          0          0          1
3941STPI17683    CIRCULAR     0.38       0          0          0          1
2959STPI18942    CIRCULAR     0.25       0          0          0          1
3934STPI19395    CIRCULAR     0.45       0          0          0          1
3717STPI19383    CIRCULAR     0.68       0          0          0          1
3445STPI18291    CIRCULAR     0.45       0          0          0          1
5720STPI18184    CIRCULAR     0.53       0          0          0          1
3082STPI18187    CIRCULAR     0.53       0          0          0          1
3018STPI15841    CIRCULAR     0.30       0          0          0          1
3414STPI18135    CIRCULAR     0.90       0          0          0          1
3997STPI18912    CIRCULAR     0.38       0          0          0          1
5763STPI18313    CIRCULAR     0.60       0          0          0          1
3071STPI18192    CIRCULAR     0.25       0          0          0          1
5783STPI18822    CIRCULAR     0.75       0          0          0          1
3594STPI18652    CIRCULAR     0.90       0          0          0          1
3052STPI18080    CIRCULAR     0.75       0          0          0          1
3485STPI18255    CIRCULAR     0.45       0          0          0          1
5786STPI18825    CIRCULAR     0.20       0          0          0          1
3863STPI19597    CIRCULAR     0.25       0          0          0          1
3185STPI18445    CIRCULAR     0.30       0          0          0          1
3119STPI18492    CIRCULAR     0.45       0          0          0          1
3431STPI17691    CIRCULAR     0.38       0          0          0          1
3387STPI18370    CIRCULAR     0.53       0          0          0          1
3573STPI15880    CIRCULAR     0.45       0          0          0          1
3552STPI19529    CIRCULAR     0.45       0          0          0          1
3015STPI15847    CIRCULAR     0.45       0          0          0          1
3260STPI15416    CIRCULAR     0.25       0          0          0          1
3817STPI19337    CIRCULAR     0.30       0          0          0          1
3189STPI19069    CIRCULAR     0.25       0          0          0          1
3787STPI19274    CIRCULAR     0.68       0          0          0          1
3277STPI15820    CIRCULAR     0.38       0          0          0          1
3268STPI15410    CIRCULAR     0.30       0          0          0          1
3502STPI14802    CIRCULAR     0.60       0          0          0          1
4010STPI19016    CIRCULAR     0.30       0          0          0          1
5737STPI18242    CIRCULAR     0.60       0          0          0          1
3439STPI19004    CIRCULAR     0.30       0          0          0          1
3773STPI19583    CIRCULAR     0.38       0          0          0          1
3151STPI18717    CIRCULAR     0.53       0          0          0          1
3143STPI18275    CIRCULAR     0.30       0          0          0          1
3783STPI19398    CIRCULAR     0.68       0          0          0          1
3887STPI19302    CIRCULAR     0.25       0          0          0          1
3492STPI18278    CIRCULAR     0.20       0          0          0          1
3299STPI18286    CIRCULAR     0.60       0          0          0          1
3788STPI19279    CIRCULAR     0.45       0          0          0          1
3028STPI15815    CIRCULAR     0.20       0          0          0          1
3666STPI18586    CIRCULAR     0.30       0          0          0          1
3517STPI18570    CIRCULAR     0.90       0          0          0          1
3993STPI18993    CIRCULAR     0.45       0          0          0          1
4006STPI19185    CIRCULAR     0.38       0          0          0          1
3428STPI17695    CIRCULAR     0.45       0          0          0          1
3262STPI15412    CIRCULAR     1.20       0          0          0          1
3637STPI18984    CIRCULAR     0.25       0          0          0          1
3798STPI19328    CIRCULAR     0.25       0          0          0          1
3301STPI18522    CIRCULAR     0.25       0          0          0          1
3121STPI18116    CIRCULAR     0.75       0          0          0          1
3289STPI18401    CIRCULAR     0.90       0          0          0          1
3473STPI18201    CIRCULAR     0.25       0          0          0          1
3650STPI19103    CIRCULAR     0.25       0          0          0          1
3104STPI18573    CIRCULAR     0.53       0          0          0          1
3568STPI15899    CIRCULAR     0.53       0          0          0          1
3801STPI19326    CIRCULAR     0.53       0          0          0          1
3319STPI18293    CIRCULAR     0.25       0          0          0          1
3131STPI18310    CIRCULAR     0.30       0          0          0          1
3451STPI18420    CIRCULAR     0.60       0          0          0          1
3446STPI18525    CIRCULAR     0.25       0          0          0          1
3056STPI18078    CIRCULAR     0.75       0          0          0          1
3288STPI18402    CIRCULAR     0.90       0          0          0          1
3603STPI18663    CIRCULAR     0.30       0          0          0          1
5910STPI19264    CIRCULAR     0.45       0          0          0          1
5806STPI19614    CIRCULAR     0.38       0          0          0          1
2984STPI19624    CIRCULAR     0.25       0          0          0          1
5863STPI19018    CIRCULAR     0.45       0          0          0          1
3125STPI18753    CIRCULAR     0.60       0          0          0          1
3921STPI18651    CIRCULAR     0.30       0          0          0          1
3905STPI18594    CIRCULAR     0.30       0          0          0          1
3538STPI18828    CIRCULAR     0.60       0          0          0          1
5757STPI18491    CIRCULAR     0.45       0          0          0          1
3901STPI18269    CIRCULAR     0.20       0          0          0          1
3312STPI18297    CIRCULAR     0.25       0          0          0          1
3457STPI19413    CIRCULAR     0.68       0          0          0          1
3732STPI19286    CIRCULAR     0.38       0          0          0          1
3933STPI19100    CIRCULAR     0.25       0          0          0          1
3674STPI19265    CIRCULAR     0.45       0          0          0          1
4282STPI18670    CIRCULAR     0.38       0          0          0          1
3175STPI18440    CIRCULAR     0.75       0          0          0          1
3195STPI18478    CIRCULAR     0.45       0          0          0          1
3335STPI19591    CIRCULAR     0.38       0          0          0          1
3586STPI18558    CIRCULAR     0.60       0          0          0          1
3837STPI18997    CIRCULAR     0.25       0          0          0          1
2963STPI18996    CIRCULAR     0.45       0          0          0          1
3051STPI18076    CIRCULAR     1.80       0          0          0          1
3559STPI19341    CIRCULAR     0.30       0          0          0          1
3606STPI18191    CIRCULAR     0.25       0          0          0          1
5867STPI19012    CIRCULAR     0.60       0          0          0          1
3040STPI18843    CIRCULAR     0.75       0          0          0          1
3900STPI18354    CIRCULAR     0.90       0          0          0          1
3886STPI19647    CIRCULAR     0.15       0          0          0          1
3006STPI15423    CIRCULAR     0.45       0          0          0          1
3621STPI19035    CIRCULAR     0.30       0          0          0          1
3805STPI19510    CIRCULAR     0.25       0          0          0          1
3868STPI18333    CIRCULAR     1.35       0          0          0          1
3875STPI18330    CIRCULAR     1.35       0          0          0          1
4296STPI18337    CIRCULAR     1.35       0          0          0          1
3867STPI18336    CIRCULAR     1.35       0          0          0          1
4294STPI18334    CIRCULAR     1.35       0          0          0          1
3871STPI18329    CIRCULAR     1.35       0          0          0          1
4295STPI18331    CIRCULAR     1.35       0          0          0          1
4299STPI19729    CIRCULAR     0.38       0          0          0          1
4297STPI18335    CIRCULAR     1.35       0          0          0          1
4298STPI18332    CIRCULAR     1.35       0          0          0          1
3876STPI18319    CIRCULAR     0.45       0          0          0          1
3872STPI19731    CIRCULAR     0.25       0          0          0          1
3874STPI18305    CIRCULAR     0.25       0          0          0          1
3873STPI19732    CIRCULAR     0.25       0          0          0          1
3869STPI19730    CIRCULAR     0.38       0          0          0          1
3866STPI18133    CIRCULAR     0.90       0          0          0          1
3452STPI18716    CIRCULAR     0.90       0          0          0          1
3969STCV15927    CIRCULAR     3.00       0          0          0          1
4011STCV15929    CIRCULAR     3.00       0          0          0          1
4007STCV17896    CIRCULAR     0.60       0          0          0          1
3985STCV17969    CIRCULAR     0.75       0          0          0          1
3992STCV17947    CIRCULAR     0.68       0          0          0          1
3954STCV17893    CIRCULAR     1.80       0          0          0          1
3248STCV17960    CIRCULAR     0.38       0          0          0          1
3942STCV15933    CIRCULAR     0.30       0          0          0          1
4012STCV15923    CIRCULAR     2.40       0          0          0          1
3975STCV17905    CIRCULAR     1.80       0          0          0          1
4302STCV17880    CIRCULAR     0.45       0          0          0          1
3980STCV17894    CIRCULAR     1.20       0          0          0          1
4165STCV17965    CIRCULAR     0.30       0          0          0          1
3982STCV17972    CIRCULAR     1.05       0          0          0          1
4112STCV17967    CIRCULAR     1.80       0          0          0          1
3996STCV17899    CIRCULAR     0.90       0          0          0          1
3284STCV17900    CIRCULAR     0.90       0          0          0          1
4137STCV17901    CIRCULAR     0.90       0          0          0          1
3977STCV15932    CIRCULAR     3.00       0          0          0          1
3974STCV17904    CIRCULAR     1.80       0          0          0          1
3936STCV17898    CIRCULAR     0.90       0          0          0          1
4193STCV17964    CIRCULAR     0.30       0          0          0          1
3978STCV15931    CIRCULAR     3.00       0          0          0          1
4169STCV17958    CIRCULAR     0.38       0          0          0          1
4009STCV17955    CIRCULAR     0.60       0          0          0          1
3947STCV15930    CIRCULAR     4.05       0          0          0          1
3994STCV17871    CIRCULAR     2.40       0          0          0          1
3983STCV17897    CIRCULAR     0.90       0          0          0          1
4258STCV15855    CIRCULAR     0.60       0          0          0          1
4277STCV17870    CIRCULAR     1.80       0          0          0          1
4210STCV17962    CIRCULAR     0.30       0          0          0          1
4170STCV17959    CIRCULAR     0.30       0          0          0          1
3951STCV17892    CIRCULAR     3.00       0          0          0          1
2975STCV17882    CIRCULAR     3.00       0          0          0          1
4130STCV17961    CIRCULAR     0.30       0          0          0          1
3946STCV17910    CIRCULAR     0.60       0          0          0          1
4013STCV15922    CIRCULAR     1.80       0          0          0          1
3944STCV15936    CIRCULAR     0.45       0          0          0          1
3989STCV17975    CIRCULAR     0.60       0          0          0          1
3990STCV17976    CIRCULAR     0.60       0          0          0          1
4199STCV17963    CIRCULAR     0.30       0          0          0          1
3970STCV17881    CIRCULAR     0.30       0          0          0          1
4008STCV17954    CIRCULAR     1.80       0          0          0          1
3988STCV17973    CIRCULAR     0.90       0          0          0          1
4305STCV17956    CIRCULAR     0.60       0          0          0          1
3995STCV17902    CIRCULAR     0.30       0          0          0          1
4001STCV17928    CIRCULAR     0.90       0          0          0          1
3632STCV17957    CIRCULAR     0.38       0          0          0          1
4096GASTWC0001   TRAPEZOIDAL  1.00       1.50       1          1          1
4097GASTWC0002   TRAPEZOIDAL  1.00       1.50       1          1          1
4099GASTWC0003   TRAPEZOIDAL  1.00       1.50       1          1          1
4101GASTWC0004   TRAPEZOIDAL  1.00       1.50       1          1          1
4102GASTWC0005   TRAPEZOIDAL  1.00       1.50       1          1          1
4098GASTWC0006   TRAPEZOIDAL  1.00       1.50       1          1          1
4136GASTWC0007   TRAPEZOIDAL  1.00       1.50       1          1          1
4104GASTWC0012   TRAPEZOIDAL  1.00       1.50       1          1          1
4106GASTWC0013   TRAPEZOIDAL  1.00       1.50       1          1          1
4105GASTWC0014   TRAPEZOIDAL  1.00       1.50       1          1          1
4039GASTWC0017   TRAPEZOIDAL  1.00       1.50       1          1          1
4109GASTWC0018   TRAPEZOIDAL  1.00       1.50       1          1          1
4108GASTWC0021   TRAPEZOIDAL  1.00       1.50       1          1          1
4065GASTWC0022   TRAPEZOIDAL  1.00       1.50       1          1          1
4107GASTWC0024   TRAPEZOIDAL  1.00       1.50       1          1          1
4110GASTWC0027   TRAPEZOIDAL  1.00       1.50       1          1          1
4085GASTWC0028   TRAPEZOIDAL  1.00       1.50       1          1          1
4052GASTWC0029   TRAPEZOIDAL  1.00       1.50       1          1          1
4043GASTWC0031   TRAPEZOIDAL  1.00       1.50       1          1          1
4038GASTWC0032   TRAPEZOIDAL  1.00       1.50       1          1          1
4017GASTWC0036   TRAPEZOIDAL  1.00       1.50       1          1          1
4113GASTWC0037   TRAPEZOIDAL  1.00       1.50       1          1          1
4115GASTWC0039   TRAPEZOIDAL  1.00       1.50       1          1          1
4029GASTWC0040   TRAPEZOIDAL  1.00       1.50       1          1          1
4118GASTWC0041   TRAPEZOIDAL  1.00       1.50       1          1          1
4116GASTWC0044   TRAPEZOIDAL  1.00       1.50       1          1          1
4123GASTWC0047   TRAPEZOIDAL  1.00       1.50       1          1          1
4083GASTWC0048   TRAPEZOIDAL  1.00       1.50       1          1          1
4120GASTWC0049   TRAPEZOIDAL  1.00       1.50       1          1          1
4121GASTWC0053   TRAPEZOIDAL  1.00       1.50       1          1          1
4122GASTWC0055   TRAPEZOIDAL  1.00       1.50       1          1          1
4117GASTWC0056   TRAPEZOIDAL  1.00       1.50       1          1          1
4124GASTWC0057   TRAPEZOIDAL  1.00       1.50       1          1          1
4062GASTWC0059   TRAPEZOIDAL  1.00       1.50       1          1          1
4127GASTWC0061   TRAPEZOIDAL  1.00       1.50       1          1          1
4133GASTWC0062   TRAPEZOIDAL  1.00       1.50       1          1          1
4084GASTWC0066   TRAPEZOIDAL  1.00       1.50       1          1          1
4016GASTWC0067   TRAPEZOIDAL  1.00       1.50       1          1          1
4119GASTWC0069   TRAPEZOIDAL  1.00       1.50       1          1          1
4111GASTWC0075   TRAPEZOIDAL  1.00       1.50       1          1          1
4128GASTWC0076   TRAPEZOIDAL  1.00       1.50       1          1          1
4028GASTWC0079   TRAPEZOIDAL  1.00       1.50       1          1          1
4080GASTWC0080   TRAPEZOIDAL  1.00       1.50       1          1          1
4027GASTWC0081   TRAPEZOIDAL  1.00       1.50       1          1          1
4082GASTWC0082   TRAPEZOIDAL  1.00       1.50       1          1          1
4125GASTWC0085   TRAPEZOIDAL  1.00       1.50       1          1          1
4030GASTWC0086   TRAPEZOIDAL  1.00       1.50       1          1          1
4059GASTWC0087   TRAPEZOIDAL  1.00       1.50       1          1          1
4061GASTWC0088   TRAPEZOIDAL  1.00       1.50       1          1          1
4022GASTWC0089   TRAPEZOIDAL  1.00       1.50       1          1          1
4053GASTWC0092   TRAPEZOIDAL  1.00       1.50       1          1          1
4244GASTWC0094   TRAPEZOIDAL  1.00       1.50       1          1          1
4131GASTWC0095   TRAPEZOIDAL  1.00       1.50       1          1          1
4089GASTWC0096   TRAPEZOIDAL  1.00       1.50       1          1          1
4132GASTWC0097   TRAPEZOIDAL  1.00       1.50       1          1          1
4134GASTWC0098   TRAPEZOIDAL  1.00       1.50       1          1          1
4135GASTWC0099   TRAPEZOIDAL  1.00       1.50       1          1          1
4066GASTWC0101   TRAPEZOIDAL  1.00       1.50       1          1          1
4138GASTWC0102   TRAPEZOIDAL  1.00       1.50       1          1          1
4087GASTWC0103   TRAPEZOIDAL  1.00       1.50       1          1          1
4037GASTWC0105   TRAPEZOIDAL  1.00       1.50       1          1          1
4140GASTWC0106   TRAPEZOIDAL  1.00       1.50       1          1          1
4141GASTWC0107   TRAPEZOIDAL  1.00       1.50       1          1          1
4071GASTWC0112   TRAPEZOIDAL  1.00       1.50       1          1          1
4143GASTWC0113   TRAPEZOIDAL  0.50       0.50       1          1          1
4150GASTWC0114   TRAPEZOIDAL  0.50       0.50       1          1          1
4146GASTWC0115   TRAPEZOIDAL  0.50       0.50       1          1          1
4145GASTWC0116   TRAPEZOIDAL  0.50       0.50       1          1          1
4147GASTWC0118   TRAPEZOIDAL  0.50       0.50       1          1          1
4148GASTWC0119   TRAPEZOIDAL  0.50       0.50       1          1          1
4149GASTWC0120   TRAPEZOIDAL  0.50       0.50       1          1          1
4114GASTWC0121   TRAPEZOIDAL  0.50       0.50       1          1          1
4144GASTWC0123   TRAPEZOIDAL  0.50       0.50       1          1          1
4095GASTWC0124   TRAPEZOIDAL  1.00       1.50       1          1          1
4094GASTWC0125   TRAPEZOIDAL  1.00       1.50       1          1          1
4033GASTWC0126   TRAPEZOIDAL  1.00       1.50       1          1          1
4090GASTWC0127   TRAPEZOIDAL  1.00       1.50       1          1          1
4151GASTWC0128   TRAPEZOIDAL  1.00       1.50       1          1          1
4153GASTWC0129   TRAPEZOIDAL  1.00       1.50       1          1          1
4154GASTWC0130   TRAPEZOIDAL  1.00       1.50       1          1          1
4155GASTWC0131   TRAPEZOIDAL  1.00       1.50       1          1          1
4157GASTWC0132   TRAPEZOIDAL  1.00       1.50       1          1          1
4159GASTWC0133   TRAPEZOIDAL  1.00       1.50       1          1          1
4162GASTWC0134   TRAPEZOIDAL  0.50       0.50       1          1          1
4163GASTWC0135   TRAPEZOIDAL  0.50       0.50       1          1          1
4164GASTWC0136   TRAPEZOIDAL  0.50       0.50       1          1          1
4093GASTWC0137   TRAPEZOIDAL  0.50       0.50       1          1          1
4058GASTWC0138   TRAPEZOIDAL  0.50       0.50       1          1          1
4067GASTWC0139   TRAPEZOIDAL  0.50       0.50       1          1          1
4171GASTWC0140   TRAPEZOIDAL  0.50       0.50       1          1          1
4161GASTWC0141   TRAPEZOIDAL  0.50       0.50       1          1          1
4172GASTWC0146   TRAPEZOIDAL  0.50       0.50       1          1          1
4088GASTWC0154   TRAPEZOIDAL  0.50       0.50       1          1          1
4051GASTWC0160   TRAPEZOIDAL  0.50       0.50       1          1          1
4175GASTWC0168   TRAPEZOIDAL  0.50       0.50       1          1          1
4176GASTWC0173   TRAPEZOIDAL  0.50       0.50       1          1          1
4177GASTWC0174   TRAPEZOIDAL  0.50       0.50       1          1          1
4178GASTWC0178   TRAPEZOIDAL  0.50       0.50       1          1          1
4179GASTWC0181   TRAPEZOIDAL  0.50       0.50       1          1          1
4184GASTWC0182   TRAPEZOIDAL  0.50       0.50       1          1          1
4182GASTWC0183   TRAPEZOIDAL  0.50       0.50       1          1          1
4183GASTWC0184   TRAPEZOIDAL  0.50       0.50       1          1          1
4190GASTWC0185   TRAPEZOIDAL  0.50       0.50       1          1          1
4185GASTWC0186   TRAPEZOIDAL  0.50       0.50       1          1          1
4186GASTWC0188   TRAPEZOIDAL  0.50       0.50       1          1          1
4187GASTWC0200   TRAPEZOIDAL  0.50       0.50       1          1          1
4073GASTWC0202   TRAPEZOIDAL  0.50       0.50       1          1          1
4180GASTWC0210   TRAPEZOIDAL  0.50       0.50       1          1          1
4188GASTWC0211   TRAPEZOIDAL  0.50       0.50       1          1          1
4189GASTWC0213   TRAPEZOIDAL  0.50       0.50       1          1          1
4191GASTWC0214   TRAPEZOIDAL  0.50       0.50       1          1          1
4192GASTWC0216   TRAPEZOIDAL  0.50       0.50       1          1          1
4194GASTWC0217   TRAPEZOIDAL  0.50       0.50       1          1          1
4181GASTWC0218   TRAPEZOIDAL  0.50       0.50       1          1          1
4195GASTWC0219   TRAPEZOIDAL  0.50       0.50       1          1          1
4196GASTWC0223   TRAPEZOIDAL  0.50       0.50       1          1          1
4064GASTWC0224   TRAPEZOIDAL  0.50       0.50       1          1          1
4197GASTWC0225   TRAPEZOIDAL  0.50       0.50       1          1          1
4198GASTWC0226   TRAPEZOIDAL  0.50       0.50       1          1          1
4200GASTWC0227   TRAPEZOIDAL  0.50       0.50       1          1          1
4201GASTWC0228   TRAPEZOIDAL  0.50       0.50       1          1          1
4202GASTWC0230   TRAPEZOIDAL  0.50       0.50       1          1          1
4021GASTWC0239   TRAPEZOIDAL  0.50       0.50       1          1          1
4174GASTWC0241   TRAPEZOIDAL  0.50       0.50       1          1          1
4204GASTWC0242   TRAPEZOIDAL  0.50       0.50       1          1          1
4205GASTWC0250   TRAPEZOIDAL  0.50       0.50       1          1          1
4206GASTWC0251   TRAPEZOIDAL  0.50       0.50       1          1          1
4075GASTWC0252   TRAPEZOIDAL  0.50       0.50       1          1          1
4207GASTWC0253   TRAPEZOIDAL  0.50       0.50       1          1          1
4208GASTWC0254   TRAPEZOIDAL  0.50       0.50       1          1          1
4209GASTWC0255   TRAPEZOIDAL  0.50       0.50       1          1          1
4211GASTWC0257   TRAPEZOIDAL  0.50       0.50       1          1          1
4212GASTWC0258   TRAPEZOIDAL  0.50       0.50       1          1          1
4213GASTWC0259   TRAPEZOIDAL  0.50       0.50       1          1          1
4019GASTWC0260   TRAPEZOIDAL  0.50       0.50       1          1          1
4079GASTWC0264   TRAPEZOIDAL  0.50       0.50       1          1          1
4077GASTWC0265   TRAPEZOIDAL  0.50       0.50       1          1          1
4060GASTWC0266   TRAPEZOIDAL  0.50       0.50       1          1          1
4046GASTWC0267   TRAPEZOIDAL  0.50       0.50       1          1          1
4070GASTWC0273   TRAPEZOIDAL  0.50       0.50       1          1          1
4055GASTWC0286   TRAPEZOIDAL  1.00       1.50       1          1          1
4026GASTWC0293   TRAPEZOIDAL  1.00       1.50       1          1          1
4076GASTWC0294   TRAPEZOIDAL  1.00       1.50       1          1          1
4216GASTWC0295   TRAPEZOIDAL  1.00       1.50       1          1          1
3999STCV17870A   CIRCULAR     1.80       0          0          0          1
4300STCV15932A   CIRCULAR     3.00       0          0          0          1
4254STCV15927A   CIRCULAR     3.00       0          0          0          1
4303STCV15930A   CIRCULAR     4.05       0          0          0          1
4286STCV17897A   CIRCULAR     0.90       0          0          0          1
4217GASTWC1002   TRAPEZOIDAL  1.00       1.50       1          1          1
4308GASTWC1005   TRAPEZOIDAL  1.00       1.50       1          1          1
4036GASTWC1006   TRAPEZOIDAL  0.50       0.50       1          1          1
4081GASTWC1007   TRAPEZOIDAL  1.00       1.50       1          1          1
4078GASTWC1008   TRAPEZOIDAL  0.50       0.50       1          1          1
4290STCV17904A   CIRCULAR     1.80       0          0          0          1
4252GASTCV1001   CIRCULAR     1.50       1.00       0          0          1
4041GASTWC1010   TRAPEZOIDAL  1.00       1.50       1          1          1
4309GASTWC1014   TRAPEZOIDAL  1.00       1.50       1          1          1
4040GASTWC1015   TRAPEZOIDAL  0.50       0.50       1          1          1
4248STCV17954A   CIRCULAR     1.80       0          0          0          1
4310GASTWC1018   TRAPEZOIDAL  1.00       1.50       1          1          1
4049GASTWC1019   TRAPEZOIDAL  0.50       0.50       1          1          1
4311GASTWC1021   TRAPEZOIDAL  1.00       1.50       1          1          1
4056GASTWC1022   TRAPEZOIDAL  1.00       1.50       1          1          1
4312GASTWC1023   TRAPEZOIDAL  1.00       1.50       1          1          1
4042GASTWC1024   TRAPEZOIDAL  0.50       0.50       1          1          1
4215GASTWC1025   TRAPEZOIDAL  0.50       0.50       1          1          1
4313GASTWC1026   TRAPEZOIDAL  1.00       1.50       1          1          1
4048GASTWC1027   TRAPEZOIDAL  1.00       1.50       1          1          1
4262STPI15832A   CIRCULAR     1.20       0          0          0          1
4287STPI18220A   CIRCULAR     0.45       0          0          0          1
4265STPI18232A   CIRCULAR     1.05       0          0          0          1
4281STPI18232B   CIRCULAR     1.05       0          0          0          1
4247STPI18236A   CIRCULAR     1.05       0          0          0          1
3111STPI18462A   CIRCULAR     1.05       0          0          0          1
4268STPI18130A   CIRCULAR     1.80       0          0          0          1
4288STPI18131A   CIRCULAR     0.90       0          0          0          1
4284STCV17900A   CIRCULAR     0.90       0          0          0          1
4274STPI18926A   CIRCULAR     0.38       0          0          0          1
4271STPI19403A   CIRCULAR     0.53       0          0          0          1
4166GASTWC1029   TRAPEZOIDAL  0.50       0.50       1          1          1
4050GASTWC1030   TRAPEZOIDAL  0.50       0.50       1          1          1
3002STPI18134A   CIRCULAR     0.90       0          0          0          1
4278STPI18143A   CIRCULAR     1.35       0          0          0          1
4292STPI18129A   CIRCULAR     1.80       0          0          0          1
4289STPI18075A   CIRCULAR     1.80       0          0          0          1
3665STPI18756A   CIRCULAR     0.45       0          0          0          1
3099STPI18572A   CIRCULAR     0.53       0          0          0          1
4291STPI18649A   CIRCULAR     0.90       0          0          0          1
4275STPI19605A   CIRCULAR     0.68       0          0          0          1
4261STPI18667A   CIRCULAR     0.90       0          0          0          1
4240STPI19554A   CIRCULAR     0.75       0          0          0          1
4246STPI18329A   CIRCULAR     1.35       0          0          0          1
4293STCV17871A   CIRCULAR     2.40       0          0          0          1
4054GASTWC1028   TRAPEZOIDAL  1.00       1.50       1          1          1
4314GASTWC1031   TRAPEZOIDAL  0.50       0.50       1          1          1
4315GASTWC1032   TRAPEZOIDAL  0.50       0.50       1          1          1
4045GASTWC1033   TRAPEZOIDAL  0.50       0.50       1          1          1
4031GASTWC1034   TRAPEZOIDAL  0.50       0.50       1          1          1
4139GASTWC1035   TRAPEZOIDAL  1.00       1.50       1          1          1
4167GASTCV1002   CIRCULAR     0.68       1.00       0          0          1
4214STCV18016    CIRCULAR     0.90       1.00       0          0          1
4173GASTCV1004   CIRCULAR     0.38       1.00       0          0          1
4203GASTCV1005   CIRCULAR     0.38       1.00       0          0          1
4047GASTCV1006   CIRCULAR     0.60       1.00       0          0          1
4152GASTCV1007   RECT_CLOSED  2.00       4.00       0          0          1
4316GASTWC1036   TRAPEZOIDAL  1.00       1.50       1          1          1
4160GASTCV1008   CIRCULAR     2.10       1.00       0          0          1
4158GASTCV1009   CIRCULAR     1.50       1.00       0          0          1
4156GASTCV1010   CIRCULAR     1.50       1.00       0          0          1
4068GASTWC1037   TRAPEZOIDAL  0.50       0.50       1          1          1
4317GASTWC1038   TRAPEZOIDAL  1.00       1.50       1          1          1
4092GASTWC1039   TRAPEZOIDAL  0.50       0.50       1          1          1
4318GASTWC1040   TRAPEZOIDAL  1.00       1.50       1          1          1
4074GASTWC1041   TRAPEZOIDAL  0.50       0.50       1          1          1
4035GASTWC1048   TRAPEZOIDAL  0.50       0.50       1          1          1
4023GASTWC1049   TRAPEZOIDAL  0.50       0.50       1          1          1
4319GASTWC1050   TRAPEZOIDAL  1.00       1.50       1          1          1
4086GASTWC1051   TRAPEZOIDAL  0.50       0.50       1          1          1
4044GASTWC1053   TRAPEZOIDAL  0.50       0.50       1          1          1
4103GASTWC1001   TRAPEZOIDAL  1.00       1.50       1          1          1
4034POND2A_UP    CIRCULAR     0.50       0          0          0          1
5704POND2A_DN    CIRCULAR     0.50       0          0          0          1
4025POND3B_UP    CIRCULAR     0.50       0          0          0          1
5716POND3B_DN    CIRCULAR     0.50       0          0          0          1
4057POND4_UP     CIRCULAR     0.50       0          0          0          1
5723POND4_DN     CIRCULAR     0.50       0          0          0          1
4024POND3A_UP    CIRCULAR     0.35       0          0          0          1
5744POND3A_DN    CIRCULAR     0.35       0          0          0          1
4020POND5_UP     CIRCULAR     0.50       0          0          0          1
5747POND5_DN     CIRCULAR     0.50       0          0          0          1
4072POND6_UP     CIRCULAR     0.50       0          0          0          1
5765POND6_DN     CIRCULAR     0.50       0          0          0          1
4069POND8A_UP    CIRCULAR     0.50       0          0          0          1
5772POND8A_DN    CIRCULAR     0.50       0          0          0          1
4032POND8B_UP    CIRCULAR     0.50       0          0          0          1
5787POND8B_DN    CIRCULAR     0.50       0          0          0          1
4063POND10_UP    CIRCULAR     0.50       0          0          0          1
5794POND10_DN    CIRCULAR     0.50       0          0          0          1
4091POND12A_UP   CIRCULAR     0.50       0          0          0          1
5805POND12A_DN   CIRCULAR     0.50       0          0          0          1
5756Link2838     CIRCULAR     1.00       0          0          0          1
3361Link2839     CIRCULAR     1.00       0          0          0          1
3362Link2840     CIRCULAR     1.00       0          0          0          1
3701Link2841     CIRCULAR     1.00       0          0          0          1
3714Link2842     CIRCULAR     1.00       0          0          0          1
3740Link2843     CIRCULAR     1.00       0          0          0          1
3045Link2844     CIRCULAR     1.00       0          0          0          1
3534Link2845     CIRCULAR     0.50       0          0          0          1
2977Link2846     CIRCULAR     1.00       0          0          0          1
3856Link2847     CIRCULAR     1.00       0          0          0          1
3854Link2848     CIRCULAR     1.00       0          0          0          1
3661Link2849     CIRCULAR     1.00       0          0          0          1
3152Link2850     CIRCULAR     1.00       0          0          0          1
3668Link2851     CIRCULAR     1.00       0          0          0          1
3489Link2852     CIRCULAR     1.00       0          0          0          1
2976Link2853     CIRCULAR     1.00       0          0          0          1
5719Link2854     CIRCULAR     1.00       0          0          0          1
3545Link2855     CIRCULAR     1.00       0          0          0          1
3550Link2856     CIRCULAR     1.00       0          0          0          1
3211Link2857     CIRCULAR     1.00       0          0          0          1
4129GASTWC1004   TRAPEZOIDAL  1.00       1.50       1          1          1
4018GASTWC1054   TRAPEZOIDAL  1.00       1.50       1          1          1
5880STPI18410    CIRCULAR     0.45       0          0          0          1
5881STPI18613    CIRCULAR     0.45       0          0          0          1
4126GASTCV1011   CIRCULAR     0.45       0          0          0          1
4168GASTWC1055   TRAPEZOIDAL  0.50       0.50       1          1          1
3635Link2876     CIRCULAR     1.00       0          0          0          1
3749Link2877     CIRCULAR     1.00       0          0          0          1
3506Link2878     CIRCULAR     1.00       0          0          0          1
3742Link2879     CIRCULAR     1.00       0          0          0          1
5901STPI19697    CIRCULAR     2.40       0          0          0          1
5903STPI19696B   CIRCULAR     1.50       0          0          0          1
4273STPI19696A   CIRCULAR     1.50       0          0          0          1
5906GASTWC1056   TRAPEZOIDAL  0.50       0.50       1          1          1
5906STCV18015    CIRCULAR     0.38       0          0          0          1
36612A-SG-01     RECT_CLOSED  1.00       1.00       0          0
31522A-SG-02     RECT_CLOSED  1.00       1.00       0          0
57193B-SG-01     RECT_CLOSED  1.00       1.00       0          0
35454-SG-02      RECT_CLOSED  1.00       1.00       0          0
35504-SG-01      RECT_CLOSED  1.00       1.00       0          0
36683A-SG-01     RECT_CLOSED  1.00       1.00       0          0
29763A-SG-02     RECT_CLOSED  1.00       1.00       0          0
32115-SG-01      RECT_CLOSED  1.00       1.00       0          0
57565-SG-02      RECT_CLOSED  0.37       0.37       0          0
33616-SG-02      RECT_CLOSED  1.00       1.00       0          0
33626-SG-01      RECT_CLOSED  0.37       0.37       0          0
37148A-SG-02     RECT_CLOSED  0.26       0.26       0          0
37018A-SG-01     RECT_CLOSED  0.38       0.38       0          0
37408B-SG-01     RECT_CLOSED  0.21       0.21       0          0
30458B-SG-02     RECT_CLOSED  0.32       0.32       0          0
353410-SG-01     RECT_CLOSED  1.00       1.00       0          0
297710-SG-02     RECT_CLOSED  1.00       1.00       0          0
385612A-SG-01    RECT_CLOSED  1.00       1.00       0          0
385412A-SG-02    RECT_CLOSED  1.00       1.00       0          0
34893A-SG-03     RECT_CLOSED  1.00       1.00       0          0
5862SG-02        RECT_CLOSED  1.00       1.00       0          0
3635SG-03        RECT_CLOSED  1.00       1.00       0          0
3749SG-18        RECT_CLOSED  1.00       1.00       0          0
3742SG-19_1      RECT_CLOSED  1.00       1.00       0          0
3742SG-19_2      RECT_CLOSED  1.00       1.00       0          0
3506SG-20        RECT_CLOSED  1.00       1.00       0          0
5911SG-23        RECT_CLOSED  1.00       1.00       0          0
3002SG23         RECT_CLOSED  1.00       1.00       0          0
31512A-WR-01     RECT_OPEN    1.00       2.40       0          0
31522A-WR-02     RECT_OPEN    1.00       1.80       0          0
57193B-WR-01     TRIANGULAR   1.00       1.50       0          0
35454-WR-02      TRIANGULAR   1.00       2.40       0          0
35504-WR-01      TRIANGULAR   1.00       2.40       0          0
31883A-WR-01     RECT_OPEN    1.00       2.40       0          0
29763A-WR-02     RECT_OPEN    1.00       2.40       0          0
32115-WR-02      RECT_OPEN    1.00       2.10       0          0
32105-WR-01      RECT_OPEN    1.00       2.40       0          0
57565-WR-03      TRIANGULAR   1.00       1.80       0          0
33626-WR-01      TRIANGULAR   1.00       2.10       0          0
37148A-WR-02     TRIANGULAR   1.00       1.80       0          0
37018A-WR-01     TRIANGULAR   1.00       2.40       0          0
37408B-WR-01     TRIANGULAR   1.00       2.40       0          0
30458B-WR-02     RECT_OPEN    1.00       2.40       0          0
353410-WR-01     TRIANGULAR   1.00       2.40       0          0
297710-WR-02     RECT_OPEN    1.00       2.40       0          0
385612A-WR-01    RECT_OPEN    1.00       1.80       0          0
385412A-WR-02    RECT_OPEN    1.00       1.80       0          0
34893A-WR-03     TRIANGULAR   1.00       1.80       0          0
3413WR-02        RECT_OPEN    1.00       1.30       0          0
3635WR-03        RECT_OPEN    1.00       2.10       0          0
3415WR-08_1      RECT_OPEN    1.00       1.60       0          0
3415WR-08_2      RECT_OPEN    1.00       1.00       0          0
3749WR-18        TRIANGULAR   1.00       1.80       0          0
3506WR-20        TRIANGULAR   1.00       1.50       0          0
3554WR-23        RECT_OPEN    1.00       2.00       0          0

[LOSSES]
;;Link           Inlet      Outlet     Average    Flap Gate
;;-------------- ---------- ---------- ---------- ----------
3676STPI19262    0          0          0          NO
3147STPI18361    0          0          0          NO
3765STPI19593    0          0          0          NO
3962STPI15854    0          0          0          NO
3753STPI18576    0          0          0          NO
3909STPI18202    0          0          0          NO
3703STPI18961    0          0          0          NO
3858STPI19598    0          0          0          NO
2988STPI19644    0          0          0          NO
3511STPI19399    0          0          0          NO
3586STPI18557    0          0          0          NO
3754STPI19549    0          0          0          NO
3479STPI18309    0          0          0          NO
3275STPI15844    0          0          0          NO
3735STPI19300    0          0          0          NO
3839STPI19073    0          0          0          NO
3324STPI18915    0          0          0          NO
3232STPI19304    0          0          0          NO
3572STPI15882    0          0          0          NO
3227STPI15851    0          0          0          NO
3157STPI18724    0          0          0          NO
3354STPI18178    0          0          0          NO
3842STPI18933    0          0          0          NO
3625STPI19014    0          0          0          NO
2964STPI18994    0          0          0          NO
3300STPI18285    0          0          0          NO
3530STPI18543    0          0          0          NO
3228STPI15852    0          0          0          NO
3919STPI18725    0          0          0          NO
3226STPI18956    0          0          0          NO
3757STPI19545    0          0          0          NO
3834STPI18824    0          0          0          NO
3004STPI15426    0          0          0          NO
3078STPI18162    0          0          0          NO
5775STPI18985    0          0          0          NO
3659STPI18508    0          0          0          NO
3499STPI18250    0          0          0          NO
3495STPI18234    0          0          0          NO
3219STPI18948    0          0          0          NO
3753STPI18579    0          0          0          NO
3386STPI18371    0          0          0          NO
3746STPI18419    0          0          0          NO
3786STPI19280    0          0          0          NO
3885STPI19599    0          0          0          NO
3036STPI18732    0          0          0          NO
3540STPI19339    0          0          0          NO
3831STPI18496    0          0          0          NO
3218STPI18947    0          0          0          NO
3076STPI18149    0          0          0          NO
3438STPI19313    0          0          0          NO
3945STPI15893    0          0          0          NO
3767STPI19578    0          0          0          NO
3567STPI15861    0          0          0          NO
3282STPI18928    0          0          0          NO
5807STPI19611    0          0          0          NO
3726STPI19291    0          0          0          NO
3204STPI19090    0          0          0          NO
4218STPI18917    0          0          0          NO
3928STPI18688    0          0          0          NO
3253STPI18904    0          0          0          NO
5712STPI18722    0          0          0          NO
3820STPI15437    0          0          0          NO
3234STPI19308    0          0          0          NO
3581STPI15856    0          0          0          NO
3697STPI18975    0          0          0          NO
3738STPI19294    0          0          0          NO
3747STPI18405    0          0          0          NO
3770STPI19581    0          0          0          NO
3231STPI19396    0          0          0          NO
3456STPI18077    0          0          0          NO
3853STPI19618    0          0          0          NO
2968STPI19682    0          0          0          NO
3924STPI18600    0          0          0          NO
5762STPI18318    0          0          0          NO
4219STPI19059    0          0          0          NO
4220STPI19282    0          0          0          NO
3638STPI18983    0          0          0          NO
3907STPI15863    0          0          0          NO
3917STPI18270    0          0          0          NO
3158STPI18421    0          0          0          NO
3727STPI19285    0          0          0          NO
3537STPI18650    0          0          0          NO
3667STPI18446    0          0          0          NO
5817STPI18245    0          0          0          NO
3081STPI18156    0          0          0          NO
3942STPI17868    0          0          0          NO
3138STPI18272    0          0          0          NO
3702STPI18957    0          0          0          NO
3829STPI18248    0          0          0          NO
5870STPI18474    0          0          0          NO
5795STPI18846    0          0          0          NO
3525STPI18562    0          0          0          NO
3850STPI18687    0          0          0          NO
3584STPI19297    0          0          0          NO
3626STPI19159    0          0          0          NO
3007STPI15451    0          0          0          NO
3824STPI15036    0          0          0          NO
3146STPI18253    0          0          0          NO
3347STPI18219    0          0          0          NO
3636STPI18987    0          0          0          NO
3903STPI18588    0          0          0          NO
3206STPI14581    0          0          0          NO
3118STPI18323    0          0          0          NO
3633STPI19391    0          0          0          NO
3812STPI18806    0          0          0          NO
3880STPI18620    0          0          0          NO
3183STPI18424    0          0          0          NO
3548STPI19410    0          0          0          NO
3816STPI19230    0          0          0          NO
3239STPI15430    0          0          0          NO
3570STPI15890    0          0          0          NO
3972STPI18423    0          0          0          NO
3490STPI18137    0          0          0          NO
2978STPI18684    0          0          0          NO
3899STPI18944    0          0          0          NO
3851STPI19600    0          0          0          NO
3844STPI19632    0          0          0          NO
3336STPI19590    0          0          0          NO
3542STPI19338    0          0          0          NO
4249STPI18470    0          0          0          NO
3095STPI18205    0          0          0          NO
3925STPI18580    0          0          0          NO
3315STPI18532    0          0          0          NO
3210STPI18488    0          0          0          NO
3196STPI18476    0          0          0          NO
3911STPI18303    0          0          0          NO
3292STPI18067    0          0          0          NO
3030STPI15850    0          0          0          NO
3280STPI18914    0          0          0          NO
3073STPI18180    0          0          0          NO
3329STPI18979    0          0          0          NO
3207STPI18486    0          0          0          NO
3378STPI19392    0          0          0          NO
4250STPI19531    0          0          0          NO
3302STPI18294    0          0          0          NO
3236STPI19307    0          0          0          NO
3836STPI15795    0          0          0          NO
3323STPI18567    0          0          0          NO
4221STPI19207    0          0          0          NO
3249STPI18905    0          0          0          NO
3935STPI19060    0          0          0          NO
2993STPI18434    0          0          0          NO
4222STPI19022    0          0          0          NO
3310STPI18538    0          0          0          NO
3968STPI19617    0          0          0          NO
3484STPI18271    0          0          0          NO
3971STPI18498    0          0          0          NO
3691STPI18661    0          0          0          NO
3035STPI18733    0          0          0          NO
3348STPI19496    0          0          0          NO
3369STPI19064    0          0          0          NO
3756STPI19546    0          0          0          NO
3808STPI18225    0          0          0          NO
3427STPI17696    0          0          0          NO
4223STPI19387    0          0          0          NO
3569STPI15849    0          0          0          NO
3297STPI18066    0          0          0          NO
3116STPI18302    0          0          0          NO
3720STPI19382    0          0          0          NO
3389STPI18377    0          0          0          NO
3612STPI19094    0          0          0          NO
3920STPI18656    0          0          0          NO
3565STPI15812    0          0          0          NO
3127STPI18484    0          0          0          NO
3351STPI18165    0          0          0          NO
3454STPI18134    0          0          0          NO
3025STPI15836    0          0          0          NO
3797STPI19329    0          0          0          NO
3632STPI19389    0          0          0          NO
3287STPI18755    0          0          0          NO
3823STPI15035    0          0          0          NO
4251STPI19573    0          0          0          NO
3684STPI18166    0          0          0          NO
3325STPI18916    0          0          0          NO
4224STPI19017    0          0          0          NO
3796STPI19324    0          0          0          NO
3932STPI18500    0          0          0          NO
5786STPI18826    0          0          0          NO
3879STPI18316    0          0          0          NO
3316STPI18531    0          0          0          NO
3376STPI18546    0          0          0          NO
2997STPI19661    0          0          0          NO
3781STPI19649    0          0          0          NO
3846STPI19637    0          0          0          NO
3165STPI18374    0          0          0          NO
5741STPI18244    0          0          0          NO
3126STPI18517    0          0          0          NO
3510STPI18157    0          0          0          NO
3455STPI18322    0          0          0          NO
3480STPI18607    0          0          0          NO
3094STPI18204    0          0          0          NO
5816STPI18246    0          0          0          NO
3404STPI19040    0          0          0          NO
3793STPI19182    0          0          0          NO
3762STPI19569    0          0          0          NO
3233STPI19306    0          0          0          NO
3595STPI18665    0          0          0          NO
3272STPI18923    0          0          0          NO
3596STPI18693    0          0          0          NO
3380STPI19393    0          0          0          NO
3115STPI18143    0          0          0          NO
4253STPI18426    0          0          0          NO
3102STPI18554    0          0          0          NO
3433STPI18676    0          0          0          NO
3849STPI19636    0          0          0          NO
3242STPI15422    0          0          0          NO
3889STPI15431    0          0          0          NO
3827STPI15800    0          0          0          NO
3472STPI18208    0          0          0          NO
3254STPI18906    0          0          0          NO
3067STPI18239    0          0          0          NO
3057STPI18074    0          0          0          NO
3927STPI18694    0          0          0          NO
3420STPI18283    0          0          0          NO
3340STPI19603    0          0          0          NO
3353STPI18173    0          0          0          NO
3100STPI19055    0          0          0          NO
5761STPI18609    0          0          0          NO
3182STPI18132    0          0          0          NO
3003STPI15429    0          0          0          NO
3274STPI14576    0          0          0          NO
3321STPI18545    0          0          0          NO
3686STPI19232    0          0          0          NO
3743STPI18408    0          0          0          NO
3230STPI19303    0          0          0          NO
3113STPI18597    0          0          0          NO
3763STPI19567    0          0          0          NO
3551STPI19530    0          0          0          NO
3515STPI18462    0          0          0          NO
3065STPI18129    0          0          0          NO
3390STPI18376    0          0          0          NO
2970STPI19551    0          0          0          NO
3085STPI18174    0          0          0          NO
3053STPI18075    0          0          0          NO
3673STPI19181    0          0          0          NO
3709STPI18973    0          0          0          NO
5708STPI18718    0          0          0          NO
3344STPI19500    0          0          0          NO
3096STPI18199    0          0          0          NO
3680STPI19231    0          0          0          NO
3107STPI18468    0          0          0          NO
3631STPI19013    0          0          0          NO
3497STPI18277    0          0          0          NO
2967STPI19690    0          0          0          NO
3174STPI18428    0          0          0          NO
3755STPI19548    0          0          0          NO
3261STPI15452    0          0          0          NO
3352STPI18164    0          0          0          NO
3700STPI18954    0          0          0          NO
3675STPI19202    0          0          0          NO
3908STPI15860    0          0          0          NO
4256STPI18340    0          0          0          NO
3054STPI18679    0          0          0          NO
3444STPI18526    0          0          0          NO
3597STPI18653    0          0          0          NO
3417STPI18422    0          0          0          NO
3098STPI18565    0          0          0          NO
2960STPI18669    0          0          0          NO
3960STPI15855    0          0          0          NO
3264STPI18678    0          0          0          NO
3575STPI15879    0          0          0          NO
3979STPI19676    0          0          0          NO
3419STPI18518    0          0          0          NO
3046STPI17688    0          0          0          NO
3188STPI18241    0          0          0          NO
3372STPI19058    0          0          0          NO
3521STPI18575    0          0          0          NO
3186STPI18448    0          0          0          NO
3422STPI19067    0          0          0          NO
3216STPI18945    0          0          0          NO
3627STPI19026    0          0          0          NO
3412STPI19033    0          0          0          NO
2991STPI19640    0          0          0          NO
3859STPI19615    0          0          0          NO
3669STPI19204    0          0          0          NO
3830STPI18314    0          0          0          NO
3270STPI18936    0          0          0          NO
3865STPI19602    0          0          0          NO
3162STPI18170    0          0          0          NO
3449STPI18527    0          0          0          NO
3852STPI19612    0          0          0          NO
3693STPI18958    0          0          0          NO
2994STPI19643    0          0          0          NO
3124STPI18513    0          0          0          NO
3620STPI19036    0          0          0          NO
3063STPI18443    0          0          0          NO
3068STPI18160    0          0          0          NO
3307STPI18539    0          0          0          NO
4259STPI19095    0          0          0          NO
3281STPI18926    0          0          0          NO
3122STPI18413    0          0          0          NO
3647STPI18844    0          0          0          NO
3955STPI15798    0          0          0          NO
3623STPI19160    0          0          0          NO
3719STPI19388    0          0          0          NO
3191STPI19267    0          0          0          NO
3474STPI18154    0          0          0          NO
3108STPI18300    0          0          0          NO
3965STPI18141    0          0          0          NO
3862STPI19613    0          0          0          NO
3159STPI18369    0          0          0          NO
4225STPI19386    0          0          0          NO
3898STPI18989    0          0          0          NO
3952STPI18610    0          0          0          NO
3582STPI15857    0          0          0          NO
3795STPI19184    0          0          0          NO
3775STPI19585    0          0          0          NO
3252STPI18907    0          0          0          NO
3713STPI18969    0          0          0          NO
3135STPI18222    0          0          0          NO
3238STPI15434    0          0          0          NO
3857STPI19608    0          0          0          NO
3330STPI18978    0          0          0          NO
3334STPI19595    0          0          0          NO
3087STPI18176    0          0          0          NO
3904STPI18587    0          0          0          NO
3707STPI18955    0          0          0          NO
3333STPI18674    0          0          0          NO
3240STPI15428    0          0          0          NO
3161STPI18373    0          0          0          NO
3888STPI19299    0          0          0          NO
2996STPI19664    0          0          0          NO
3350STPI15432    0          0          0          NO
3522STPI18850    0          0          0          NO
3112STPI18612    0          0          0          NO
5874STPI18406    0          0          0          NO
3976STPI18723    0          0          0          NO
3748STPI18398    0          0          0          NO
4257STPI18341    0          0          0          NO
5750STPI18485    0          0          0          NO
3338STPI19574    0          0          0          NO
3677STPI19667    0          0          0          NO
3217STPI18946    0          0          0          NO
3461STPI18417    0          0          0          NO
3193STPI18479    0          0          0          NO
3482STPI18311    0          0          0          NO
3688STPI18903    0          0          0          NO
3092STPI18262    0          0          0          NO
3265STPI18680    0          0          0          NO
3392STPI18342    0          0          0          NO
3574STPI15878    0          0          0          NO
3777STPI19587    0          0          0          NO
3590STPI18668    0          0          0          NO
3883STPI19273    0          0          0          NO
3180STPI18673    0          0          0          NO
3084STPI18147    0          0          0          NO
3695STPI18967    0          0          0          NO
3683STPI18163    0          0          0          NO
3256STPI19498    0          0          0          NO
3403STPI19028    0          0          0          NO
3772STPI19576    0          0          0          NO
3320STPI19150    0          0          0          NO
4255STPI18469    0          0          0          NO
3276STPI15831    0          0          0          NO
3132STPI18307    0          0          0          NO
3066STPI18140    0          0          0          NO
3005STPI15413    0          0          0          NO
3103STPI18851    0          0          0          NO
3012STPI15034    0          0          0          NO
3685STPI19068    0          0          0          NO
3225STPI18953    0          0          0          NO
2981STPI19620    0          0          0          NO
3708STPI18968    0          0          0          NO
3187STPI18441    0          0          0          NO
3549STPI19411    0          0          0          NO
3712STPI18976    0          0          0          NO
4263STPI18756    0          0          0          NO
3725STPI19677    0          0          0          NO
3821STPI15037    0          0          0          NO
3069STPI18158    0          0          0          NO
3657STPI19312    0          0          0          NO
4004STPI15794    0          0          0          NO
3221STPI18949    0          0          0          NO
3437STPI19000    0          0          0          NO
3501STPI18209    0          0          0          NO
3808STPI18223    0          0          0          NO
3524STPI18561    0          0          0          NO
3576STPI15870    0          0          0          NO
3599STPI18662    0          0          0          NO
3593STPI18660    0          0          0          NO
3646STPI18829    0          0          0          NO
3710STPI18962    0          0          0          NO
5731STPI19412    0          0          0          NO
3229STPI19330    0          0          0          NO
3547STPI19495    0          0          0          NO
3806STPI19507    0          0          0          NO
3679STPI19205    0          0          0          NO
3630STPI19042    0          0          0          NO
5809STPI19607    0          0          0          NO
3744STPI18407    0          0          0          NO
3011STPI15038    0          0          0          NO
3804STPI19504    0          0          0          NO
2965STPI18992    0          0          0          NO
3367STPI18378    0          0          0          NO
3368STPI18528    0          0          0          NO
3042STPI18284    0          0          0          NO
3460STPI18412    0          0          0          NO
3074STPI18189    0          0          0          NO
3407STPI19021    0          0          0          NO
3295STPI18073    0          0          0          NO
3779STPI19589    0          0          0          NO
3699STPI18964    0          0          0          NO
3075STPI18182    0          0          0          NO
3807STPI19506    0          0          0          NO
3291STPI18089    0          0          0          NO
5785STPI18827    0          0          0          NO
3902STPI18071    0          0          0          NO
3802STPI19508    0          0          0          NO
3922STPI18258    0          0          0          NO
3394STPI18619    0          0          0          NO
STPI18136A       0          0          0          NO
3209STPI18339    0          0          0          NO
5871STPI18475    0          0          0          NO
3402STPI19646    0          0          0          NO
4002STPI18088    0          0          0          NO
5707STPI18384    0          0          0          NO
3644STPI19089    0          0          0          NO
3791STPI19672    0          0          0          NO
3358STPI18210    0          0          0          NO
3331STPI18980    0          0          0          NO
3142STPI18264    0          0          0          NO
3882STPI18999    0          0          0          NO
4266STPI18142    0          0          0          NO
3666STPI18447    0          0          0          NO
3244STPI19402    0          0          0          NO
3245STPI19405    0          0          0          NO
3388STPI18368    0          0          0          NO
3916STPI18589    0          0          0          NO
4226STPI18566    0          0          0          NO
3093STPI18233    0          0          0          NO
5776STPI18963    0          0          0          NO
3943STPI18836    0          0          0          NO
3313STPI18296    0          0          0          NO
3425STPI17687    0          0          0          NO
3247STPI19403    0          0          0          NO
5797STPI18832    0          0          0          NO
2961STPI18991    0          0          0          NO
3864STPI19609    0          0          0          NO
3435STPI18308    0          0          0          NO
3026STPI15837    0          0          0          NO
3201STPI19091    0          0          0          NO
3203STPI19092    0          0          0          NO
3144STPI18257    0          0          0          NO
3465STPI18167    0          0          0          NO
3382STPI18382    0          0          0          NO
4267STPI15405    0          0          0          NO
3048STPI17697    0          0          0          NO
3400STPI19645    0          0          0          NO
3395STPI18435    0          0          0          NO
3809STPI19509    0          0          0          NO
5726STPI19418    0          0          0          NO
3059STPI19271    0          0          0          NO
3617STPI19024    0          0          0          NO
3083STPI18179    0          0          0          NO
3651STPI18845    0          0          0          NO
3079STPI18175    0          0          0          NO
3430STPI17685    0          0          0          NO
3193STPI18467    0          0          0          NO
3385STPI18356    0          0          0          NO
3466STPI18169    0          0          0          NO
3477STPI18146    0          0          0          NO
3136STPI18193    0          0          0          NO
3840STPI19074    0          0          0          NO
3629STPI19015    0          0          0          NO
3583STPI19296    0          0          0          NO
3608STPI18510    0          0          0          NO
3553STPI19528    0          0          0          NO
3815STPI18807    0          0          0          NO
3670STPI19180    0          0          0          NO
4227STPI19005    0          0          0          NO
3149STPI18315    0          0          0          NO
3721STPI18913    0          0          0          NO
3342STPI19503    0          0          0          NO
3750STPI18399    0          0          0          NO
5914STPI18855    0          0          0          NO
3602STPI18655    0          0          0          NO
3391STPI18375    0          0          0          NO
3505STPI18466    0          0          0          NO
3200STPI19039    0          0          0          NO
3825STPI19594    0          0          0          NO
3742STPI18409    0          0          0          NO
3949STPI18799    0          0          0          NO
3929STPI18692    0          0          0          NO
3764STPI19568    0          0          0          NO
3434STPI18345    0          0          0          NO
3813STPI19310    0          0          0          NO
3332STPI18981    0          0          0          NO
5784STPI18823    0          0          0          NO
3328STPI18935    0          0          0          NO
3198STPI19027    0          0          0          NO
3139STPI18183    0          0          0          NO
5798STPI18555    0          0          0          NO
5773STPI18990    0          0          0          NO
3375STPI19263    0          0          0          NO
3471STPI18159    0          0          0          NO
3237STPI15438    0          0          0          NO
3912STPI18606    0          0          0          NO
3526STPI18564    0          0          0          NO
3737STPI19293    0          0          0          NO
3607STPI18512    0          0          0          NO
3399STPI18267    0          0          0          NO
3273STPI15799    0          0          0          NO
3447STPI18292    0          0          0          NO
3614STPI19098    0          0          0          NO
4269STPI19698    0          0          0          NO
3088STPI18161    0          0          0          NO
4228STPI18922    0          0          0          NO
4229STPI19543    0          0          0          NO
3566STPI15811    0          0          0          NO
3656STPI19179    0          0          0          NO
3177STPI18431    0          0          0          NO
3143STPI18273    0          0          0          NO
3192STPI19268    0          0          0          NO
3458STPI18472    0          0          0          NO
3243STPI19406    0          0          0          NO
3263STPI15424    0          0          0          NO
3822STPI15033    0          0          0          NO
3478STPI18346    0          0          0          NO
3027STPI15818    0          0          0          NO
3940STPI15900    0          0          0          NO
3648STPI18831    0          0          0          NO
3356STPI18177    0          0          0          NO
3266STPI18683    0          0          0          NO
3561STPI19346    0          0          0          NO
4270STPI18924    0          0          0          NO
3585STPI18542    0          0          0          NO
3776STPI19586    0          0          0          NO
3615STPI18658    0          0          0          NO
3393STPI18618    0          0          0          NO
3838STPI18934    0          0          0          NO
2958STPI18941    0          0          0          NO
3409STPI19019    0          0          0          NO
3398STPI18268    0          0          0          NO
3642STPI19105    0          0          0          NO
3918STPI18221    0          0          0          NO
3044STPI18834    0          0          0          NO
3345STPI19501    0          0          0          NO
3377STPI18279    0          0          0          NO
2987STPI19625    0          0          0          NO
3579STPI15862    0          0          0          NO
3047STPI17693    0          0          0          NO
3716STPI19332    0          0          0          NO
3814STPI19187    0          0          0          NO
3539STPI19334    0          0          0          NO
3436STPI18521    0          0          0          NO
3782STPI19275    0          0          0          NO
3604STPI18695    0          0          0          NO
3464STPI18168    0          0          0          NO
3278STPI15858    0          0          0          NO
3618STPI19031    0          0          0          NO
3009STPI15436    0          0          0          NO
3741STPI18404    0          0          0          NO
3170STPI19494    0          0          0          NO
3598STPI18689    0          0          0          NO
3498STPI18240    0          0          0          NO
3039STPI18729    0          0          0          NO
3730STPI19288    0          0          0          NO
3512STPI18427    0          0          0          NO
3223STPI18951    0          0          0          NO
3861STPI19616    0          0          0          NO
3134STPI18259    0          0          0          NO
3622STPI19025    0          0          0          NO
3957STPI15807    0          0          0          NO
3440STPI18998    0          0          0          NO
3309STPI18540    0          0          0          NO
4260STPI18343    0          0          0          NO
3794STPI19183    0          0          0          NO
3259STPI15414    0          0          0          NO
3557STPI19208    0          0          0          NO
3915STPI18090    0          0          0          NO
3664STPI18425    0          0          0          NO
3475STPI18155    0          0          0          NO
3150STPI18358    0          0          0          NO
3803STPI19505    0          0          0          NO
3294STPI18064    0          0          0          NO
3895STPI18982    0          0          0          NO
3724STPI19295    0          0          0          NO
2972STPI19687    0          0          0          NO
3897STPI18972    0          0          0          NO
3077STPI18207    0          0          0          NO
3308STPI18536    0          0          0          NO
3041STPI18840    0          0          0          NO
3318STPI18289    0          0          0          NO
3751STPI19679    0          0          0          NO
3101STPI18572    0          0          0          NO
4230STPI19283    0          0          0          NO
3736STPI19292    0          0          0          NO
3678STPI19209    0          0          0          NO
3413STPI18367    0          0          0          NO
3090STPI18256    0          0          0          NO
5866STPI18172    0          0          0          NO
3564STPI14800    0          0          0          NO
3658STPI19178    0          0          0          NO
3279STPI18919    0          0          0          NO
3690STPI19206    0          0          0          NO
3169STPI19493    0          0          0          NO
3884STPI19272    0          0          0          NO
3789STPI18593    0          0          0          NO
3019STPI14582    0          0          0          NO
3792STPI19447    0          0          0          NO
3481STPI18608    0          0          0          NO
3761STPI19550    0          0          0          NO
3246STPI19400    0          0          0          NO
3148STPI18312    0          0          0          NO
3711STPI18971    0          0          0          NO
3357STPI18320    0          0          0          NO
3463STPI18596    0          0          0          NO
3746STPI18418    0          0          0          NO
3055STPI18085    0          0          0          NO
3424STPI18171    0          0          0          NO
3516STPI18569    0          0          0          NO
4015STPI19407    0          0          0          NO
3000STPI19662    0          0          0          NO
3514STPI18473    0          0          0          NO
4014STPI19404    0          0          0          NO
3202STPI19093    0          0          0          NO
4231STPI19570    0          0          0          NO
3613STPI18487    0          0          0          NO
3986STPI19417    0          0          0          NO
3973STPI18265    0          0          0          NO
3418STPI19061    0          0          0          NO
3828STPI18185    0          0          0          NO
3361STPI18317    0          0          0          NO
3337STPI19537    0          0          0          NO
2974STPI19686    0          0          0          NO
3641STPI19088    0          0          0          NO
3937STPI15832    0          0          0          NO
5889STPI18611    0          0          0          NO
3760STPI19541    0          0          0          NO
3577STPI15876    0          0          0          NO
3655STPI18833    0          0          0          NO
3017STPI15843    0          0          0          NO
3304STPI18298    0          0          0          NO
3306STPI18534    0          0          0          NO
3589STPI18571    0          0          0          NO
3769STPI19580    0          0          0          NO
3230STPI19397    0          0          0          NO
3109STPI18365    0          0          0          NO
3199STPI19032    0          0          0          NO
3587STPI18549    0          0          0          NO
3681STPI18344    0          0          0          NO
3800STPI19325    0          0          0          NO
3037STPI18730    0          0          0          NO
3349STPI15408    0          0          0          NO
3024STPI15835    0          0          0          NO
3153STPI18372    0          0          0          NO
3541STPI19335    0          0          0          NO
3034STPI18217    0          0          0          NO
3893STPI18357    0          0          0          NO
3914STPI19201    0          0          0          NO
3160STPI18362    0          0          0          NO
5751STPI18495    0          0          0          NO
3639STPI18986    0          0          0          NO
3790STPI19190    0          0          0          NO
3687STPI19681    0          0          0          NO
3578STPI15869    0          0          0          NO
3070STPI18211    0          0          0          NO
3634STPI19030    0          0          0          NO
3554STPI19527    0          0          0          NO
3560STPI19344    0          0          0          NO
3571STPI15887    0          0          0          NO
3810STPI19186    0          0          0          NO
3271STPI18921    0          0          0          NO
3745STPI19565    0          0          0          NO
3145STPI18260    0          0          0          NO
4272STPI19046    0          0          0          NO
3184STPI18449    0          0          0          NO
3462STPI18414    0          0          0          NO
3019STPI15840    0          0          0          NO
3426STPI17686    0          0          0          NO
5808STPI19610    0          0          0          NO
3562STPI14801    0          0          0          NO
5774STPI18995    0          0          0          NO
3649STPI18838    0          0          0          NO
3723STPI19001    0          0          0          NO
3600STPI18690    0          0          0          NO
3671STPI18501    0          0          0          NO
3991STPI19536    0          0          0          NO
3156STPI18727    0          0          0          NO
3504STPI18477    0          0          0          NO
3376STPI18130    0          0          0          NO
3373STPI19053    0          0          0          NO
3843STPI19633    0          0          0          NO
3448STPI18295    0          0          0          NO
3022STPI15825    0          0          0          NO
3441STPI19002    0          0          0          NO
3114STPI18347    0          0          0          NO
3155STPI18721    0          0          0          NO
3154STPI18381    0          0          0          NO
3739STPI19290    0          0          0          NO
3013STPI19693    0          0          0          NO
3248STPI19414    0          0          0          NO
3910STPI18395    0          0          0          NO
2983STPI19626    0          0          0          NO
3998STPI18927    0          0          0          NO
3832STPI18266    0          0          0          NO
3704STPI18664    0          0          0          NO
3718STPI19384    0          0          0          NO
2999STPI19663    0          0          0          NO
3467STPI18150    0          0          0          NO
3164STPI18363    0          0          0          NO
3487STPI18261    0          0          0          NO
3981STPI19161    0          0          0          NO
3290STPI18400    0          0          0          NO
3694STPI18965    0          0          0          NO
3966STPI18830    0          0          0          NO
3660STPI18507    0          0          0          NO
3507STPI18190    0          0          0          NO
3241STPI15425    0          0          0          NO
3519STPI18514    0          0          0          NO
3967STPI18848    0          0          0          NO
3365STPI18366    0          0          0          NO
2962STPI18943    0          0          0          NO
3468STPI18151    0          0          0          NO
3645STPI18490    0          0          0          NO
3423STPI19056    0          0          0          NO
3953STPI15819    0          0          0          NO
3091STPI18197    0          0          0          NO
3383STPI18383    0          0          0          NO
3381STPI18068    0          0          0          NO
2955STPI18939    0          0          0          NO
3014STPI15792    0          0          0          NO
3366STPI18726    0          0          0          NO
2989STPI19642    0          0          0          NO
3503STPI18754    0          0          0          NO
3220STPI18970    0          0          0          NO
3459STPI18416    0          0          0          NO
3529STPI18544    0          0          0          NO
3611STPI18494    0          0          0          NO
3171STPI18397    0          0          0          NO
3086STPI18249    0          0          0          NO
3058STPI18079    0          0          0          NO
3705STPI18959    0          0          0          NO
3508STPI18218    0          0          0          NO
3179STPI18666    0          0          0          NO
3450STPI19062    0          0          0          NO
3663STPI18203    0          0          0          NO
3401STPI19648    0          0          0          NO
2979STPI18681    0          0          0          NO
3546STPI19416    0          0          0          NO
3359STPI18213    0          0          0          NO
3339STPI19592    0          0          0          NO
3285STPI18436    0          0          0          NO
3752STPI19553    0          0          0          NO
3758STPI19544    0          0          0          NO
5730STPI19415    0          0          0          NO
3759STPI19542    0          0          0          NO
3964STPI17869    0          0          0          NO
4276STPI18577    0          0          0          NO
3923STPI15865    0          0          0          NO
3533STPI18556    0          0          0          NO
3105STPI18574    0          0          0          NO
3543STPI19333    0          0          0          NO
3364STPI18380    0          0          0          NO
3406STPI19029    0          0          0          NO
3722STPI18433    0          0          0          NO
3689STPI19203    0          0          0          NO
3250STPI18196    0          0          0          NO
3213STPI18287    0          0          0          NO
3535STPI18550    0          0          0          NO
2990STPI19641    0          0          0          NO
3001STPI19666    0          0          0          NO
3128STPI18516    0          0          0          NO
3106STPI18471    0          0          0          NO
3527STPI18563    0          0          0          NO
3293STPI18069    0          0          0          NO
3194STPI18463    0          0          0          NO
3363STPI18359    0          0          0          NO
3488STPI18238    0          0          0          NO
3033STPI15859    0          0          0          NO
2998STPI19660    0          0          0          NO
3317STPI18530    0          0          0          NO
3397STPI19619    0          0          0          NO
3987STPI19419    0          0          0          NO
3405STPI19043    0          0          0          NO
3959STPI15826    0          0          0          NO
3956STPI15839    0          0          0          NO
3926STPI18696    0          0          0          NO
5101.1           0          0          0          NO
3799STPI19327    0          0          0          NO
3591STPI19151    0          0          0          NO
3654STPI18835    0          0          0          NO
3137STPI18181    0          0          0          NO
3089STPI18200    0          0          0          NO
4005STPI19076    0          0          0          NO
3580STPI15853    0          0          0          NO
3532STPI18552    0          0          0          NO
3906STPI15881    0          0          0          NO
3698STPI18974    0          0          0          NO
3605STPI18649    0          0          0          NO
3896STPI18977    0          0          0          NO
3642STPI19650    0          0          0          NO
3692STPI18960    0          0          0          NO
3442STPI19003    0          0          0          NO
3421STPI19057    0          0          0          NO
3167STPI18379    0          0          0          NO
3619STPI19023    0          0          0          NO
3848STPI19638    0          0          0          NO
3008STPI15433    0          0          0          NO
3938STPI15846    0          0          0          NO
3728STPI19284    0          0          0          NO
3410STPI19044    0          0          0          NO
3841STPI19075    0          0          0          NO
3544STPI19408    0          0          0          NO
3682STPI18144    0          0          0          NO
3411STPI19020    0          0          0          NO
4003STPI15793    0          0          0          NO
3616STPI19034    0          0          0          NO
3948STPI18274    0          0          0          NO
3286STPI18437    0          0          0          NO
3257STPI19497    0          0          0          NO
4232STPI19552    0          0          0          NO
3500STPI18212    0          0          0          NO
3877STPI15828    0          0          0          NO
3346STPI18482    0          0          0          NO
3141STPI18198    0          0          0          NO
3768STPI19579    0          0          0          NO
3181STPI18677    0          0          0          NO
3536STPI18548    0          0          0          NO
3785STPI19277    0          0          0          NO
3214STPI18280    0          0          0          NO
3531STPI18551    0          0          0          NO
3963STPI17689    0          0          0          NO
3311STPI18537    0          0          0          NO
3050STPI19269    0          0          0          NO
3031STPI15877    0          0          0          NO
3212STPI18800    0          0          0          NO
4233STPI19112    0          0          0          NO
3049STPI19281    0          0          0          NO
3640STPI18988    0          0          0          NO
2992STPI19639    0          0          0          NO
3555STPI19323    0          0          0          NO
2957STPI18940    0          0          0          NO
3486STPI18254    0          0          0          NO
3129STPI18509    0          0          0          NO
3283STPI18911    0          0          0          NO
2971STPI19685    0          0          0          NO
3558STPI19345    0          0          0          NO
3715STPI19331    0          0          0          NO
3855STPI19606    0          0          0          NO
3950STPI18918    0          0          0          NO
3847STPI19635    0          0          0          NO
3110STPI19566    0          0          0          NO
3374STPI19066    0          0          0          NO
3298STPI18282    0          0          0          NO
3624STPI19037    0          0          0          NO
4000STPI18931    0          0          0          NO
3066STPI18713    0          0          0          NO
3173STPI18396    0          0          0          NO
3296STPI18065    0          0          0          NO
3766STPI19577    0          0          0          NO
3396STPI18430    0          0          0          NO
3784STPI19278    0          0          0          NO
3341STPI19596    0          0          0          NO
3592STPI18691    0          0          0          NO
3133STPI18243    0          0          0          NO
3643STPI19102    0          0          0          NO
3064STPI19270    0          0          0          NO
3117STPI18325    0          0          0          NO
2969STPI19691    0          0          0          NO
5796STPI18841    0          0          0          NO
3360STPI18206    0          0          0          NO
3166STPI18360    0          0          0          NO
3774STPI19584    0          0          0          NO
3208STPI18499    0          0          0          NO
3496STPI18276    0          0          0          NO
3826STPI19605    0          0          0          NO
2973STPI19688    0          0          0          NO
3778STPI19588    0          0          0          NO
3205STPI18432    0          0          0          NO
4234STPI19547    0          0          0          NO
3588STPI18667    0          0          0          NO
3379STPI19394    0          0          0          NO
3845STPI18442    0          0          0          NO
3961STPI15868    0          0          0          NO
3029STPI15806    0          0          0          NO
3653STPI19104    0          0          0          NO
3601STPI18654    0          0          0          NO
3628STPI19041    0          0          0          NO
3163STPI18364    0          0          0          NO
4235STPI19340    0          0          0          NO
3860STPI19604    0          0          0          NO
3384STPI18385    0          0          0          NO
3032STPI15872    0          0          0          NO
3197STPI15884    0          0          0          NO
3958STPI15845    0          0          0          NO
3731STPI19289    0          0          0          NO
3343STPI19502    0          0          0          NO
3662STPI19045    0          0          0          NO
3172STPI18481    0          0          0          NO
3222STPI18950    0          0          0          NO
3652STPI19099    0          0          0          NO
3491STPI18251    0          0          0          NO
3043STPI18837    0          0          0          NO
3355STPI18232    0          0          0          NO
4280STPI19692    0          0          0          NO
3706STPI18966    0          0          0          NO
3878STPI17690    0          0          0          NO
3429STPI17698    0          0          0          NO
3520STPI18511    0          0          0          NO
3255STPI18908    0          0          0          NO
3020STPI15838    0          0          0          NO
5875STPI18403    0          0          0          NO
3913STPI18324    0          0          0          NO
3894STPI19101    0          0          0          NO
3610STPI18842    0          0          0          NO
3215STPI18281    0          0          0          NO
3097STPI18541    0          0          0          NO
3371STPI19054    0          0          0          NO
3891STPI17684    0          0          0          NO
5890STPI18439    0          0          0          NO
3038STPI18731    0          0          0          NO
4279STPI18937    0          0          0          NO
3470STPI18152    0          0          0          NO
3528STPI18288    0          0          0          NO
3416STPI15823    0          0          0          NO
3023STPI15827    0          0          0          NO
4236STPI18072    0          0          0          NO
3518STPI18290    0          0          0          NO
3016STPI15848    0          0          0          NO
3453STPI18131    0          0          0          NO
5740STPI18247    0          0          0          NO
3256STPI19511    0          0          0          NO
3523STPI18849    0          0          0          NO
2966STPI19554    0          0          0          NO
3432STPI18675    0          0          0          NO
3493STPI18235    0          0          0          NO
3892STPI17694    0          0          0          NO
4237STPI19390    0          0          0          NO
3811STPI18805    0          0          0          NO
3509STPI18194    0          0          0          NO
2980STPI18682    0          0          0          NO
3176STPI18438    0          0          0          NO
3483STPI18263    0          0          0          NO
3818STPI19298    0          0          0          NO
5752STPI18489    0          0          0          NO
3819STPI19233    0          0          0          NO
3513STPI18568    0          0          0          NO
3443STPI18520    0          0          0          NO
3494STPI18220    0          0          0          NO
3062STPI19634    0          0          0          NO
3072STPI18186    0          0          0          NO
3130STPI18321    0          0          0          NO
3733STPI19301    0          0          0          NO
3258STPI19499    0          0          0          NO
4238STPI19096    0          0          0          NO
3267STPI15411    0          0          0          NO
3780STPI19601    0          0          0          NO
3021STPI15830    0          0          0          NO
3235STPI19305    0          0          0          NO
3190STPI19485    0          0          0          NO
3314STPI18529    0          0          0          NO
3326STPI18930    0          0          0          NO
3881STPI19065    0          0          0          NO
3833STPI18720    0          0          0          NO
3060STPI18081    0          0          0          NO
3696STPI18659    0          0          0          NO
2995STPI18553    0          0          0          NO
2985STPI19621    0          0          0          NO
3939STPI19072    0          0          0          NO
3771STPI19582    0          0          0          NO
5727STPI19409    0          0          0          NO
3123STPI18415    0          0          0          NO
3835STPI18847    0          0          0          NO
3476STPI18148    0          0          0          NO
3734STPI19678    0          0          0          NO
3168STPI18355    0          0          0          NO
2986STPI19623    0          0          0          NO
3305STPI18533    0          0          0          NO
3140STPI18252    0          0          0          NO
3303STPI18524    0          0          0          NO
3563STPI14803    0          0          0          NO
3322STPI18547    0          0          0          NO
3120STPI18493    0          0          0          NO
3080STPI18214    0          0          0          NO
4239STPI19401    0          0          0          NO
3609STPI19097    0          0          0          NO
3061STPI18444    0          0          0          NO
3251STPI18909    0          0          0          NO
3178STPI18429    0          0          0          NO
3224STPI18952    0          0          0          NO
3729STPI19276    0          0          0          NO
3269STPI15409    0          0          0          NO
5736STPI18236    0          0          0          NO
3370STPI19063    0          0          0          NO
2982STPI19622    0          0          0          NO
3556STPI19343    0          0          0          NO
3010STPI15435    0          0          0          NO
2956STPI18938    0          0          0          NO
3984STPI19311    0          0          0          NO
4283STPI18338    0          0          0          NO
3890STPI15460    0          0          0          NO
3327STPI18932    0          0          0          NO
3469STPI18153    0          0          0          NO
3408STPI19038    0          0          0          NO
3672STPI18515    0          0          0          NO
3941STPI17683    0          0          0          NO
2959STPI18942    0          0          0          NO
3934STPI19395    0          0          0          NO
3717STPI19383    0          0          0          NO
3445STPI18291    0          0          0          NO
5720STPI18184    0          0          0          NO
3082STPI18187    0          0          0          NO
3018STPI15841    0          0          0          NO
3414STPI18135    0          0          0          NO
3997STPI18912    0          0          0          NO
5763STPI18313    0          0          0          NO
3071STPI18192    0          0          0          NO
5783STPI18822    0          0          0          NO
3594STPI18652    0          0          0          NO
3052STPI18080    0          0          0          NO
3485STPI18255    0          0          0          NO
5786STPI18825    0          0          0          NO
3863STPI19597    0          0          0          NO
3185STPI18445    0          0          0          NO
3119STPI18492    0          0          0          NO
3431STPI17691    0          0          0          NO
3387STPI18370    0          0          0          NO
3573STPI15880    0          0          0          NO
3552STPI19529    0          0          0          NO
3015STPI15847    0          0          0          NO
3260STPI15416    0          0          0          NO
3817STPI19337    0          0          0          NO
3189STPI19069    0          0          0          NO
3787STPI19274    0          0          0          NO
3277STPI15820    0          0          0          NO
3268STPI15410    0          0          0          NO
3502STPI14802    0          0          0          NO
4010STPI19016    0          0          0          NO
5737STPI18242    0          0          0          NO
3439STPI19004    0          0          0          NO
3773STPI19583    0          0          0          NO
3151STPI18717    0          0          0          NO
3143STPI18275    0          0          0          NO
3783STPI19398    0          0          0          NO
3887STPI19302    0          0          0          NO
3492STPI18278    0          0          0          NO
3299STPI18286    0          0          0          NO
3788STPI19279    0          0          0          NO
3028STPI15815    0          0          0          NO
3666STPI18586    0          0          0          NO
3517STPI18570    0          0          0          NO
3993STPI18993    0          0          0          NO
4006STPI19185    0          0          0          NO
3428STPI17695    0          0          0          NO
3262STPI15412    0          0          0          NO
3637STPI18984    0          0          0          NO
3798STPI19328    0          0          0          NO
3301STPI18522    0          0          0          NO
3121STPI18116    0          0          0          NO
3289STPI18401    0          0          0          NO
3473STPI18201    0          0          0          NO
3650STPI19103    0          0          0          NO
3104STPI18573    0          0          0          NO
3568STPI15899    0          0          0          NO
3801STPI19326    0          0          0          NO
3319STPI18293    0          0          0          NO
3131STPI18310    0          0          0          NO
3451STPI18420    0          0          0          NO
3446STPI18525    0          0          0          NO
3056STPI18078    0          0          0          NO
3288STPI18402    0          0          0          NO
3603STPI18663    0          0          0          NO
5910STPI19264    0          0          0          NO
5806STPI19614    0          0          0          NO
2984STPI19624    0          0          0          NO
5863STPI19018    0          0          0          NO
3125STPI18753    0          0          0          NO
3921STPI18651    0          0          0          NO
3905STPI18594    0          0          0          NO
3538STPI18828    0          0          0          NO
5757STPI18491    0          0          0          NO
3901STPI18269    0          0          0          NO
3312STPI18297    0          0          0          NO
3457STPI19413    0          0          0          NO
3732STPI19286    0          0          0          NO
3933STPI19100    0          0          0          NO
3674STPI19265    0          0          0          NO
4282STPI18670    0          0          0          NO
3175STPI18440    0          0          0          NO
3195STPI18478    0          0          0          NO
3335STPI19591    0          0          0          NO
3586STPI18558    0          0          0          NO
3837STPI18997    0          0          0          NO
2963STPI18996    0          0          0          NO
3051STPI18076    0          0          0          NO
3559STPI19341    0          0          0          NO
3606STPI18191    0          0          0          NO
5867STPI19012    0          0          0          NO
3040STPI18843    0          0          0          NO
3900STPI18354    0          0          0          NO
3886STPI19647    0          0          0          NO
3006STPI15423    0          0          0          NO
3621STPI19035    0          0          0          NO
3805STPI19510    0          0          0          NO
3868STPI18333    0          0          0          NO
3875STPI18330    0          0          0          NO
4296STPI18337    0          0          0          NO
3867STPI18336    0          0          0          NO
4294STPI18334    0          0          0          NO
3871STPI18329    0          0          0          NO
4295STPI18331    0          0          0          NO
4299STPI19729    0          0          0          NO
4297STPI18335    0          0          0          NO
4298STPI18332    0          0          0          NO
3876STPI18319    0          0          0          NO
3872STPI19731    0          0          0          NO
3874STPI18305    0          0          0          NO
3873STPI19732    0          0          0          NO
3869STPI19730    0          0          0          NO
3866STPI18133    0          0          0          NO
3452STPI18716    0          0          0          NO
3969STCV15927    0          0          0          NO
4011STCV15929    0          0          0          NO
4007STCV17896    0          0          0          NO
3985STCV17969    0          0          0          NO
3992STCV17947    0          0          0          NO
3954STCV17893    0          0          0          NO
3248STCV17960    0          0          0          NO
3942STCV15933    0          0          0          NO
4012STCV15923    0          0          0          NO
3975STCV17905    0          0          0          NO
4302STCV17880    0          0          0          NO
3980STCV17894    0          0          0          NO
4165STCV17965    0          0          0          NO
3982STCV17972    0          0          0          NO
4112STCV17967    0          0          0          NO
3996STCV17899    0          0          0          NO
3284STCV17900    0          0          0          NO
4137STCV17901    0          0          0          NO
3977STCV15932    0          0          0          NO
3974STCV17904    0          0          0          NO
3936STCV17898    0          0          0          NO
4193STCV17964    0          0          0          NO
3978STCV15931    0          0          0          NO
4169STCV17958    0          0          0          NO
4009STCV17955    0          0          0          NO
3947STCV15930    0          0          0          NO
3994STCV17871    0          0          0          NO
3983STCV17897    0          0          0          NO
4258STCV15855    0          0          0          NO
4277STCV17870    0          0          0          NO
4210STCV17962    0          0          0          NO
4170STCV17959    0          0          0          NO
3951STCV17892    0          0          0          NO
2975STCV17882    0          0          0          NO
4130STCV17961    0          0          0          NO
3946STCV17910    0          0          0          NO
4013STCV15922    0          0          0          NO
3944STCV15936    0          0          0          NO
3989STCV17975    0          0          0          NO
3990STCV17976    0          0          0          NO
4199STCV17963    0          0          0          NO
3970STCV17881    0          0          0          NO
4008STCV17954    0          0          0          NO
3988STCV17973    0          0          0          NO
4305STCV17956    0          0          0          NO
3995STCV17902    0          0          0          NO
4001STCV17928    0          0          0          NO
3632STCV17957    0          0          0          NO
4096GASTWC0001   0          0          0          NO
4097GASTWC0002   0          0          0          NO
4099GASTWC0003   0          0          0          NO
4101GASTWC0004   0          0          0          NO
4102GASTWC0005   0          0          0          NO
4098GASTWC0006   0          0          0          NO
4136GASTWC0007   0          0          0          NO
4104GASTWC0012   0          0          0          NO
4106GASTWC0013   0          0          0          NO
4105GASTWC0014   0          0          0          NO
4039GASTWC0017   0          0          0          NO
4109GASTWC0018   0          0          0          NO
4108GASTWC0021   0          0          0          NO
4065GASTWC0022   0          0          0          NO
4107GASTWC0024   0          0          0          NO
4110GASTWC0027   0          0          0          NO
4085GASTWC0028   0          0          0          NO
4052GASTWC0029   0          0          0          NO
4043GASTWC0031   0          0          0          NO
4038GASTWC0032   0          0          0          NO
4017GASTWC0036   0          0          0          NO
4113GASTWC0037   0          0          0          NO
4115GASTWC0039   0          0          0          NO
4029GASTWC0040   0          0          0          NO
4118GASTWC0041   0          0          0          NO
4116GASTWC0044   0          0          0          NO
4123GASTWC0047   0          0          0          NO
4083GASTWC0048   0          0          0          NO
4120GASTWC0049   0          0          0          NO
4121GASTWC0053   0          0          0          NO
4122GASTWC0055   0          0          0          NO
4117GASTWC0056   0          0          0          NO
4124GASTWC0057   0          0          0          NO
4062GASTWC0059   0          0          0          NO
4127GASTWC0061   0          0          0          NO
4133GASTWC0062   0          0          0          NO
4084GASTWC0066   0          0          0          NO
4016GASTWC0067   0          0          0          NO
4119GASTWC0069   0          0          0          NO
4111GASTWC0075   0          0          0          NO
4128GASTWC0076   0          0          0          NO
4028GASTWC0079   0          0          0          NO
4080GASTWC0080   0          0          0          NO
4027GASTWC0081   0          0          0          NO
4082GASTWC0082   0          0          0          NO
4125GASTWC0085   0          0          0          NO
4030GASTWC0086   0          0          0          NO
4059GASTWC0087   0          0          0          NO
4061GASTWC0088   0          0          0          NO
4022GASTWC0089   0          0          0          NO
4053GASTWC0092   0          0          0          NO
4244GASTWC0094   0          0          0          NO
4131GASTWC0095   0          0          0          NO
4089GASTWC0096   0          0          0          NO
4132GASTWC0097   0          0          0          NO
4134GASTWC0098   0          0          0          NO
4135GASTWC0099   0          0          0          NO
4066GASTWC0101   0          0          0          NO
4138GASTWC0102   0          0          0          NO
4087GASTWC0103   0          0          0          NO
4037GASTWC0105   0          0          0          NO
4140GASTWC0106   0          0          0          NO
4141GASTWC0107   0          0          0          NO
4071GASTWC0112   0          0          0          NO
4143GASTWC0113   0          0          0          NO
4150GASTWC0114   0          0          0          NO
4146GASTWC0115   0          0          0          NO
4145GASTWC0116   0          0          0          NO
4147GASTWC0118   0          0          0          NO
4148GASTWC0119   0          0          0          NO
4149GASTWC0120   0          0          0          NO
4114GASTWC0121   0          0          0          NO
4144GASTWC0123   0          0          0          NO
4095GASTWC0124   0          0          0          NO
4094GASTWC0125   0          0          0          NO
4033GASTWC0126   0          0          0          NO
4090GASTWC0127   0          0          0          NO
4151GASTWC0128   0          0          0          NO
4153GASTWC0129   0          0          0          NO
4154GASTWC0130   0          0          0          NO
4155GASTWC0131   0          0          0          NO
4157GASTWC0132   0          0          0          NO
4159GASTWC0133   0          0          0          NO
4162GASTWC0134   0          0          0          NO
4163GASTWC0135   0          0          0          NO
4164GASTWC0136   0          0          0          NO
4093GASTWC0137   0          0          0          NO
4058GASTWC0138   0          0          0          NO
4067GASTWC0139   0          0          0          NO
4171GASTWC0140   0          0          0          NO
4161GASTWC0141   0          0          0          NO
4172GASTWC0146   0          0          0          NO
4088GASTWC0154   0          0          0          NO
4051GASTWC0160   0          0          0          NO
4175GASTWC0168   0          0          0          NO
4176GASTWC0173   0          0          0          NO
4177GASTWC0174   0          0          0          NO
4178GASTWC0178   0          0          0          NO
4179GASTWC0181   0          0          0          NO
4184GASTWC0182   0          0          0          NO
4182GASTWC0183   0          0          0          NO
4183GASTWC0184   0          0          0          NO
4190GASTWC0185   0          0          0          NO
4185GASTWC0186   0          0          0          NO
4186GASTWC0188   0          0          0          NO
4187GASTWC0200   0          0          0          NO
4073GASTWC0202   0          0          0          NO
4180GASTWC0210   0          0          0          NO
4188GASTWC0211   0          0          0          NO
4189GASTWC0213   0          0          0          NO
4191GASTWC0214   0          0          0          NO
4192GASTWC0216   0          0          0          NO
4194GASTWC0217   0          0          0          NO
4181GASTWC0218   0          0          0          NO
4195GASTWC0219   0          0          0          NO
4196GASTWC0223   0          0          0          NO
4064GASTWC0224   0          0          0          NO
4197GASTWC0225   0          0          0          NO
4198GASTWC0226   0          0          0          NO
4200GASTWC0227   0          0          0          NO
4201GASTWC0228   0          0          0          NO
4202GASTWC0230   0          0          0          NO
4021GASTWC0239   0          0          0          NO
4174GASTWC0241   0          0          0          NO
4204GASTWC0242   0          0          0          NO
4205GASTWC0250   0          0          0          NO
4206GASTWC0251   0          0          0          NO
4075GASTWC0252   0          0          0          NO
4207GASTWC0253   0          0          0          NO
4208GASTWC0254   0          0          0          NO
4209GASTWC0255   0          0          0          NO
4211GASTWC0257   0          0          0          NO
4212GASTWC0258   0          0          0          NO
4213GASTWC0259   0          0          0          NO
4019GASTWC0260   0          0          0          NO
4079GASTWC0264   0          0          0          NO
4077GASTWC0265   0          0          0          NO
4060GASTWC0266   0          0          0          NO
4046GASTWC0267   0          0          0          NO
4070GASTWC0273   0          0          0          NO
4055GASTWC0286   0          0          0          NO
4026GASTWC0293   0          0          0          NO
4076GASTWC0294   0          0          0          NO
4216GASTWC0295   0          0          0          NO
3999STCV17870A   0          0          0          NO
4300STCV15932A   0          0          0          NO
4254STCV15927A   0          0          0          NO
4303STCV15930A   0          0          0          NO
4286STCV17897A   0          0          0          NO
4217GASTWC1002   0          0          0          NO
4308GASTWC1005   0          0          0          NO
4036GASTWC1006   0          0          0          NO
4081GASTWC1007   0          0          0          NO
4078GASTWC1008   0          0          0          NO
4290STCV17904A   0          0          0          NO
4252GASTCV1001   0          0          0          NO
4041GASTWC1010   0          0          0          NO
4309GASTWC1014   0          0          0          NO
4040GASTWC1015   0          0          0          NO
4248STCV17954A   0          0          0          NO
4310GASTWC1018   0          0          0          NO
4049GASTWC1019   0          0          0          NO
4311GASTWC1021   0          0          0          NO
4056GASTWC1022   0          0          0          NO
4312GASTWC1023   0          0          0          NO
4042GASTWC1024   0          0          0          NO
4215GASTWC1025   0          0          0          NO
4313GASTWC1026   0          0          0          NO
4048GASTWC1027   0          0          0          NO
4262STPI15832A   0          0          0          NO
4287STPI18220A   0          0          0          NO
4265STPI18232A   0          0          0          NO
4281STPI18232B   0          0          0          NO
4247STPI18236A   0          0          0          NO
3111STPI18462A   0          0          0          NO
4268STPI18130A   0          0          0          NO
4288STPI18131A   0          0          0          NO
4284STCV17900A   0          0          0          NO
4274STPI18926A   0          0          0          NO
4271STPI19403A   0          0          0          NO
4166GASTWC1029   0          0          0          NO
4050GASTWC1030   0          0          0          NO
3002STPI18134A   0          0          0          NO
4278STPI18143A   0          0          0          NO
4292STPI18129A   0          0          0          NO
4289STPI18075A   0          0          0          NO
3665STPI18756A   0          0          0          NO
3099STPI18572A   0          0          0          NO
4291STPI18649A   0          0          0          NO
4275STPI19605A   0          0          0          NO
4261STPI18667A   0          0          0          NO
4240STPI19554A   0          0          0          NO
4246STPI18329A   0          0          0          NO
4293STCV17871A   0          0          0          NO
4054GASTWC1028   0          0          0          NO
4314GASTWC1031   0          0          0          NO
4315GASTWC1032   0          0          0          NO
4045GASTWC1033   0          0          0          NO
4031GASTWC1034   0          0          0          NO
4139GASTWC1035   0          0          0          NO
4167GASTCV1002   0          0          0          NO
4214STCV18016    0          0          0          NO
4173GASTCV1004   0          0          0          NO
4203GASTCV1005   0          0          0          NO
4047GASTCV1006   0          0          0          NO
4152GASTCV1007   0          0          0          NO
4316GASTWC1036   0          0          0          NO
4160GASTCV1008   0          0          0          NO
4158GASTCV1009   0          0          0          NO
4156GASTCV1010   0          0          0          NO
4068GASTWC1037   0          0          0          NO
4317GASTWC1038   0          0          0          NO
4092GASTWC1039   0          0          0          NO
4318GASTWC1040   0          0          0          NO
4074GASTWC1041   0          0          0          NO
4035GASTWC1048   0          0          0          NO
4023GASTWC1049   0          0          0          NO
4319GASTWC1050   0          0          0          NO
4086GASTWC1051   0          0          0          NO
4044GASTWC1053   0          0          0          NO
4103GASTWC1001   0          0          0          NO
4034POND2A_UP    0          0          0          NO
5704POND2A_DN    0          0          0          NO
4025POND3B_UP    0          0          0          NO
5716POND3B_DN    0          0          0          NO
4057POND4_UP     0          0          0          NO
5723POND4_DN     0          0          0          NO
4024POND3A_UP    0          0          0          NO
5744POND3A_DN    0          0          0          NO
4020POND5_UP     0          0          0          NO
5747POND5_DN     0          0          0          NO
4072POND6_UP     0          0          0          NO
5765POND6_DN     0          0          0          NO
4069POND8A_UP    0          0          0          NO
5772POND8A_DN    0          0          0          NO
4032POND8B_UP    0          0          0          NO
5787POND8B_DN    0          0          0          NO
4063POND10_UP    0          0          0          NO
5794POND10_DN    0          0          0          NO
4091POND12A_UP   0          0          0          NO
5805POND12A_DN   0          0          0          NO
5756Link2838     0          0          0          NO
3361Link2839     0          0          0          NO
3362Link2840     0          0          0          NO
3701Link2841     0          0          0          NO
3714Link2842     0          0          0          NO
3740Link2843     0          0          0          NO
3045Link2844     0          0          0          NO
3534Link2845     0          0          0          NO
2977Link2846     0          0          0          NO
3856Link2847     0          0          0          NO
3854Link2848     0          0          0          NO
3661Link2849     0          0          0          NO
3152Link2850     0          0          0          NO
3668Link2851     0          0          0          NO
3489Link2852     0          0          0          NO
2976Link2853     0          0          0          NO
5719Link2854     0          0          0          NO
3545Link2855     0          0          0          NO
3550Link2856     0          0          0          NO
3211Link2857     0          0          0          NO
4129GASTWC1004   0          0          0          NO
4018GASTWC1054   0          0          0          NO
5880STPI18410    0          0          0          NO
5881STPI18613    0          0          0          NO
4126GASTCV1011   0          0          0          NO
4168GASTWC1055   0          0          0          NO
3635Link2876     0          0          0          NO
3749Link2877     0          0          0          NO
3506Link2878     0          0          0          NO
3742Link2879     0          0          0          NO
5901STPI19697    0          0          0          NO
5903STPI19696B   0          0          0          NO
4273STPI19696A   0          0          0          NO
5906GASTWC1056   0          0          0          NO
5906STCV18015    0          0          0          NO

[INFLOWS]
;;Node           Constituent  Time Series      Type     Mfactor  Sfactor  Baseline Pattern
;;-------------- ------------ ---------------- -------- -------- -------- -------- --------
;; SYNTHETIC TEST INFLOWS — the source .xp carried no constant inflows
;; and RUNF hydrology is not converted; 0.03 CMS is applied at each
;; headwater node so the network runs wet for QA. Replace with real
;; hydrology or inflow hydrographs before using results.
STMH19072        FLOW         ""               FLOW     1.0      1.0      0.03
STMH19128        FLOW         ""               FLOW     1.0      1.0      0.03
STMH19145        FLOW         ""               FLOW     1.0      1.0      0.03
STMH19147        FLOW         ""               FLOW     1.0      1.0      0.03
STMH19163        FLOW         ""               FLOW     1.0      1.0      0.03
STMH15420        FLOW         ""               FLOW     1.0      1.0      0.03
STMH15437        FLOW         ""               FLOW     1.0      1.0      0.03
STMH15434        FLOW         ""               FLOW     1.0      1.0      0.03
STMH15423        FLOW         ""               FLOW     1.0      1.0      0.03
STMH14985        FLOW         ""               FLOW     1.0      1.0      0.03
STMH15819        FLOW         ""               FLOW     1.0      1.0      0.03
STMH15814        FLOW         ""               FLOW     1.0      1.0      0.03
STMH18499        FLOW         ""               FLOW     1.0      1.0      0.03
STMH18496        FLOW         ""               FLOW     1.0      1.0      0.03
STMH17580        FLOW         ""               FLOW     1.0      1.0      0.03
STMH17862        FLOW         ""               FLOW     1.0      1.0      0.03
STMH18271        FLOW         ""               FLOW     1.0      1.0      0.03
STMH18143        FLOW         ""               FLOW     1.0      1.0      0.03
STMH18114        FLOW         ""               FLOW     1.0      1.0      0.03
STMH19076        FLOW         ""               FLOW     1.0      1.0      0.03
STMH18392        FLOW         ""               FLOW     1.0      1.0      0.03
STMH18039        FLOW         ""               FLOW     1.0      1.0      0.03
STMH18326        FLOW         ""               FLOW     1.0      1.0      0.03
STMH18141        FLOW         ""               FLOW     1.0      1.0      0.03
STMH18193        FLOW         ""               FLOW     1.0      1.0      0.03
STMH19015        FLOW         ""               FLOW     1.0      1.0      0.03
STMH18277        FLOW         ""               FLOW     1.0      1.0      0.03
STMH18765        FLOW         ""               FLOW     1.0      1.0      0.03
STMH19011        FLOW         ""               FLOW     1.0      1.0      0.03
STMH18740        FLOW         ""               FLOW     1.0      1.0      0.03
STMH18007        FLOW         ""               FLOW     1.0      1.0      0.03
STMH18655        FLOW         ""               FLOW     1.0      1.0      0.03
STMH18664        FLOW         ""               FLOW     1.0      1.0      0.03
STMH18668        FLOW         ""               FLOW     1.0      1.0      0.03
STMH18935        FLOW         ""               FLOW     1.0      1.0      0.03
STMH15416        FLOW         ""               FLOW     1.0      1.0      0.03
STMH18985        FLOW         ""               FLOW     1.0      1.0      0.03
STMH18631        FLOW         ""               FLOW     1.0      1.0      0.03
STMH18626        FLOW         ""               FLOW     1.0      1.0      0.03
STMH19020        FLOW         ""               FLOW     1.0      1.0      0.03
STMH15411        FLOW         ""               FLOW     1.0      1.0      0.03
STMH15830        FLOW         ""               FLOW     1.0      1.0      0.03
STMH15829        FLOW         ""               FLOW     1.0      1.0      0.03
STMH18643        FLOW         ""               FLOW     1.0      1.0      0.03
STMH18337        FLOW         ""               FLOW     1.0      1.0      0.03
STMH18014        FLOW         ""               FLOW     1.0      1.0      0.03
STMH18338        FLOW         ""               FLOW     1.0      1.0      0.03
STMH18346        FLOW         ""               FLOW     1.0      1.0      0.03
STMH18349        FLOW         ""               FLOW     1.0      1.0      0.03
STMH18348        FLOW         ""               FLOW     1.0      1.0      0.03
STMH18016        FLOW         ""               FLOW     1.0      1.0      0.03
STMH18344        FLOW         ""               FLOW     1.0      1.0      0.03
STMH19098        FLOW         ""               FLOW     1.0      1.0      0.03
STMH19023        FLOW         ""               FLOW     1.0      1.0      0.03
STMH18139        FLOW         ""               FLOW     1.0      1.0      0.03
STMH18135        FLOW         ""               FLOW     1.0      1.0      0.03
STMH17999        FLOW         ""               FLOW     1.0      1.0      0.03
STMH17856        FLOW         ""               FLOW     1.0      1.0      0.03
STMH18163        FLOW         ""               FLOW     1.0      1.0      0.03
STMH18744        FLOW         ""               FLOW     1.0      1.0      0.03
STMH18726        FLOW         ""               FLOW     1.0      1.0      0.03
STMH18756        FLOW         ""               FLOW     1.0      1.0      0.03
STMH17574        FLOW         ""               FLOW     1.0      1.0      0.03
STMH18171        FLOW         ""               FLOW     1.0      1.0      0.03
STMH18705        FLOW         ""               FLOW     1.0      1.0      0.03
STMH18339        FLOW         ""               FLOW     1.0      1.0      0.03
STMH18342        FLOW         ""               FLOW     1.0      1.0      0.03
STMH18244        FLOW         ""               FLOW     1.0      1.0      0.03
STMH18247        FLOW         ""               FLOW     1.0      1.0      0.03
STMH17967        FLOW         ""               FLOW     1.0      1.0      0.03
STMH18130        FLOW         ""               FLOW     1.0      1.0      0.03
STMH17975        FLOW         ""               FLOW     1.0      1.0      0.03
STMH17974        FLOW         ""               FLOW     1.0      1.0      0.03
STMH17954        FLOW         ""               FLOW     1.0      1.0      0.03
STMH18481        FLOW         ""               FLOW     1.0      1.0      0.03
STMH18479        FLOW         ""               FLOW     1.0      1.0      0.03
STMH18152        FLOW         ""               FLOW     1.0      1.0      0.03
STMH18137        FLOW         ""               FLOW     1.0      1.0      0.03
STMH18119        FLOW         ""               FLOW     1.0      1.0      0.03
STMH17969        FLOW         ""               FLOW     1.0      1.0      0.03
STMH18954        FLOW         ""               FLOW     1.0      1.0      0.03
STMH18958        FLOW         ""               FLOW     1.0      1.0      0.03
STMH18957        FLOW         ""               FLOW     1.0      1.0      0.03
STMH18959        FLOW         ""               FLOW     1.0      1.0      0.03
STMH15014        FLOW         ""               FLOW     1.0      1.0      0.03
STMH15876        FLOW         ""               FLOW     1.0      1.0      0.03
STMH18356        FLOW         ""               FLOW     1.0      1.0      0.03
STMH18448        FLOW         ""               FLOW     1.0      1.0      0.03
STMH18116        FLOW         ""               FLOW     1.0      1.0      0.03
STMH18327        FLOW         ""               FLOW     1.0      1.0      0.03
STMH18727        FLOW         ""               FLOW     1.0      1.0      0.03
STMH18738        FLOW         ""               FLOW     1.0      1.0      0.03
STMH18729        FLOW         ""               FLOW     1.0      1.0      0.03
STMH18697        FLOW         ""               FLOW     1.0      1.0      0.03
STMH18792        FLOW         ""               FLOW     1.0      1.0      0.03
STMH18573        FLOW         ""               FLOW     1.0      1.0      0.03
STMH18794        FLOW         ""               FLOW     1.0      1.0      0.03
STMH18318        FLOW         ""               FLOW     1.0      1.0      0.03
STMH18126        FLOW         ""               FLOW     1.0      1.0      0.03
STMH18333        FLOW         ""               FLOW     1.0      1.0      0.03
STMH18893        FLOW         ""               FLOW     1.0      1.0      0.03
STMH18870        FLOW         ""               FLOW     1.0      1.0      0.03
STMH18689        FLOW         ""               FLOW     1.0      1.0      0.03
STMH18669        FLOW         ""               FLOW     1.0      1.0      0.03
STMH18711        FLOW         ""               FLOW     1.0      1.0      0.03
STMH18710        FLOW         ""               FLOW     1.0      1.0      0.03
STMH18917        FLOW         ""               FLOW     1.0      1.0      0.03
STMH18928        FLOW         ""               FLOW     1.0      1.0      0.03
STMH18923        FLOW         ""               FLOW     1.0      1.0      0.03
STMH19055        FLOW         ""               FLOW     1.0      1.0      0.03
STMH19095        FLOW         ""               FLOW     1.0      1.0      0.03
STMH18947        FLOW         ""               FLOW     1.0      1.0      0.03
STMH18946        FLOW         ""               FLOW     1.0      1.0      0.03
STMH19026        FLOW         ""               FLOW     1.0      1.0      0.03
STMH14986        FLOW         ""               FLOW     1.0      1.0      0.03
STMH19102        FLOW         ""               FLOW     1.0      1.0      0.03
STMH18477        FLOW         ""               FLOW     1.0      1.0      0.03
STMH18704        FLOW         ""               FLOW     1.0      1.0      0.03
STMH19136        FLOW         ""               FLOW     1.0      1.0      0.03
STMH19135        FLOW         ""               FLOW     1.0      1.0      0.03
STMH19138        FLOW         ""               FLOW     1.0      1.0      0.03
STMH19107        FLOW         ""               FLOW     1.0      1.0      0.03
STMH19213        FLOW         ""               FLOW     1.0      1.0      0.03
STCO15806        FLOW         ""               FLOW     1.0      1.0      0.03
STCO16086        FLOW         ""               FLOW     1.0      1.0      0.03
STCO16128        FLOW         ""               FLOW     1.0      1.0      0.03
STCO19982        FLOW         ""               FLOW     1.0      1.0      0.03
STCO19980        FLOW         ""               FLOW     1.0      1.0      0.03
STCO19989        FLOW         ""               FLOW     1.0      1.0      0.03
STCO19988        FLOW         ""               FLOW     1.0      1.0      0.03
STCO20025        FLOW         ""               FLOW     1.0      1.0      0.03
STCO20026        FLOW         ""               FLOW     1.0      1.0      0.03
STCO20039        FLOW         ""               FLOW     1.0      1.0      0.03
STCO19990        FLOW         ""               FLOW     1.0      1.0      0.03
STCO15255        FLOW         ""               FLOW     1.0      1.0      0.03
STCO15260        FLOW         ""               FLOW     1.0      1.0      0.03
STCO16046        FLOW         ""               FLOW     1.0      1.0      0.03
STCO16123        FLOW         ""               FLOW     1.0      1.0      0.03
STCO19983        FLOW         ""               FLOW     1.0      1.0      0.03
STCO19978        FLOW         ""               FLOW     1.0      1.0      0.03
STCO19977        FLOW         ""               FLOW     1.0      1.0      0.03
STCO19976        FLOW         ""               FLOW     1.0      1.0      0.03
STCO19979        FLOW         ""               FLOW     1.0      1.0      0.03
STCO19975        FLOW         ""               FLOW     1.0      1.0      0.03
STCE15916        FLOW         ""               FLOW     1.0      1.0      0.03
STCE15907        FLOW         ""               FLOW     1.0      1.0      0.03
STCE15886        FLOW         ""               FLOW     1.0      1.0      0.03
STCE15933        FLOW         ""               FLOW     1.0      1.0      0.03
STCE15932        FLOW         ""               FLOW     1.0      1.0      0.03
STCE15939        FLOW         ""               FLOW     1.0      1.0      0.03
STCE15856        FLOW         ""               FLOW     1.0      1.0      0.03
STCE15852        FLOW         ""               FLOW     1.0      1.0      0.03
STCE15851        FLOW         ""               FLOW     1.0      1.0      0.03
STCE15895        FLOW         ""               FLOW     1.0      1.0      0.03
STCE15912        FLOW         ""               FLOW     1.0      1.0      0.03
STCE15943        FLOW         ""               FLOW     1.0      1.0      0.03
STCE15915        FLOW         ""               FLOW     1.0      1.0      0.03
STCE15934        FLOW         ""               FLOW     1.0      1.0      0.03
STCE15908        FLOW         ""               FLOW     1.0      1.0      0.03
STCE15965        FLOW         ""               FLOW     1.0      1.0      0.03
STCE15950        FLOW         ""               FLOW     1.0      1.0      0.03
STCE15948        FLOW         ""               FLOW     1.0      1.0      0.03
STCE15904        FLOW         ""               FLOW     1.0      1.0      0.03
STCE15853        FLOW         ""               FLOW     1.0      1.0      0.03
STCE15942        FLOW         ""               FLOW     1.0      1.0      0.03
STCE15927        FLOW         ""               FLOW     1.0      1.0      0.03
STCE15961        FLOW         ""               FLOW     1.0      1.0      0.03
STCE15962        FLOW         ""               FLOW     1.0      1.0      0.03
STCE15959        FLOW         ""               FLOW     1.0      1.0      0.03
STCE15960        FLOW         ""               FLOW     1.0      1.0      0.03
GASTCE0002       FLOW         ""               FLOW     1.0      1.0      0.03
GASTCE0003       FLOW         ""               FLOW     1.0      1.0      0.03
GASTCE0004       FLOW         ""               FLOW     1.0      1.0      0.03
STIN15810        FLOW         ""               FLOW     1.0      1.0      0.03
STIN15819        FLOW         ""               FLOW     1.0      1.0      0.03
STIN15860        FLOW         ""               FLOW     1.0      1.0      0.03
STIN15855        FLOW         ""               FLOW     1.0      1.0      0.03
STIN16090        FLOW         ""               FLOW     1.0      1.0      0.03
STIN16109        FLOW         ""               FLOW     1.0      1.0      0.03
STIN15808        FLOW         ""               FLOW     1.0      1.0      0.03
STIN15755        FLOW         ""               FLOW     1.0      1.0      0.03
STIN15811        FLOW         ""               FLOW     1.0      1.0      0.03
STIN15818        FLOW         ""               FLOW     1.0      1.0      0.03
STIN15817        FLOW         ""               FLOW     1.0      1.0      0.03
STIN15852        FLOW         ""               FLOW     1.0      1.0      0.03
STIN15851        FLOW         ""               FLOW     1.0      1.0      0.03
STIN16123        FLOW         ""               FLOW     1.0      1.0      0.03
STIN16208        FLOW         ""               FLOW     1.0      1.0      0.03
STIN15758        FLOW         ""               FLOW     1.0      1.0      0.03
GASTWN1000       FLOW         ""               FLOW     1.0      1.0      0.03
GASTWN1123       FLOW         ""               FLOW     1.0      1.0      0.03
GASTWN1129       FLOW         ""               FLOW     1.0      1.0      0.03
GASTWN1130       FLOW         ""               FLOW     1.0      1.0      0.03
GASTWN1144       FLOW         ""               FLOW     1.0      1.0      0.03
GASTWN1150       FLOW         ""               FLOW     1.0      1.0      0.03
GASTWN1153       FLOW         ""               FLOW     1.0      1.0      0.03
GASTWN1229       FLOW         ""               FLOW     1.0      1.0      0.03
GASTWN1237       FLOW         ""               FLOW     1.0      1.0      0.03
GASTWN1243       FLOW         ""               FLOW     1.0      1.0      0.03
GASTWN1251       FLOW         ""               FLOW     1.0      1.0      0.03
GASTWN1253       FLOW         ""               FLOW     1.0      1.0      0.03
GASTWN1261       FLOW         ""               FLOW     1.0      1.0      0.03
GASTWN1306       FLOW         ""               FLOW     1.0      1.0      0.03
GASTWN1308       FLOW         ""               FLOW     1.0      1.0      0.03
GASTWN1316       FLOW         ""               FLOW     1.0      1.0      0.03
GASTWN1328       FLOW         ""               FLOW     1.0      1.0      0.03
GASTWN1331       FLOW         ""               FLOW     1.0      1.0      0.03
GASTWN1369       FLOW         ""               FLOW     1.0      1.0      0.03
GASTWN1371       FLOW         ""               FLOW     1.0      1.0      0.03
GASTWN1372       FLOW         ""               FLOW     1.0      1.0      0.03
GASTWN1373       FLOW         ""               FLOW     1.0      1.0      0.03
GASTCE1001       FLOW         ""               FLOW     1.0      1.0      0.03
GASTCE1005       FLOW         ""               FLOW     1.0      1.0      0.03
GASTCE1006       FLOW         ""               FLOW     1.0      1.0      0.03
GASTCE1007       FLOW         ""               FLOW     1.0      1.0      0.03
GASTCE1010       FLOW         ""               FLOW     1.0      1.0      0.03
GASTCE1012       FLOW         ""               FLOW     1.0      1.0      0.03
GASTCE1013       FLOW         ""               FLOW     1.0      1.0      0.03
GASTCE1014       FLOW         ""               FLOW     1.0      1.0      0.03
GASTCE1015       FLOW         ""               FLOW     1.0      1.0      0.03
GASTCE1016       FLOW         ""               FLOW     1.0      1.0      0.03
GASTCE1017       FLOW         ""               FLOW     1.0      1.0      0.03
GASTCE1018       FLOW         ""               FLOW     1.0      1.0      0.03
GASTCE1019       FLOW         ""               FLOW     1.0      1.0      0.03
GASTCE1020       FLOW         ""               FLOW     1.0      1.0      0.03
GASTCE1022       FLOW         ""               FLOW     1.0      1.0      0.03
GASTCE1023       FLOW         ""               FLOW     1.0      1.0      0.03
GASTCE1024       FLOW         ""               FLOW     1.0      1.0      0.03
GASTMH1013       FLOW         ""               FLOW     1.0      1.0      0.03
GASTMH1014       FLOW         ""               FLOW     1.0      1.0      0.03
GASTMH1030       FLOW         ""               FLOW     1.0      1.0      0.03
GASTMH1036       FLOW         ""               FLOW     1.0      1.0      0.03
GASTMH1042       FLOW         ""               FLOW     1.0      1.0      0.03
GASTMH1047       FLOW         ""               FLOW     1.0      1.0      0.03
GASTMH1080       FLOW         ""               FLOW     1.0      1.0      0.03
HW_3743STPI18408 FLOW         ""               FLOW     1.0      1.0      0.03
STPI18136B       FLOW         ""               FLOW     1.0      1.0      0.03
HW_31512A-WR-01  FLOW         ""               FLOW     1.0      1.0      0.03
HW_36612A-SG-01  FLOW         ""               FLOW     1.0      1.0      0.03
HW_31522A-SG-02  FLOW         ""               FLOW     1.0      1.0      0.03
HW_31522A-WR-02  FLOW         ""               FLOW     1.0      1.0      0.03
HW_57193B-WR-01  FLOW         ""               FLOW     1.0      1.0      0.03
HW_57193B-SG-01  FLOW         ""               FLOW     1.0      1.0      0.03
HW_35454-SG-02   FLOW         ""               FLOW     1.0      1.0      0.03
HW_35454-WR-02   FLOW         ""               FLOW     1.0      1.0      0.03
HW_35504-SG-01   FLOW         ""               FLOW     1.0      1.0      0.03
HW_35504-WR-01   FLOW         ""               FLOW     1.0      1.0      0.03
HW_31883A-WR-01  FLOW         ""               FLOW     1.0      1.0      0.03
HW_36683A-SG-01  FLOW         ""               FLOW     1.0      1.0      0.03
HW_29763A-SG-02  FLOW         ""               FLOW     1.0      1.0      0.03
HW_29763A-WR-02  FLOW         ""               FLOW     1.0      1.0      0.03
HW_32115-SG-01   FLOW         ""               FLOW     1.0      1.0      0.03
HW_32115-WR-02   FLOW         ""               FLOW     1.0      1.0      0.03
HW_32105-WR-01   FLOW         ""               FLOW     1.0      1.0      0.03
HW_57565-SG-02   FLOW         ""               FLOW     1.0      1.0      0.03
HW_57565-WR-03   FLOW         ""               FLOW     1.0      1.0      0.03
HW_33616-SG-02   FLOW         ""               FLOW     1.0      1.0      0.03
HW_33626-WR-01   FLOW         ""               FLOW     1.0      1.0      0.03
HW_33626-SG-01   FLOW         ""               FLOW     1.0      1.0      0.03
HW_37148A-SG-02  FLOW         ""               FLOW     1.0      1.0      0.03
HW_37148A-WR-02  FLOW         ""               FLOW     1.0      1.0      0.03
HW_37018A-SG-01  FLOW         ""               FLOW     1.0      1.0      0.03
HW_37018A-WR-01  FLOW         ""               FLOW     1.0      1.0      0.03
HW_37408B-WR-01  FLOW         ""               FLOW     1.0      1.0      0.03
HW_37408B-SG-01  FLOW         ""               FLOW     1.0      1.0      0.03
HW_30458B-WR-02  FLOW         ""               FLOW     1.0      1.0      0.03
HW_30458B-SG-02  FLOW         ""               FLOW     1.0      1.0      0.03
HW_353410-SG-01  FLOW         ""               FLOW     1.0      1.0      0.03
HW_353410-WR-01  FLOW         ""               FLOW     1.0      1.0      0.03
HW_297710-WR-02  FLOW         ""               FLOW     1.0      1.0      0.03
HW_297710-SG-02  FLOW         ""               FLOW     1.0      1.0      0.03
HW_385612A-WR-01 FLOW         ""               FLOW     1.0      1.0      0.03
HW_385612A-SG-01 FLOW         ""               FLOW     1.0      1.0      0.03
HW_385412A-SG-02 FLOW         ""               FLOW     1.0      1.0      0.03
HW_385412A-WR-02 FLOW         ""               FLOW     1.0      1.0      0.03
HW_34893A-SG-03  FLOW         ""               FLOW     1.0      1.0      0.03
HW_34893A-WR-03  FLOW         ""               FLOW     1.0      1.0      0.03

[COORDINATES]
;;Node           X-Coord            Y-Coord
;;-------------- ------------------ ------------------
STMH18650        -5459632.70        518135.45         
STMH18649        -5459617.54        518142.45         
STMH18651        -5459688.88        518074.63         
STMH18652        -5459721.53        518060.67         
STMH18653        -5459728.91        518060.31         
STMH18453        -5459600.97        518150.03         
STMH18677        -5459656.29        518242.85         
STMH18654        -5459729.85        518098.80         
STMH18676        -5459654.48        518229.98         
STMH18702        -5459640.91        518276.62         
STMH18701        -5459659.70        518268.93         
STMH19072        -5459544.60        518519.04         
STMH19181        -5459207.71        518993.09         
STMH19176        -5459295.01        518488.51         
STMH19182        -5459208.76        519129.89         
STMH19063        -5459514.66        518513.09         
STMH19177        -5459312.29        518550.15         
STMH19179        -5459235.98        518786.36         
STMH19180        -5459206.28        518856.02         
STMH19178        -5459307.00        518707.21         
STMH18485        -5458760.05        519350.71         
STMH18148        -5460214.85        517407.17         
STMH18574        -5459208.95        518315.50         
STMH18464        -5459681.43        518460.56         
STMH18461        -5459664.69        518430.54         
STMH18462        -5459670.33        518445.52         
STMH19122        -5459871.88        518647.03         
STMH19124        -5459906.24        518607.23         
STMH19128        -5459975.19        518522.71         
STMH19126        -5459945.56        518570.21         
STMH19123        -5459891.20        518624.66         
STMH19125        -5459923.22        518590.01         
STMH19127        -5459975.59        518549.11         
STMH19148        -5459002.32        518281.42         
STMH19146        -5458969.92        518206.11         
STMH19145        -5459033.92        518206.66         
STMH19143        -5458979.26        518341.27         
STMH19142        -5459002.69        518341.42         
STMH19144        -5458954.71        518334.26         
STMH19147        -5459001.93        518217.42         
STMH18368        -5459225.82        518194.32         
STMH19169        -5459068.98        518335.59         
STMH19164        -5459101.36        518233.19         
STMH19163        -5459100.95        518179.19         
STMH19166        -5459096.68        518335.69         
STMH19165        -5459102.12        518330.19         
STMH19168        -5459055.98        518335.54         
STMH18585        -5458830.93        517743.67         
STMH15420        -5459250.05        517327.02         
STMH15417        -5459149.31        517226.82         
STMH15437        -5459444.08        517312.72         
STMH15407        -5459350.03        517227.24         
STMH15434        -5459134.24        517406.03         
STMH15424        -5459048.78        517337.22         
STMH15422        -5459048.98        517344.71         
STMH15423        -5459050.00        517382.70         
STMH14988        -5460002.58        517182.79         
STMH14985        -5460094.66        517063.02         
STMH19183        -5459170.47        519164.03         
STMH15777        -5461142.96        517221.77         
STMH15828        -5460562.74        518392.67         
STMH15827        -5460529.68        518396.04         
STMH15826        -5460563.65        518159.47         
STMH15825        -5460516.65        518159.19         
STMH15824        -5460368.65        518158.31         
STMH15823        -5460368.42        518195.74         
STMH15822        -5460464.26        518494.26         
STMH15821        -5460484.91        518400.61         
STMH15820        -5460463.04        518347.02         
STMH15819        -5460439.86        518322.55         
STMH15818        -5460399.87        518278.67         
STMH15817        -5460368.13        518243.44         
STMH15815        -5460056.28        518343.62         
STMH15814        -5460127.90        518343.95         
STMH15806        -5460070.67        518243.25         
STMH15871        -5458854.35        518152.74         
STMH15875        -5458957.36        518657.61         
STMH15861        -5459045.76        518741.99         
STMH15857        -5458858.54        518859.10         
STMH18138        -5460378.56        517555.22         
STMH18500        -5459102.67        518046.57         
STMH18499        -5459102.08        517961.57         
STMH18497        -5459054.13        518079.35         
STMH18498        -5459054.60        518148.49         
STMH18496        -5459053.25        517952.66         
STMH18577        -5459197.07        518362.75         
STMH18571        -5459211.90        518317.19         
STMH18004        -5459147.59        517822.27         
STMH18572        -5459217.86        518317.69         
STMH18569        -5459202.51        518183.27         
STMH18563        -5459518.64        517801.97         
STMH17576        -5458850.52        517344.05         
STMH17580        -5458792.02        517434.71         
STMH17583        -5458752.11        517383.57         
STMH18912        -5460173.81        518085.29         
STMH18899        -5459705.74        518356.79         
STMH17865        -5459549.18        517727.04         
STMH17864        -5459545.74        517625.76         
STMH17861        -5459549.73        517595.14         
STMH18902        -5459659.90        518365.41         
STMH17863        -5459552.11        517632.46         
STMH17859        -5459551.93        517542.59         
STMH17858        -5459549.98        517463.07         
STMH17860        -5459551.70        517599.24         
STMH18901        -5459674.86        518362.76         
STMH17862        -5459551.62        517699.87         
STMH18273        -5458951.54        518312.41         
STMH18271        -5458950.78        518190.16         
STMH18272        -5458951.05        518232.86         
STMH18900        -5459682.45        518361.18         
STMH17941        -5459527.34        517749.62         
STMH17951        -5458764.15        519110.55         
STMH18143        -5460219.17        517507.31         
STMH17968        -5460523.58        517588.15         
STMH17970        -5460561.76        517629.13         
STMH18134        -5460362.46        517498.47         
STMH18117        -5460390.66        517657.78         
STMH17992        -5460396.23        517404.12         
STMH17978        -5460487.11        517511.11         
STMH18114        -5460479.80        517699.50         
STMH17989        -5460407.77        517498.19         
STMH17957        -5460499.07        517699.76         
STMH18131        -5460372.92        517586.11         
STMH17964        -5460565.64        517557.76         
STMH17982        -5460478.88        517462.73         
STMH18136        -5460362.56        517404.56         
STMH17973        -5460528.23        517659.64         
STMH17993        -5460396.30        517346.22         
STMH17986        -5460404.32        517420.43         
STMH17955        -5460575.87        517700.80         
STMH17981        -5460493.62        517485.35         
STMH18151        -5460312.69        517409.62         
STMH17983        -5460458.36        517442.09         
STMH17963        -5460614.73        517558.43         
STMH18124        -5460362.23        517658.42         
STMH18156        -5460169.37        517344.35         
STMH18123        -5460362.17        517697.12         
STMH18160        -5460172.56        517350.56         
STMH17994        -5460347.97        517406.04         
STMH18121        -5460362.26        517626.43         
STMH18128        -5460362.30        517599.73         
STMH18122        -5460362.13        517728.52         
STMH18354        -5459267.28        518190.29         
STMH18376        -5459394.45        518291.09         
STMH18381        -5459401.05        518308.48         
STMH18754        -5459842.50        517861.33         
STMH18382        -5459414.81        518344.43         
STMH18369        -5459190.63        518160.35         
STMH18383        -5459430.73        518383.78         
STMH18384        -5459440.47        518407.34         
STMH18385        -5459452.13        518449.14         
STMH18297        -5459772.78        517460.53         
STMH18296        -5459952.83        517461.58         
STMH18019        -5458952.60        517563.73         
STMH18203        -5460782.09        517475.47         
STMH19076        -5460144.40        518275.89         
STMH18406        -5460105.23        517421.78         
STMH18400        -5458824.54        518354.44         
STMH18392        -5460871.00        517569.15         
STMH18173        -5458757.54        518134.63         
STMH17952        -5458759.48        519110.87         
STMH18021        -5458950.89        517672.69         
STMH18039        -5458794.40        517587.52         
STMH18026        -5458916.36        517614.95         
STMH18313        -5459581.37        517593.46         
STMH18314        -5459569.37        517593.37         
STMH18310        -5459568.71        517608.10         
STMH18245        -5458951.33        517819.67         
STMH18249        -5458900.83        517782.45         
STMH18325        -5459885.79        517543.42         
STMH14800        -5460047.80        517425.20         
STMH18334        -5459605.80        517540.83         
STMH18306        -5459605.58        517583.67         
STMH18332        -5459710.54        517541.49         
STMH18326        -5459885.69        517583.87         
STMH18027        -5458840.19        517735.97         
STMH18022        -5458950.84        517694.01         
STMH18020        -5458952.37        517651.87         
STMH18145        -5460219.34        517407.21         
STMH18150        -5460172.45        517406.75         
STMH18141        -5460247.25        517553.93         
STMH18120        -5460373.46        517626.58         
STMH17988        -5460418.22        517510.18         
STMH18165        -5460351.95        517352.34         
STMH17990        -5460407.61        517430.79         
STMH18153        -5460172.93        517414.52         
STMH18125        -5460362.23        517647.43         
STMH18162        -5460179.88        517365.16         
STMH18168        -5460362.45        517352.44         
STMH18157        -5460169.21        517426.35         
STMH18159        -5460162.44        517420.55         
STMH18154        -5460164.73        517422.18         
STMH18199        -5460748.11        517585.17         
STMH18031        -5458794.61        517693.42         
STMH18028        -5458866.29        517615.08         
STMH18196        -5460725.32        517628.44         
STMH18220        -5460716.99        517494.49         
STMH18489        -5460655.83        517456.14         
STMH18210        -5460798.00        517611.74         
STMH18205        -5460776.86        517456.89         
STMH18491        -5460652.78        517437.36         
STMH18494        -5460773.83        517699.30         
STMH18492        -5460639.32        517460.09         
STMH18253        -5458799.50        517842.93         
STMH18207        -5460765.75        517698.01         
STMH18200        -5460743.38        517574.54         
STMH18211        -5460831.42        517548.31         
STMH18221        -5460694.67        517520.67         
STMH18202        -5460777.91        517509.31         
STMH18201        -5460754.29        517553.84         
STMH18212        -5460845.14        517508.71         
STMH18198        -5460739.67        517601.19         
STMH18216        -5460836.36        517437.44         
STMH18193        -5460697.45        517566.87         
STMH19014        -5459157.97        518515.30         
STMH19015        -5459106.98        518429.21         
STMH18230        -5459062.57        518157.87         
STMH19047        -5459771.56        518271.95         
STMH18229        -5459103.70        518158.07         
STMH18268        -5458852.00        518221.92         
STMH18264        -5458804.53        518354.46         
STMH18262        -5458855.43        518354.65         
STMH18261        -5458855.28        518329.56         
STMH18267        -5458852.41        518288.97         
STMH18454        -5459600.70        518207.29         
STMH18455        -5459621.34        518287.27         
STMH18458        -5459634.27        518328.32         
STMH17944        -5459041.65        517748.22         
STMH18255        -5458758.10        518354.30         
STMH18278        -5458908.60        518198.16         
STMH18274        -5458908.60        518295.36         
STMH18277        -5458902.92        518193.36         
STMH18270        -5458770.38        518354.34         
STMH17997        -5460247.39        517405.14         
STMH18765        -5459938.62        517907.93         
STMH19011        -5459023.94        517563.45         
STMH18897        -5459739.16        518340.46         
STMH18898        -5459719.37        518350.06         
STMH18295        -5459961.41        517456.55         
STMH18293        -5460047.84        517421.34         
STMH18303        -5459976.85        517449.08         
STMH18301        -5460036.52        517419.64         
STMH15866        -5459295.39        517623.20         
STMH18728        -5460810.17        517896.52         
STMH18732        -5460606.72        517875.11         
STMH18740        -5460735.00        517953.43         
STMH18783        -5460085.76        517546.09         
STMH18785        -5460128.88        517551.85         
STMH18784        -5460112.01        517546.29         
STMH18782        -5460034.78        517545.69         
STMH18265        -5458855.49        518363.25         
STMH15833        -5460511.86        518061.70         
STMH18308        -5459586.33        517595.59         
STMH18317        -5459576.59        517625.33         
STMH18179        -5458756.14        518631.83         
STMH18307        -5459600.99        517587.80         
STMH18311        -5459600.88        517591.82         
STMH18545        -5459055.49        519046.22         
STMH18007        -5459148.54        517998.01         
STMH18000        -5459148.52        517951.37         
STMH18001        -5459148.26        517915.77         
STMH18655        -5459736.43        517860.03         
STMH18656        -5459701.33        517867.57         
STMH18657        -5459678.83        517879.37         
STMH18658        -5459661.36        517906.41         
STMH18659        -5459661.79        517933.31         
STMH18660        -5459671.75        517957.43         
STMH18661        -5459684.42        517968.78         
STMH18662        -5459705.59        517978.02         
STMH18663        -5459727.76        517977.75         
STMH18664        -5459746.06        517977.53         
STMH18668        -5459654.32        517968.94         
STMH15851        -5458761.30        518864.04         
STMH15852        -5458761.07        518817.69         
STMH15864        -5459151.40        517622.45         
STMH18930        -5460121.62        517762.41         
STMH18982        -5460120.76        517747.93         
STMH18931        -5460122.38        517801.43         
STMH18933        -5460124.03        517843.47         
STMH18935        -5460126.63        518050.65         
STMH18932        -5460122.77        517830.03         
STMH18934        -5460125.39        517955.46         
STMH15426        -5459000.60        517342.75         
STMH15425        -5459000.63        517336.85         
STMH15421        -5459295.71        517271.91         
STMH15419        -5459250.16        517281.52         
STMH15418        -5459250.29        517227.03         
STMH15416        -5459527.14        517227.61         
STMH18988        -5460315.82        517738.78         
STMH18985        -5460337.01        517749.20         
STMH18987        -5460309.99        517746.54         
STMH18984        -5460268.39        517748.80         
STMH18986        -5460295.59        517746.46         
STMH18997        -5460366.61        517762.61         
STMH18625        -5459034.19        517673.30         
STMH18996        -5460362.12        517733.93         
STMH18631        -5458950.93        517656.37         
STMH18628        -5458990.76        517674.55         
STMH18626        -5458993.75        517574.66         
STMH18627        -5458993.54        517672.97         
STMH18629        -5458961.17        517674.31         
STMH19020        -5460311.33        517694.56         
STMH19019        -5460311.43        517626.32         
STMH19017        -5460311.54        517554.57         
STMH15411        -5459197.76        517336.96         
STMH15410        -5459197.85        517292.08         
STMH15409        -5459149.19        517292.01         
STMH15408        -5459349.78        517312.41         
STMH15436        -5459295.84        517227.13         
STMH18459        -5459648.00        518369.72         
STMH18460        -5459666.20        518420.07         
STMH18463        -5459678.38        518452.46         
STMH15435        -5459370.23        517227.28         
STMH15406        -5459447.28        517227.44         
STMH15405        -5459464.03        517227.48         
STMH18648        -5459771.37        518244.56         
STMH18639        -5459763.68        517828.43         
STMH18640        -5459764.21        517861.82         
STMH15776        -5461159.55        517249.91         
STMH15830        -5459774.08        518223.63         
STMH15829        -5460563.65        518197.52         
STMH15834        -5460457.96        518529.20         
STMH15816        -5460507.83        517754.66         
STMH15856        -5458858.60        518864.29         
STMH18637        -5459762.65        517761.99         
STMH18634        -5459750.42        517746.37         
STMH18641        -5459765.99        517977.31         
STMH18643        -5459767.02        518042.40         
STMH18632        -5459765.79        517769.70         
STMH18633        -5459765.56        517756.00         
STMH18259        -5458915.21        518330.59         
STMH18260        -5458866.63        518329.56         
STMH18242        -5458848.35        517795.49         
STMH18235        -5458929.83        517949.99         
STMH18234        -5458944.52        517959.31         
STMH18233        -5458980.81        518057.30         
STMH17911        -5459569.27        517380.35         
STMH17855        -5459568.31        517394.02         
STMH17850        -5459584.33        517451.04         
STMH17851        -5459560.86        517450.89         
STMH17852        -5459560.83        517542.62         
STMH17853        -5459560.97        517418.65         
STMH17854        -5459560.86        517406.75         
STMH18006        -5459147.82        517858.07         
STMH18002        -5459147.08        517759.87         
STMH18005        -5459147.17        517771.97         
STMH18337        -5459200.42        517951.66         
STMH18014        -5459222.43        517921.52         
STMH18338        -5459263.74        517982.73         
STMH18018        -5459234.95        517963.89         
STMH18346        -5459386.91        517872.39         
STMH18349        -5459318.36        517977.15         
STMH18352        -5459270.91        518076.80         
STMH18348        -5459296.79        518010.12         
STMH18353        -5459274.63        518168.92         
STMH18351        -5459275.21        518051.97         
STMH18350        -5459284.74        518028.53         
STMH18016        -5459312.55        517845.61         
STMH18017        -5459299.85        517865.02         
STMH18341        -5459329.46        517884.43         
STMH18345        -5459221.12        517833.80         
STMH18344        -5459269.12        517833.99         
STMH18343        -5459308.24        517870.57         
STMH18009        -5459189.42        517857.46         
STMH18013        -5459222.23        517909.02         
STMH18363        -5459340.17        517808.12         
STMH18359        -5459228.62        518165.07         
STMH18361        -5459373.66        517754.29         
STMH18377        -5459424.41        518282.39         
STMH18635        -5459666.52        517746.21         
STMH18636        -5459597.62        517745.76         
STMH18644        -5459767.28        518057.06         
STMH18646        -5459769.99        518155.44         
STMH18647        -5459770.61        518195.76         
STMH18693        -5459621.20        518189.34         
STMH18692        -5459610.85        518197.68         
STMH18694        -5459652.66        518163.99         
STMH18695        -5459679.05        518136.10         
STMH18691        -5459612.05        518204.42         
STMH19103        -5459851.42        518524.63         
STMH19099        -5459761.82        518529.01         
STMH19098        -5459805.64        518644.84         
STMH19052        -5459393.66        517713.29         
STMH19081        -5459324.04        517704.35         
STMH19100        -5459744.83        518484.10         
STMH19105        -5459816.85        518433.26         
STMH19104        -5459827.52        518461.47         
STMH19024        -5460216.96        517553.64         
STMH19023        -5460264.82        517681.38         
STMH19021        -5460265.01        517581.73         
STMH19022        -5460264.91        517636.28         
STMH18305        -5459774.43        518250.36         
STMH18139        -5460341.52        517554.86         
STMH19018        -5460311.49        517582.92         
STMH15404        -5459098.20        517405.88         
STMH15403        -5459098.31        517338.00         
STMH17976        -5460501.31        517526.39         
STMH17966        -5460501.27        517551.37         
STMH17980        -5460499.50        517511.19         
STMH17985        -5460410.02        517420.51         
STMH17987        -5460373.13        517420.01         
STMH17984        -5460436.61        517427.12         
STMH18030        -5458830.97        517735.86         
STMH18133        -5460362.57        517419.97         
STMH18135        -5460362.61        517366.16         
STMH18129        -5460362.32        517585.87         
STMH18032        -5458752.30        517691.10         
STMH18038        -5458753.06        517726.09         
STMH18197        -5460731.29        517617.11         
STMH18217        -5460792.35        517451.83         
STMH18204        -5460778.14        517461.42         
STMH18493        -5460806.57        517699.63         
STMH18192        -5460841.59        517433.09         
STMH18347        -5459364.19        517907.11         
STMH18761        -5459813.36        517907.76         
STMH18760        -5459821.94        517914.78         
STMH18753        -5459812.56        517861.53         
STMH18759        -5459962.26        517946.62         
STMH18752        -5459793.28        517861.64         
STMH18762        -5459830.27        517904.60         
STMH18894        -5459039.93        517561.98         
STMH18360        -5459379.25        517748.21         
STMH17999        -5459148.70        517973.67         
STMH18979        -5459982.37        517747.13         
STMH18981        -5460062.47        517747.59         
STMH18980        -5460044.73        517747.49         
STMH17856        -5459549.92        517414.88         
STMH18218        -5460758.23        517462.99         
STMH18219        -5460723.93        517486.35         
STMH18195        -5460685.58        517529.54         
STMH18194        -5460690.75        517538.45         
STMH18209        -5460773.32        517658.42         
STMH18208        -5460765.93        517685.01         
STMH18206        -5460765.46        517718.61         
STMH18215        -5460843.34        517441.49         
STMH18214        -5460845.38        517449.54         
STMH18213        -5460846.08        517475.83         
STMH18183        -5458757.16        518848.73         
STMH18407        -5460105.32        517375.69         
STMH18408        -5460120.04        517375.83         
STMH18258        -5458951.67        518334.24         
STMH18266        -5458852.45        518295.37         
STMH18466        -5459690.39        518484.38         
STMH18163        -5460323.18        517343.43         
STMH18164        -5460248.19        517342.70         
STMH19150        -5459086.84        517614.51         
STMH19149        -5459034.33        517614.19         
STMH19151        -5459105.87        517614.63         
STMH18730        -5460769.51        517877.00         
STMH18741        -5460560.77        517798.02         
STMH18744        -5460564.31        518032.25         
STMH18731        -5460647.47        517875.58         
STMH18831        -5460881.04        517759.54         
STMH18739        -5460628.95        517952.20         
STMH18721        -5460809.14        517754.99         
STMH18745        -5460867.57        517831.56         
STMH18722        -5460877.13        517755.90         
STMH18735        -5460608.11        517952.00         
STMH18720        -5460764.94        517754.40         
STMH17947        -5458764.14        517742.44         
STMH18515        -5460049.70        517419.69         
STMH18726        -5460561.85        518062.28         
STMH18254        -5458799.89        517899.27         
STMH18758        -5459856.35        517947.23         
STMH18330        -5459747.21        517554.60         
STMH18003        -5459147.78        517852.87         
STMH18756        -5459960.02        517860.56         
STMH18763        -5459868.74        517904.36         
STMH18755        -5459883.37        517861.06         
STMH17979        -5460499.02        517735.96         
STMH17575        -5458850.51        517352.50         
STMH17574        -5458850.43        517433.30         
STMH17581        -5458768.53        517434.98         
STMH17582        -5458768.61        517383.65         
STMH17584        -5458752.17        517348.34         
STMH17573        -5458850.53        517336.28         
STMH17577        -5458761.83        517335.95         
STMH18456        -5459637.27        518293.50         
STMH18457        -5459643.24        518311.11         
STMH18171        -5458756.30        517961.13         
STMH18035        -5458866.39        517652.09         
STMH18336        -5459149.48        518158.20         
STMH18706        -5458914.49        518428.48         
STMH18938        -5458850.31        518512.02         
STMH18707        -5458957.60        518517.21         
STMH18705        -5458804.70        518455.30         
STMH18709        -5458956.03        518405.46         
STMH18708        -5458956.42        518458.21         
STMH18335        -5459149.19        518083.20         
STMH18340        -5459362.17        517834.44         
STMH18011        -5459242.98        517862.98         
STMH18339        -5459419.57        517834.68         
STMH18012        -5459250.68        517865.16         
STMH18015        -5459284.90        517887.56         
STMH18342        -5459277.28        517964.17         
STMH18757        -5459847.71        517935.98         
STMH18251        -5458854.00        517843.03         
STMH17945        -5458959.65        517745.47         
STMH17943        -5459162.68        517749.69         
STMH17946        -5458857.65        517744.16         
STMH18036        -5458850.44        517763.06         
STMH17857        -5459552.29        517452.32         
STMH18994        -5460366.67        517751.39         
STMH18298        -5459594.58        517459.57         
STMH18246        -5458951.05        517783.87         
STMH18244        -5458952.20        517934.36         
STMH18248        -5458901.79        517829.09         
STMH18247        -5458901.68        517930.54         
STMH18391        -5460845.44        517555.69         
STMH17961        -5460659.03        517558.64         
STMH17962        -5460630.86        517566.09         
STMH17960        -5460674.82        517540.04         
STMH17972        -5460499.13        517659.24         
STMH17971        -5460499.17        517628.28         
STMH17958        -5460498.77        517557.59         
STMH17959        -5460498.53        517587.79         
STMH17967        -5460597.87        517589.21         
STMH18130        -5460479.11        517587.55         
STMH18118        -5460372.99        517657.54         
STMH17975        -5460568.01        517524.82         
STMH17974        -5460613.62        517660.79         
STMH17956        -5460515.37        517699.98         
STMH17954        -5460641.36        517701.69         
STMH18172        -5458756.90        518059.84         
STMH18033        -5458794.50        517652.28         
STMH18034        -5458753.25        517598.54         
STMH18399        -5458773.67        517693.14         
STMH18025        -5458831.18        517694.32         
STMH18166        -5460232.86        517351.16         
STMH18167        -5460277.46        517351.60         
STMH18158        -5460169.10        517485.05         
STMH18155        -5460169.03        517517.45         
STMH18161        -5460172.53        517365.15         
STMH18481        -5460180.75        517399.68         
STMH18147        -5460209.85        517407.12         
STMH17950        -5458763.92        519054.10         
STMH17996        -5460180.79        517404.48         
STMH18479        -5460274.32        517520.88         
STMH17998        -5460263.78        517405.28         
STMH18140        -5460265.02        517554.11         
STMH17995        -5460310.08        517405.74         
STMH18169        -5460265.09        517513.51         
STMH18170        -5460265.26        517407.11         
STMH18144        -5460219.39        517466.61         
STMH18152        -5460312.53        517505.91         
STMH18132        -5460362.40        517524.37         
STMH18127        -5460362.36        517555.07         
STMH18300        -5460047.90        517415.44         
STMH18304        -5459961.39        517453.78         
STMH18302        -5460009.77        517426.09         
STMH18294        -5459992.00        517441.14         
STMH18263        -5458827.53        518354.55         
STMH18115        -5460431.90        517698.85         
STMH18137        -5460479.25        517556.21         
STMH18119        -5460480.25        517628.03         
STMH17969        -5460610.76        517629.80         
STMH18983        -5460186.78        517748.32         
STMH18269        -5458851.77        518185.37         
STMH18378        -5459463.21        518255.15         
STMH18299        -5460159.42        517420.53         
STMH18292        -5460159.65        517422.20         
STMH18379        -5459504.26        518189.77         
STMH18380        -5459544.85        518161.44         
STMH18010        -5459223.18        517863.23         
STMH18331        -5459747.24        517541.84         
STMH18328        -5459781.53        517621.79         
STMH18386        -5459457.17        518466.64         
STMH18581        -5459435.92        518370.24         
STMH18580        -5459427.69        518349.40         
STMH18355        -5459255.90        518201.83         
STMH18373        -5459291.35        518248.87         
STMH18375        -5459373.55        518293.18         
STMH18374        -5459325.47        518279.47         
STMH18008        -5459157.53        517857.73         
STMH18358        -5459228.45        518151.77         
STMH18357        -5459227.08        518042.08         
STMH18366        -5459190.40        517977.91         
STMH18367        -5459192.33        518123.79         
STMH18371        -5459231.53        518179.29         
STMH18370        -5459221.35        518173.45         
STMH18365        -5459230.43        517974.12         
STMH18362        -5459342.48        517760.00         
STMH18820        -5459580.15        517757.31         
STMH18565        -5459476.77        517761.40         
STMH18951        -5459151.51        518359.45         
STMH18954        -5459152.25        518458.45         
STMH18952        -5459151.90        518412.85         
STMH18953        -5459152.13        518444.85         
STMH18950        -5459106.88        518412.71         
STMH18989        -5460335.29        517737.90         
STMH18990        -5460339.87        517737.93         
STMH18995        -5460360.02        517737.13         
STMH19016        -5460335.18        517732.29         
STMH18991        -5460349.59        517737.97         
STMH18992        -5460350.36        517751.31         
STMH18993        -5460360.02        517751.38         
STMH19046        -5459956.76        518347.53         
STMH19045        -5459924.75        518334.16         
STMH19044        -5459802.22        518334.98         
STMH19043        -5459772.83        518334.70         
STMH18869        -5459405.76        517503.65         
STMH18958        -5459106.66        518370.23         
STMH18866        -5459493.57        517521.53         
STMH18960        -5459150.72        518259.96         
STMH18957        -5459055.90        518362.71         
STMH18959        -5459150.12        518184.95         
STMH18961        -5459151.30        518332.45         
STMH14802        -5459961.32        517447.25         
STMH14801        -5460152.19        517426.19         
STMH15014        -5459961.51        517543.85         
STMH15808        -5459969.31        518287.98         
STMH15807        -5459970.72        518343.21         
STMH15873        -5458947.53        518857.89         
STMH15872        -5458953.35        518153.62         
STMH15878        -5458780.36        518152.08         
STMH15877        -5459407.35        517623.79         
STMH15867        -5459367.70        517623.58         
STMH15865        -5459223.08        517622.82         
STMH15863        -5458864.75        518648.33         
STMH15862        -5458864.71        518657.33         
STMH15874        -5458957.39        518661.21         
STMH15876        -5459046.50        518792.39         
STMH15860        -5459044.60        518661.47         
STMH15859        -5459052.22        518941.21         
STMH15858        -5459047.32        518856.55         
STMH15855        -5458762.27        518951.86         
STMH15854        -5458760.10        518870.75         
STMH15853        -5458761.86        518886.36         
STMH18924        -5460218.51        517846.56         
STMH18925        -5460219.29        517908.60         
STMH18356        -5459250.93        518005.82         
STMH18372        -5459237.97        518185.29         
STMH18364        -5459318.71        517840.92         
STMH18449        -5459589.64        518162.95         
STMH18451        -5459573.55        518156.05         
STMH18452        -5459587.78        518152.65         
STMH18821        -5459587.65        517757.24         
STMH18469        -5459787.12        518740.84         
STMH18445        -5459565.57        517972.55         
STMH18439        -5459560.21        517785.30         
STMH18448        -5459587.08        518122.63         
STMH18470        -5459806.97        518794.17         
STMH18440        -5459543.64        517801.96         
STMH18467        -5459709.08        518534.08         
STMH18446        -5459574.20        518044.42         
STMH18468        -5459743.37        518624.81         
STMH18441        -5459557.14        517812.04         
STMH18442        -5459557.38        517835.04         
STMH18447        -5459583.33        518101.97         
STMH18471        -5459815.07        518794.24         
STMH18438        -5459560.24        517775.40         
STMH18116        -5460475.96        517659.45         
STMH18329        -5459747.03        517621.60         
STMH18327        -5459850.53        517622.18         
STMH18787        -5459985.33        517645.68         
STMH18575        -5459196.64        518326.01         
STMH18315        -5459569.52        517543.43         
STMH18786        -5460136.47        517552.26         
STMH18309        -5459575.74        517601.23         
STMH18788        -5460004.79        517645.64         
STMH18444        -5459562.04        517932.41         
STMH18725        -5460609.07        518032.47         
STMH18724        -5460678.51        518033.19         
STMH18734        -5460605.90        517820.07         
STMH18723        -5460740.58        518033.91         
STMH18737        -5460658.84        518114.14         
STMH18736        -5460629.59        518083.17         
STMH18727        -5460739.29        518145.00         
STMH18830        -5460806.74        517902.72         
STMH18738        -5460697.92        518117.85         
STMH18718        -5460604.86        517751.99         
STMH18829        -5460806.51        517907.48         
STMH18729        -5460763.14        517995.58         
STMH18742        -5460562.21        517893.16         
STMH18719        -5460641.92        517752.50         
STMH18743        -5460562.63        517921.41         
STMH18717        -5460560.05        517751.38         
STMH18976        -5459951.01        517750.13         
STMH18978        -5459967.16        517747.04         
STMH18733        -5460605.14        517770.57         
STMH18716        -5460499.01        517751.04         
STMH18699        -5459621.06        518206.50         
STMH18697        -5459731.00        518165.70         
STMH18696        -5459730.77        518151.21         
STMH18698        -5459645.81        518212.18         
STMH18700        -5459674.01        518226.88         
STMH18780        -5459966.63        517545.04         
STMH18791        -5460034.73        517594.54         
STMH18792        -5460077.28        517594.59         
STMH18781        -5460005.10        517545.32         
STMH18312        -5459590.55        517597.31         
STMH18567        -5459427.86        517858.23         
STMH18578        -5459197.76        518377.97         
STMH18566        -5459443.13        517839.33         
STMH18573        -5459231.64        518340.53         
STMH18794        -5460090.22        517595.64         
STMH18579        -5459197.75        518392.97         
STMH18789        -5460034.55        517645.70         
STMH18793        -5460085.80        517572.55         
STMH18570        -5459195.70        518195.50         
STMH18568        -5459211.91        518181.31         
STMH18790        -5460034.46        517692.68         
STMH18712        -5458849.84        518460.62         
STMH18318        -5459956.86        517720.88         
STMH18324        -5459923.88        517543.85         
STMH18320        -5459957.36        517545.19         
STMH18488        -5460706.15        517491.12         
STMH18746        -5460866.79        517849.44         
STMH18126        -5460369.93        517733.50         
STMH18256        -5458758.38        518403.44         
STMH18257        -5458758.95        518500.59         
STMH18276        -5458771.08        518403.48         
STMH18275        -5458804.39        518403.57         
STMH18146        -5460243.84        517407.45         
STMH18862        -5459263.52        518315.20         
STMH18843        -5460004.75        517692.48         
STMH18319        -5459957.08        517645.73         
STMH18333        -5459709.84        517616.44         
STMH18844        -5460004.78        517661.86         
STMH18896        -5459773.99        518412.22         
STMH18860        -5459238.74        518237.58         
STMH18893        -5459137.53        517562.57         
STMH17942        -5459384.25        517748.21         
STMH18867        -5459493.52        517624.67         
STMH18863        -5459266.33        518337.08         
STMH18868        -5459423.62        517505.86         
STMH18184        -5458757.90        518950.87         
STMH17953        -5458759.80        519220.86         
STMH17965        -5460506.74        517556.94         
STMH17977        -5460499.31        517522.99         
STMH18764        -5459882.27        517908.28         
STMH18870        -5459423.39        517564.88         
STMH19170        -5459288.12        518419.85         
STMH18624        -5459034.45        517565.39         
STMH18861        -5459259.46        518245.75         
STMH18864        -5459280.58        518384.33         
STMH18665        -5459576.93        517972.89         
STMH18671        -5459725.28        518143.14         
STMH18645        -5459768.49        518136.75         
STMH18679        -5459698.75        518176.09         
STMH18681        -5459728.95        518220.29         
STMH18683        -5459574.69        517932.91         
STMH18689        -5459713.97        518017.32         
STMH18688        -5459679.77        518017.86         
STMH18674        -5459658.26        518217.18         
STMH18666        -5459604.73        517973.30         
STMH18678        -5459666.01        518208.02         
STMH18669        -5459623.99        518029.65         
STMH18672        -5459714.75        518150.36         
STMH18685        -5459594.36        518102.10         
STMH18670        -5459748.99        518136.97         
STMH18680        -5459717.55        518191.99         
STMH18667        -5459617.12        517973.67         
STMH18682        -5459729.32        518243.59         
STMH18687        -5459679.22        517981.77         
STMH18673        -5459691.19        518178.23         
STMH18686        -5459626.68        518075.59         
STMH18690        -5459728.35        518016.55         
STMH18684        -5459635.29        517933.18         
STMH18675        -5459655.07        518224.61         
STMH18948        -5459056.28        518412.54         
STMH18949        -5459056.59        518455.54         
STMH18974        -5459865.34        517746.45         
STMH18975        -5459916.34        517746.74         
STMH18977        -5459958.50        517746.99         
STMH18973        -5459786.47        517746.00         
STMH18972        -5459767.37        517746.15         
STMH18711        -5458855.77        518408.76         
STMH18710        -5458970.03        518405.50         
STMH19174        -5460263.43        518015.88         
STMH19173        -5460262.78        517955.04         
STMH18919        -5460198.52        518073.03         
STMH18914        -5460217.32        517796.21         
STMH18913        -5460193.23        517795.48         
STMH18906        -5460170.33        517795.79         
STMH18916        -5460260.85        517799.48         
STMH18917        -5460263.81        518056.33         
STMH18915        -5460256.90        517795.24         
STMH18928        -5460308.09        517911.82         
STMH18923        -5460263.50        518033.87         
STMH18927        -5460307.39        517875.72         
STMH18920        -5460261.12        517833.88         
STMH18921        -5460261.65        517876.07         
STMH18922        -5460262.69        517943.96         
STMH18918        -5460232.64        518061.57         
STMH18562        -5459533.64        517801.96         
STMH18237        -5458800.48        517950.18         
STMH18241        -5458850.52        517800.02         
STMH18240        -5458850.91        517874.97         
STMH18239        -5458851.50        517948.70         
STMH18252        -5458850.63        517829.12         
STMH18250        -5458854.05        517829.13         
STMH18238        -5458755.67        517949.23         
STMH18231        -5459051.29        518150.13         
STMH18236        -5458856.30        517950.39         
STMH18232        -5459009.41        518105.50         
STMH19175        -5460272.03        517876.04         
STMH19064        -5459484.77        518507.82         
STMH19065        -5459470.49        518512.96         
STMH19061        -5459539.08        518526.15         
STMH19060        -5459582.75        518583.01         
STMH19059        -5459607.41        518603.85         
STMH19058        -5459653.26        518642.60         
STMH19057        -5459670.67        518648.15         
STMH19056        -5459697.90        518634.10         
STMH19055        -5459709.33        518597.72         
STMH19062        -5459532.74        518523.51         
STMH19079        -5460172.22        518160.90         
STMH19077        -5460148.60        518235.85         
STMH19078        -5460150.23        518221.67         
STMH19083        -5459770.47        518453.17         
STMH19084        -5459780.91        518454.47         
STMH19085        -5459794.81        518491.21         
STMH19086        -5459813.21        518539.83         
STMH19087        -5459839.15        518608.40         
STMH19088        -5459849.37        518635.41         
STMH19089        -5459857.14        518646.69         
STMH19082        -5459778.84        518441.57         
STMH19090        -5459854.97        518602.42         
STMH19091        -5459898.28        518559.64         
STMH19092        -5459926.94        518531.33         
STMH19093        -5459934.92        518510.65         
STMH19094        -5459934.41        518480.64         
STMH19095        -5459884.76        518512.11         
STMH19096        -5459863.20        518455.13         
STMH19097        -5459858.69        518429.97         
STMH19152        -5460004.98        517594.73         
STMH18905        -5460169.38        517761.44         
STMH18903        -5460164.18        517748.19         
STMH18908        -5460172.19        517933.68         
STMH18907        -5460171.22        517859.23         
STMH18910        -5460173.67        518052.49         
STMH18904        -5460169.77        517753.48         
STMH18909        -5460173.47        518034.57         
STMH18854        -5458804.55        518347.08         
STMH18853        -5458819.07        518347.77         
STMH18911        -5460173.72        518073.19         
STMH18848        -5459131.20        517749.50         
STMH18845        -5459144.02        517530.72         
STMH18846        -5459143.73        517622.36         
STMH18847        -5459142.59        517727.34         
STMH18942        -5459372.73        517503.93         
STMH18947        -5459469.89        517624.14         
STMH18946        -5459493.29        517464.00         
STMH18945        -5459191.38        517502.76         
STMH18943        -5459300.97        517503.80         
STMH18944        -5459228.38        517502.99         
STMH19029        -5460168.64        517694.16         
STMH19026        -5460216.72        517680.89         
STMH19025        -5460216.91        517582.29         
STMH19031        -5460278.49        517694.38         
STMH19028        -5460168.84        517589.36         
STMH19027        -5460168.93        517568.06         
STMH18142        -5460168.96        517553.16         
STMH19030        -5460196.85        517694.13         
STMH18849        -5460555.87        518057.87         
STMH18548        -5459234.88        517709.01         
STMH18549        -5459264.88        517709.14         
STMH18937        -5459234.67        517745.58         
STMH18850        -5460517.38        518057.41         
STMH18550        -5459303.29        517706.36         
STMH18865        -5459493.72        517507.23         
STMH18955        -5459152.62        518508.95         
STMH18926        -5460220.85        518021.35         
STMH17866        -5459535.93        517625.09         
STMH15443        -5459000.49        517416.03         
STMH14987        -5460009.49        517143.39         
STMH14986        -5460036.43        517002.45         
STMH14984        -5460036.22        517090.66         
STMH14983        -5459997.90        517101.22         
STMH19102        -5459863.25        518555.90         
STMH19101        -5459747.46        518469.38         
STMH15778        -5461002.91        517255.54         
STMH17991        -5460402.19        517416.13         
STMH18149        -5460214.81        517410.80         
STMH18037        -5458753.10        517681.73         
STMH18316        -5459602.38        517593.96         
STMH18477        -5460180.14        517517.47         
STMH18490        -5460654.19        517450.89         
STMH18564        -5459521.21        517807.82         
STMH18576        -5459206.91        518321.79         
STMH15784        -5460969.29        517254.72         
STMH18704        -5459779.26        518197.85         
STMH18703        -5459774.49        518195.54         
STMH18768        -5459843.96        518155.08         
STMH18769        -5459861.99        518155.00         
STMH18770        -5459862.47        518186.12         
STMH18767        -5459782.09        518155.35         
STMH19136        -5459043.33        518155.53         
STMH19135        -5460338.23        517795.45         
STMH19137        -5458950.88        518205.94         
STMH19140        -5459055.59        518265.85         
STMH19138        -5459055.02        518173.85         
STMH19141        -5459056.02        518341.78         
STMH19139        -5459055.23        518205.85         
STMH19115        -5459688.02        518478.08         
STMH19108        -5459883.67        518433.34         
STMH19117        -5459718.81        518461.08         
STMH19121        -5459691.82        518455.69         
STMH19116        -5459722.27        518462.08         
STMH19111        -5459741.10        518467.53         
STMH19112        -5459728.32        518463.83         
STMH19113        -5459724.67        518464.23         
STMH19107        -5459969.94        518472.22         
STMH19119        -5459717.31        518459.53         
STMH19110        -5459783.55        518435.06         
STMH19120        -5459709.91        518451.52         
STMH19118        -5459709.04        518460.45         
STMH19106        -5459944.70        518478.20         
STMH19114        -5459698.56        518474.11         
STMH19109        -5459843.40        518424.79         
STMH18023        -5458950.72        517745.43         
STMH18178        -5458754.71        518389.49         
STMH18177        -5458753.46        518155.16         
STMH19211        -5459034.05        517729.05         
STMH19212        -5459036.84        517731.48         
STMH17949        -5458751.35        517834.50         
STMH19213        -5459030.86        517728.43         
STMH19214        -5458964.82        517728.14         
STMH18024        -5458950.82        517729.43         
STMH18176        -5458752.61        518029.49         
STMH18029        -5458747.05        517742.68         
STCO15806        -5460472.33        518449.49         
STCO16045        -5458802.60        517336.10         
STCO16086        -5458872.91        517593.18         
STCO16128        -5460120.07        517363.83         
STCO19982        -5459815.54        517922.50         
STCO19980        -5458914.52        518441.98         
STCO19989        -5459731.59        518384.88         
STCO19988        -5459732.29        518294.15         
STCO20025        -5459913.39        518437.35         
STCO20026        -5459105.90        517603.57         
STCO20039        -5460195.67        518034.56         
STCO19990        -5460237.65        518021.59         
STCO15255        -5459304.69        517325.71         
STCO15260        -5459009.20        517421.00         
STCO16044        -5458899.83        517336.47         
STCO16046        -5458785.12        517383.59         
STCO16123        -5460728.87        517653.29         
STCO19983        -5460095.41        517693.02         
STCO19978        -5459699.00        518111.32         
STCO19977        -5459728.63        518033.55         
STCO19976        -5459660.47        518047.87         
STCO19979        -5459688.60        518239.25         
STCO19975        -5459730.23        518114.90         
STCE15916        -5460888.52        517356.65         
STCE15907        -5460248.29        517332.02         
STCE15886        -5459589.24        517453.25         
STCE15933        -5458863.61        518288.90         
STCE15932        -5458862.92        518184.18         
STCE15939        -5458866.63        518320.01         
STCE15856        -5459151.55        517607.23         
STCE15852        -5458947.62        518864.59         
STCE15851        -5458858.63        518866.50         
STCE15895        -5460370.15        517696.57         
STCE15918        -5459131.98        518158.20         
STCE15912        -5458956.89        517672.70         
STCE15943        -5458956.95        517694.02         
STCE15915        -5458916.35        517611.45         
STCE15924        -5459229.46        518202.30         
STCE15887        -5459568.21        517542.65         
STCE15934        -5458864.04        518363.20         
STCE15908        -5460168.60        517331.24         
STCE15909        -5460265.01        517561.92         
STCE15965        -5460809.47        517692.50         
STCE15950        -5459568.74        517835.39         
STCE15948        -5459570.02        517781.04         
STCE15904        -5460178.90        517431.85         
STCE15853        -5459052.41        518954.87         
STCE15942        -5458957.17        517819.62         
STCE15927        -5459415.75        518306.20         
STCE15961        -5459823.69        518788.43         
STCE15962        -5459815.07        518816.44         
STCE15959        -5459700.03        518480.75         
STCE15960        -5459796.58        518737.00         
STCE15941        -5458771.09        518400.98         
STCE15929        -5459456.36        518517.02         
GASTCE0001       -5459956.95        517692.11         
GASTCE0002       -5460095.57        517645.99         
GASTCE0003       -5460062.39        517759.72         
GASTCE0004       -5459856.38        517956.20         
STIN16104        -5458860.34        518510.44         
STIN15810        -5460469.89        518531.93         
STIN15819        -5460567.63        518398.99         
STIN16125        -5460184.82        517422.07         
STIN15860        -5458961.81        518149.37         
STIN16011        -5458901.91        517338.55         
STIN16055        -5458762.05        519040.06         
STIN16099        -5459213.15        518293.10         
STIN16067        -5460273.04        517363.82         
STIN15855        -5459407.48        517586.19         
STIN16129        -5459963.71        517879.87         
STIN16051        -5458766.20        518624.15         
STIN16085        -5460378.79        517345.95         
STIN16090        -5459061.49        519046.81         
STIN16109        -5459674.83        517765.97         
STIN16096        -5459638.27        518302.91         
STIN16077        -5458771.04        517578.66         
STIN15808        -5460559.76        517757.73         
STIN16097        -5459430.17        518360.55         
STIN15755        -5461159.46        517296.25         
STIN15811        -5460375.96        518170.83         
STIN15806        -5460078.56        518229.89         
STIN15818        -5460567.56        518387.59         
STIN15817        -5460469.89        518341.22         
STIN15856        -5458766.80        518883.74         
STIN15852        -5459062.89        518940.64         
STIN15851        -5458762.32        518960.86         
STIN16012        -5458804.99        517337.96         
STIN16056        -5458770.48        519052.46         
STIN16057        -5458773.28        519103.71         
STIN16098        -5459431.68        517861.45         
STIN16100        -5459208.57        518362.06         
STIN16207        -5459693.89        518458.64         
STIN16027        -5458765.76        518536.01         
STIN16087        -5458763.36        518618.61         
STIN16072        -5459586.24        517622.73         
STIN16068        -5458759.03        518344.39         
STIN16084        -5460181.84        517364.86         
STIN16119        -5460764.62        517762.02         
STIN16123        -5460854.68        517907.89         
STIN16088        -5460639.30        517457.29         
STIN16053        -5458760.84        517822.18         
STIN16052        -5458760.90        517803.66         
STIN16208        -5460262.74        517802.99         
STIN16101        -5459222.81        518303.53         
STIN16118        -5460884.71        517760.00         
STIN16194        -5459064.24        518354.56         
STIN16103        -5458962.48        518520.16         
STIN16115        -5458861.09        518453.72         
STIN16189        -5460968.81        517311.73         
STIN16184        -5460370.51        517752.96         
STIN16185        -5460366.60        517763.86         
STIN16195        -5459216.20        517797.54         
STIN16198        -5459465.07        517708.97         
STIN16199        -5459349.18        517721.99         
STIN16197        -5459424.92        517714.04         
STIN16170        -5460182.25        517751.93         
STIN16114        -5459641.62        518273.40         
STIN16071        -5459780.30        518416.50         
STIN16113        -5459772.94        518131.65         
STIN16107        -5459768.30        517772.86         
STIN16108        -5459768.43        517749.59         
STIN16110        -5459769.98        517967.60         
STIN16070        -5459777.40        518268.25         
STIN16111        -5459771.57        518058.94         
STIN15807        -5460155.66        518298.76         
STIN16041        -5459589.68        517464.21         
STIN15757        -5461021.84        517266.25         
STIN15758        -5460966.10        517247.00         
STIN16126        -5459867.43        518185.71         
STIN16168        -5460564.99        518071.20         
STIN16102        -5459271.99        517734.40         
STIN16180        -5459158.63        518450.98         
STIN16179        -5459157.49        518333.11         
STIN16117        -5460648.54        517755.82         
STIN16050        -5459186.62        517731.89         
STIN16045        -5459566.76        517671.73         
STIN16044        -5459566.65        517717.08         
STIN16182        -5460283.40        517753.13         
STIN16183        -5460327.63        517723.26         
STOU15814        -5460368.98        518103.31         
STOU15813        -5460354.42        518167.62         
STOU26965        -5458849.87        518516.70         
STOU15856        -5458764.59        518179.92         
STOU16112        -5459594.45        517604.19         
STOU15811        -5460495.59        518063.61         
STOU16070        -5459535.65        517717.08         
STOU26959        -5459204.60        518224.67         
STOU16106        -5460201.90        517413.87         
STOU16104        -5460388.91        517343.18         
STOU26942        -5460639.40        517462.79         
STOU16110        -5459760.44        518263.93         
STOU14804        -5460048.16        517389.90         
STOU26948        -5459046.67        519044.78         
STOU26954        -5459410.96        518359.15         
STOU26958        -5459443.62        517832.55         
STOU26955        -5459456.31        517845.41         
STOU16082        -5458760.89        517813.66         
STOU26941        -5460646.86        517433.43         
STOU15259        -5458977.78        517339.51         
STOU14812        -5460000.16        517196.58         
STOU15753        -5461124.13        517223.75         
STOU15817        -5460447.11        518349.21         
STOU15812        -5460435.95        518537.03         
STOU15807        -5459968.63        518260.99         
STOU15806        -5460022.36        518257.88         
STOU15852        -5458864.83        518632.57         
STOU15808        -5460128.74        518299.57         
STOU16023        -5458810.68        517338.14         
STOU26957        -5459451.20        517805.20         
STOU26956        -5459472.77        517807.41         
STOU15809        -5460491.33        517754.43         
STOU26961        -5459190.69        518430.51         
STOU27030        -5459056.69        518460.40         
STOU26962        -5459217.59        518302.83         
STOU27036        -5459941.84        517750.87         
STOU27048        -5459044.91        518360.87         
STOU26964        -5458950.52        518522.56         
STOU26973        -5458906.37        518420.33         
STOU27044        -5460950.81        517311.73         
STOU27031        -5459159.92        518519.36         
STOU27035        -5460335.03        517724.40         
STOU27021        -5460153.92        517752.07         
STOU27051        -5459378.98        517716.69         
STOU27049        -5459200.04        517782.04         
STOU27053        -5459343.50        517724.48         
STOU27052        -5459458.67        517709.10         
STOU26960        -5459207.70        518326.12         
STOU26970        -5459772.60        518109.66         
STOU16111        -5459763.13        518419.87         
STOU26969        -5459750.30        517752.61         
STOU27065        -5460120.87        517752.44         
STOU26972        -5459641.33        518283.61         
STOU26971        -5459647.24        518246.13         
STOU16086        -5458762.29        519121.73         
STOU14803        -5459958.42        517447.26         
STOU16114        -5458760.50        517596.65         
STOU15851        -5458760.92        518787.10         
STOU16113        -5459575.20        517640.27         
STOU26981        -5459937.54        517856.23         
STOU26976        -5460748.94        517740.77         
STOU16109        -5460256.85        517364.44         
STOU16115        -5458753.18        517552.49         
STOU16107        -5460348.55        517356.12         
STOU26953        -5459615.96        518311.69         
STOU16057        -5459569.30        517378.63         
STOU26963        -5459252.00        517735.05         
STOU27017        -5460512.80        518047.40         
STOU27033        -5459143.01        518453.74         
STOU27032        -5459142.01        518340.63         
STOU26946        -5458848.35        517790.56         
STOU15754        -5460968.24        517262.16         
STOU26977        -5460838.73        517893.04         
STOU26975        -5460483.23        517754.23         
STOU16080        -5459177.12        517763.18         
STOU27061        -5459706.54        518460.29         
STOU27062        -5459689.46        518445.46         
STOU27034        -5460278.40        517752.73         
STOU27037        -5459950.07        517735.86         
STOU16071        -5459535.76        517671.83         
GASTWN1000       -5460923.52        517369.71         
GASTWN1001       -5460868.75        517327.92         
GASTWN1002       -5460509.10        517334.83         
GASTWN1003       -5459577.92        517369.07         
GASTWN1004       -5458751.33        517551.27         
GASTWN1005       -5459870.70        517368.43         
GASTWN1006       -5459914.27        517330.44         
GASTWN1008       -5460907.40        517341.32         
GASTWN1014       -5459062.10        518574.90         
GASTWN1015       -5459025.51        518580.37         
GASTWN1016       -5458964.10        518591.34         
GASTWN1022       -5460176.26        518474.24         
GASTWN1026       -5459969.32        518425.27         
GASTWN1029       -5459073.65        518568.48         
GASTWN1035       -5460370.03        518050.08         
GASTWN1038       -5460017.86        518256.77         
GASTWN1043       -5460179.84        518102.72         
GASTWN1044       -5460162.91        518100.89         
GASTWN1045       -5460072.43        518061.41         
GASTWN1048       -5459961.08        517328.52         
GASTWN1049       -5458819.83        518946.41         
GASTWN1051       -5460367.86        517945.94         
GASTWN1052       -5460368.95        517989.45         
GASTWN1063       -5460366.65        517857.29         
GASTWN1064       -5460367.59        517892.65         
GASTWN1069       -5459639.53        517731.94         
GASTWN1072       -5458912.36        519052.67         
GASTWN1073       -5458817.01        519051.91         
GASTWN1076       -5459675.12        517732.20         
GASTWN1086       -5459026.56        518474.21         
GASTWN1087       -5460369.49        518063.40         
GASTWN1090       -5460366.50        517853.77         
GASTWN1100       -5459000.53        518485.86         
GASTWN1103       -5459998.46        517328.80         
GASTWN1113       -5459688.52        517736.20         
GASTWN1114       -5459689.21        517737.03         
GASTWN1118       -5460450.69        517753.26         
GASTWN1119       -5460380.33        517752.84         
GASTWN1120       -5460401.90        517754.04         
GASTWN1122       -5460418.04        517753.27         
GASTWN1123       -5460955.65        517376.96         
GASTWN1125       -5459694.68        517748.16         
GASTWN1126       -5461044.30        517273.01         
GASTWN1127       -5460969.07        517294.16         
GASTWN1129       -5461007.10        517345.18         
GASTWN1130       -5460863.47        517760.29         
GASTWN1140       -5460068.76        517796.71         
GASTWN1142       -5460069.00        517840.43         
GASTWN1144       -5460072.81        518152.58         
GASTWN1148       -5460070.96        517893.44         
GASTWN1149       -5460069.95        517993.48         
GASTWN1150       -5460073.61        518170.86         
GASTWN1153       -5460134.77        518231.55         
GASTWN1155       -5460072.34        518101.80         
GASTWN1159       -5459465.88        517682.67         
GASTWN1160       -5459153.69        517766.15         
GASTWN1162       -5458810.08        517774.95         
GASTWN1163       -5458897.05        517761.43         
GASTWN1164       -5458961.67        517751.38         
GASTWN1165       -5458903.66        517761.22         
GASTWN1166       -5459045.49        517769.02         
GASTWN1167       -5458967.58        517749.85         
GASTWN1168       -5459136.97        517766.79         
GASTWN1169       -5459061.22        517771.90         
GASTWN1170       -5459975.36        517750.61         
GASTWN1172       -5460026.34        517751.21         
GASTWN1173       -5460054.08        517750.92         
GASTWN1174       -5460226.18        517752.66         
GASTWN1175       -5460232.28        517752.77         
GASTWN1176       -5460312.38        517752.67         
GASTWN1178       -5460140.74        517752.07         
GASTWN1179       -5460133.10        517751.83         
GASTWN1180       -5460072.46        517751.25         
GASTWN1181       -5460323.19        517752.87         
GASTWN1182       -5460353.24        517752.91         
GASTWN1190       -5458759.02        518332.46         
GASTWN1214       -5459907.77        517750.21         
GASTWN1228       -5459057.51        517880.91         
GASTWN1229       -5459056.86        517921.47         
GASTWN1237       -5459972.01        518212.80         
GASTWN1238       -5459924.63        518183.20         
GASTWN1243       -5460605.73        518159.50         
GASTWN1247       -5458760.29        518748.56         
GASTWN1248       -5458760.77        518680.85         
GASTWN1251       -5459947.24        517735.91         
GASTWN1252       -5459898.15        517736.45         
GASTWN1253       -5459637.04        517466.13         
GASTWN1257       -5458956.86        519052.47         
GASTWN1260       -5458984.06        519058.77         
GASTWN1261       -5459031.35        519084.71         
GASTWN1283       -5460457.55        518063.39         
GASTWN1303       -5458902.68        519217.69         
GASTWN1306       -5458952.39        519264.38         
GASTWN1307       -5458941.26        519253.07         
GASTWN1308       -5459770.61        518005.35         
GASTWN1312       -5458761.94        518991.96         
GASTWN1313       -5459786.16        517737.31         
GASTWN1314       -5459829.79        517734.54         
GASTWN1316       -5459772.70        518149.00         
GASTWN1322       -5458860.73        519183.98         
GASTWN1326       -5459056.29        517781.25         
GASTWN1328       -5458761.97        518962.17         
GASTWN1329       -5459739.11        517735.43         
GASTWN1330       -5459778.47        517737.32         
GASTWN1331       -5458762.36        518569.09         
GASTWN1334       -5459901.46        517750.17         
GASTWN1335       -5459887.36        517750.12         
GASTWN1354       -5459056.34        517819.03         
GASTWN1368       -5459713.96        517735.64         
GASTWN1369       -5460018.20        517941.69         
GASTWN1371       -5459228.31        518304.28         
GASTWN1372       -5460940.84        517759.57         
GASTWN1373       -5460753.31        517758.03         
GASTWN1377       -5459721.42        517735.90         
GASTWN1378       -5459731.00        517735.65         
GASTWN1379       -5459880.05        517750.16         
GASTWN1381       -5458758.82        518299.60         
GASTWN1387       -5459165.36        517782.31         
GASTWN1396       -5458765.35        519349.92         
GASTWN1423       -5460607.30        517500.62         
GASTWN1424       -5460618.92        517507.33         
GASTCE1000       -5459672.70        517765.13         
GASTCE1001       -5459962.31        517956.22         
GASTCE1002       -5460173.91        518089.78         
GASTCE1004       -5459493.62        517497.72         
GASTCE1005       -5460809.03        517766.78         
GASTCE1006       -5459916.78        517754.96         
GASTCE1007       -5460641.90        517764.50         
GASTCE1010       -5459786.46        517759.22         
GASTCE1011       -5459960.37        517545.05         
GASTCE1012       -5459766.29        517764.64         
GASTCE1013       -5459771.66        517829.15         
GASTCE1014       -5459672.02        518657.35         
GASTCE1015       -5460184.33        518086.14         
GASTCE1016       -5460160.00        518237.98         
GASTCE1017       -5459516.87        518500.59         
GASTCE1018       -5459793.33        517870.44         
GASTCE1019       -5459600.26        518612.33         
GASTCE1020       -5459162.22        518508.88         
GASTCE1021       -5459589.33        517460.28         
GASTCE1022       -5459958.56        517755.29         
GASTCE1023       -5460136.51        517544.00         
GASTCE1024       -5460268.37        517758.82         
GASTMH1001       -5459536.88        518524.48         
GASTMH1004       -5459093.80        517228.78         
GASTMH1005       -5458845.43        518517.72         
GASTMH1006       -5458745.32        518868.16         
GASTMH1007       -5458751.86        517953.63         
GASTMH1010       -5460207.55        517404.74         
GASTMH1011       -5459150.27        518452.46         
GASTMH1012       -5459802.07        517460.89         
GASTMH1013       -5459971.04        518347.50         
GASTMH1014       -5459349.48        517707.15         
GASTMH1015       -5460172.85        518132.03         
GASTMH1016       -5458757.36        518500.59         
GASTMH1017       -5458757.57        518536.02         
GASTMH1019       -5459847.27        517461.14         
GASTMH1020       -5458756.28        518659.49         
GASTMH1021       -5458756.72        518739.49         
GASTMH1023       -5458761.79        518874.03         
GASTMH1024       -5460158.96        517553.07         
GASTMH1025       -5458757.45        518870.88         
GASTMH1027       -5459582.22        518156.31         
GASTMH1028       -5460457.16        518533.63         
GASTMH1030       -5458739.05        518500.70         
GASTMH1031       -5458750.85        517758.26         
GASTMH1034       -5460362.58        517415.87         
GASTMH1035       -5458758.40        519030.87         
GASTMH1036       -5459118.29        517338.08         
GASTMH1038       -5459234.65        517749.14         
STMH19186        -5458783.26        519358.85         
GASTMH1040       -5459777.51        517861.72         
GASTMH1041       -5460280.36        517752.02         
GASTMH1042       -5460863.65        517870.54         
STMH19184        -5459171.29        519285.17         
GASTMH1045       -5459765.82        517965.98         
GASTMH1046       -5459743.05        518468.10         
GASTMH1047       -5459483.82        518559.31         
GASTMH1050       -5459769.13        518266.14         
GASTMH1053       -5458759.50        519114.42         
GASTMH1054       -5459771.61        518259.76         
GASTMH1055       -5459177.15        519157.45         
GASTMH1059       -5460357.23        517409.70         
GASTMH1060       -5459610.18        518145.84         
GASTMH1061       -5458755.55        518519.49         
GASTMH1063       -5459763.92        517752.55         
GASTMH1065       -5458752.00        517327.73         
GASTMH1066       -5458957.64        518521.13         
GASTMH1067       -5460265.08        517520.86         
VN3942           -5459136.77        517749.53         
VN3638           -5459549.68        517608.11         
GASTMH1071       -5460758.94        517754.33         
GASTMH1072       -5459560.22        517780.99         
GASTMH1073       -5459474.76        517749.16         
GASTMH1074       -5459773.30        518417.87         
GASTMH1075       -5458753.96        518249.49         
GASTMH1076       -5458753.01        518089.49         
GASTMH1077       -5458755.43        518499.49         
GASTMH1078       -5458754.66        518379.49         
GASTMH1079       -5458753.35        518139.49         
GASTMH1080       -5459033.78        517694.93         
GASTMH1081       -5458747.46        517822.21         
GASTMH1082       -5458744.52        518536.03         
GASTMH1085       -5458761.34        518657.52         
GASTMH1086       -5458761.45        518625.59         
GASTMH1087       -5458739.67        517822.26         
GASTMH1088       -5459146.50        518338.48         
GASTMH1089       -5458746.13        518630.27         
GASTMH1093       -5458753.55        519359.39         
GASTWN1426       -5459997.57        517204.61         
GASTWN1430       -5459967.25        518258.96         
GASTWN1432       -5459054.47        518462.97         
GASTWN1433       -5459167.69        518528.42         
GASTWN1434       -5458864.52        518627.94         
GASTWN1435       -5459190.16        518435.26         
GASTWN1439       -5459449.76        517806.58         
GASTWN1440       -5459443.72        517830.09         
GASTOU1001       -5459160.19        517771.56         
GASTWN1441       -5459687.06        518433.29         
GASTWN1442       -5459574.13        517648.17         
GASTWN1444       -5458845.12        517788.45         
POND2A           -5460639.49        517440.11         
2AD81            -5460715.97        517495.70         
2AD109           -5460704.68        517489.83         
2AD108B          -5460655.68        517455.65         
2AD108A          -5460655.47        517456.40         
POND3B           -5460382.92        517338.62         
3BD10A           -5460405.02        517420.99         
3BD10B           -5460404.44        517420.04         
POND4            -5460331.36        517719.96         
4T5A             -5460339.55        517738.13         
4T5B             -5460339.51        517737.93         
4T8B             -5460360.01        517750.89         
4T8A             -5460359.65        517751.38         
3AD05            -5460244.96        517405.10         
3AD30            -5460241.75        517407.43         
3AD26A           -5460214.83        517407.66         
3AD26B           -5460214.43        517407.16         
POND3A           -5460192.71        517417.79         
POND5            -5459592.92        517615.30         
5D3A             -5459600.42        517588.10         
5T05A            -5459601.35        517592.50         
5T05B            -5459600.21        517592.15         
5D03A            -5459586.86        517595.60         
5D03B            -5459586.21        517595.25         
6D16A            -5458755.85        517730.25         
6D16B            -5458751.66        517730.11         
6D13B            -5458752.55        517688.64         
POND6            -5458769.52        517589.79         
POND8A           -5459643.80        518259.88         
8AD53A           -5459655.95        518225.30         
8AD53B           -5459654.97        518225.48         
8AD45B           -5459664.74        518208.11         
8AD45A           -5459665.30        518208.86         
8BD100B          -5459531.17        517801.92         
8BD100A          -5459530.96        517803.08         
8BD99B           -5459517.12        517800.86         
8BD99A           -5459516.96        517802.65         
POND8B           -5459446.12        517859.09         
POND10           -5459211.33        518346.22         
10D73A           -5459208.06        518317.28         
10D73B           -5459207.53        518316.67         
10D83A           -5459219.66        518174.90         
10D83B           -5459219.39        518172.65         
POND12A          -5459699.99        518461.15         
12AD105A         -5459722.49        518461.32         
12AD105B         -5459721.57        518461.88         
12AD106B         -5459727.84        518463.71         
12AD106A         -5459727.94        518464.23         
3AT08A           -5460209.48        517407.12         
3AT08B           -5460209.61        517406.86         
Node2794         -5459586.84        517596.13         
Node2795         -5458755.45        517694.12         
Node2796         -5458757.22        517725.28         
Node2797         -5459666.69        518208.72         
Node2798         -5459656.29        518224.34         
Node2799         -5459535.27        517800.06         
Node2800         -5459519.57        517803.26         
Node2801         -5459221.87        518172.62         
Node2802         -5459209.19        518314.82         
Node2803         -5459728.50        518463.65         
Node2804         -5459722.27        518462.62         
Node2805         -5460708.42        517490.82         
Node2806         -5460656.99        517456.04         
Node2807         -5460245.43        517409.41         
Node2808         -5460210.05        517407.41         
Node2809         -5460215.23        517407.64         
Node2810         -5460405.86        517421.47         
Node2811         -5460340.11        517738.27         
Node2812         -5460360.35        517751.76         
Node2813         -5459601.78        517591.82         
D24A             -5460764.84        517754.40         
D24B             -5460764.74        517754.39         
D1B              -5460499.01        517750.69         
D1A              -5460498.78        517751.09         
MH2_A            -5460049.27        517418.68         
MH2_B            -5460049.00        517419.69         
DMH3A            -5458855.31        517950.02         
DMH3B            -5458855.28        517950.38         
DMH22A           -5458851.03        517798.42         
DMH22B           -5458850.10        517798.32         
D16A             -5458827.09        518354.53         
D16B             -5458827.52        518355.03         
Node2829         -5460499.29        517751.43         
Node2830         -5458856.93        517951.23         
Node2831         -5458828.26        518353.81         
Node2832         -5458851.87        517801.13         
STMH19185        -5458822.44        519359.13         
GASTMH1095       -5458975.93        519358.94         
GASTWN1445       -5460069.27        517751.99         
STMH18174        -5458749.38        518139.05         
D2B              -5459772.91        518346.91         
D2A              -5459772.70        518341.04         
DMH23            -5458830.96        517742.78         

[MAP]
DIMENSIONS -5461159.55 517002.45 -5458739.05 519359.39
Units      None

[REPORT]
SUBCATCHMENTS ALL
NODES ALL
LINKS ALL
