;; SWMM5 .inp converted from XPSWMM .xp file
;; Generated by XPSWMM Card Reader
;; Source format: XP_CARD | Original title: (none)

[TITLE]
;;Project Title/Notes
Converted from XPSWMM .xp file

[OPTIONS]
FLOW_UNITS           CFS
INFILTRATION         HORTON
FLOW_ROUTING         DYNWAVE
LINK_OFFSETS         DEPTH
MIN_SLOPE            0.0
ALLOW_PONDING        NO
SKIP_STEADY_STATE    NO
ROUTING_STEP         00:01:00
VARIABLE_STEP        0.75
INERTIAL_DAMPING     PARTIAL
NORMAL_FLOW_LIMITED  BOTH
MAX_TRIALS           50
START_DATE           01/01/2001
START_TIME           00:00:00
REPORT_START_DATE    01/01/2001
REPORT_START_TIME    00:00:00
END_DATE             01/02/2001
END_TIME             00:00:00
SWEEP_START          01/01
SWEEP_END            12/31
DRY_DAYS             0
REPORT_STEP          00:15:00
WET_STEP             00:05:00
DRY_STEP             01:00:00

[JUNCTIONS]
;;Name           Elev       MaxDepth   InitDepth  SurDepth   Aponded
;;-------------- ---------- ---------- ---------- ---------- ----------
-Inflow          20.00      0          0          0          0
node202          20.00      0          0          0          0
node204          10.00      0          0          0          0
Inflow           20.00      0          0          0          0
202              20.00      0          0          0          0
204              10.00      0          0          0          0
Outlet           10.00      0          0          0          0
road             1.00       0          0          0          0

[OUTFALLS]
;;Name           Elev       Type       Stage      Gated
;;-------------- ---------- ---------- ---------- -----
-Outlet          10.00      FREE                  NO

[CONDUITS]
;;Name           From             To               Length     Roughness  InOffset   OutOffset  InitFlow   MaxFlow
;;-------------- ---------------- ---------------- ---------- ---------- ---------- ---------- ---------- ----------
-Trapin          -Inflow          node202          100.00     0.0140     1.00       1.00       0          0
culvert          node202          node204          50.00      0.0110     1.00       0          0          0
-Trapout         node204          -Outlet          100.00     0.0140     0          0          0          0
Trapin           Inflow           202              100.00     0.0140     1.00       1.00       0          0
205.1            road             204              50.00      0.0110     1.00       0          0          0
Trapout          204              Outlet           100.00     0.0140     0          0          0          0
216              Inflow           -Inflow          100.00     0.0130     0          0          0          0

[XSECTIONS]
;;Link           Shape        Geom1      Geom2      Geom3      Geom4      Barrels
;;-------------- ------------ ---------- ---------- ---------- ---------- ----------
-Trapin          TRAPEZOIDAL  10.00      3.00       1          1          1
culvert          CIRCULAR     3.00       0          0          0          1
-Trapout         TRAPEZOIDAL  10.00      3.00       1          1          1
Trapin           TRAPEZOIDAL  10.00      3.00       1          1          1
205.1            CIRCULAR     3.00       0          0          0          1
Trapout          TRAPEZOIDAL  10.00      3.00       1          1          1
216              CIRCULAR     1.00       0          0          0          1

[LOSSES]
;;Link           Inlet      Outlet     Average    Flap Gate
;;-------------- ---------- ---------- ---------- ----------
-Trapin          0          0          0          NO
culvert          0          0          0          NO
-Trapout         0          0          0          NO
Trapin           0          0          0          NO
205.1            0          0          0          NO
Trapout          0          0          0          NO
216              0          0          0          NO

[INFLOWS]
;;Node           Constituent  Time Series      Type     Mfactor  Sfactor  Baseline Pattern
;;-------------- ------------ ---------------- -------- -------- -------- -------- --------
-Inflow          FLOW         ""               FLOW     1.0      1.0      100.00
Inflow           FLOW         ""               FLOW     1.0      1.0      100.00

[COORDINATES]
;;Node           X-Coord            Y-Coord
;;-------------- ------------------ ------------------
-Inflow          57.64              37.64             
node202          57.64              77.64             
node204          57.64              117.64            
-Outlet          57.64              157.64            
Inflow           17.64              37.64             
202              37.64              77.64             
204              37.64              117.64            
Outlet           37.64              157.64            

[MAP]
DIMENSIONS 17.64 37.64 57.64 157.64
Units      None

[REPORT]
SUBCATCHMENTS ALL
NODES ALL
LINKS ALL
