;; SWMM5 .inp converted from XPSWMM .xp file
;; Generated by XPSWMM Card Reader
;; Source format: XP_CARD | Original title: (none)
;; Links parsed from source: 96 | Routable in this .inp: 96

[TITLE]
;;Project Title/Notes
Converted from XPSWMM .xp file

[OPTIONS]
FLOW_UNITS           CFS
INFILTRATION         HORTON
FLOW_ROUTING         DYNWAVE
LINK_OFFSETS         DEPTH
MIN_SLOPE            0.0
ALLOW_PONDING        NO
SKIP_STEADY_STATE    NO
ROUTING_STEP         00:00:15
VARIABLE_STEP        0.75
INERTIAL_DAMPING     NONE
NORMAL_FLOW_LIMITED  BOTH
MAX_TRIALS           50
HEAD_TOLERANCE       0.0033
START_DATE           01/01/2001
START_TIME           00:00:00
REPORT_START_DATE    01/01/2001
REPORT_START_TIME    00:00:00
END_DATE             01/02/2001
END_TIME             00:00:00
SWEEP_START          01/01
SWEEP_END            12/31
DRY_DAYS             0
REPORT_STEP          00:15:00
WET_STEP             00:05:00
DRY_STEP             01:00:00

[JUNCTIONS]
;;Name           Elev       MaxDepth   InitDepth  SurDepth   Aponded
;;-------------- ---------- ---------- ---------- ---------- ----------
FHC002055N       861.60     0          0          0          0
FHC003070N       858.40     0          0          0          0
FHC046007N       821.50     0          0          0          0
FHC047014N       791.20     0          0          0          0
FHC050CMCN       769.00     0          0          0          0
FHC051019N       746.24     0          0          0          0
FHC051005N       736.30     0          0          0          0
FHC094046N       712.60     0          0          0          0
FHC095048N       698.00     0          0          0          0
FHC095038N       691.50     0          0          0          0
FHC098037N       687.80     0          0          0          0
FHC099049N       668.20     0          0          0          0
FHC142070N       668.60     0          0          0          0
FHC142003N       661.80     0          0          0          0
FHC141049N       657.50     0          0          0          0
WBT127002N       877.93     0          0          0          0
FHC018069N       883.00     0          0          0          0
FHC024047N       911.20     0          0          0          0
FHC018062N       910.20     0          0          0          0
FHC018066N       877.60     0          0          0          0
FHC017026N       878.50     0          0          0          0
FHC015062N       869.20     0          0          0          0
FHC034002N       866.00     0          0          0          0
FHC029018N       875.80     0          0          0          0
FHC033055N       866.80     0          0          0          0
FHC033063N       859.40     0          0          0          0
FHC033067N       861.50     0          0          0          0
FHC033009N       870.00     0          0          0          0
FHC017005N       924.80     0          0          0          0
FHC014052N       882.80     0          0          0          0
FHC013020N       870.50     0          0          0          0
FHC011016N       861.20     0          0          0          0
FHC011034N       857.10     0          0          0          0
FHC009070N       888.50     0          0          0          0
FHC009020N       871.70     0          0          0          0
FHC012008N       860.00     0          0          0          0
FHC007040N       838.60     0          0          0          0
FHC008023N       858.50     0          0          0          0
FHC008028N       830.70     0          0          0          0
FHC041001N       819.00     0          0          0          0
FHC055024N       763.60     0          0          0          0
FHC056035N       732.00     0          0          0          0
FHC058001N       847.50     0          0          0          0
FHC057037N       839.40     0          0          0          0
FHC057016N       847.80     0          0          0          0
FHC057026N       802.20     0          0          0          0
FHC056078N       765.20     0          0          0          0
FHC118036N       843.20     0          0          0          0
FHC117053N       819.20     0          0          0          0
FHC079034N       792.00     0          0          0          0
FHC080036N       778.00     0          0          0          0
FHC113070N       761.50     0          0          0          0
FHC116001N       747.40     0          0          0          0
FHC116021N       728.00     0          0          0          0
FHC125002N       735.00     0          0          0          0
FHC130005N       710.30     0          0          0          0
FHC132039N       697.50     0          0          0          0
FHC132037N       699.00     0          0          0          0
FHC135003N       693.00     0          0          0          0
FHC139030N       673.40     0          0          0          0
FHC140028N       671.80     0          0          0          0
FHC143127N       659.40     0          0          0          0
FHC143129N       637.80     0          0          0          0
FHC144052N       650.60     0          0          0          0
FHC144107N       650.80     0          0          0          0
SOC123003N       653.60     0          0          0          0
FHC138013N       682.00     0          0          0          0
FHC137055N       672.40     0          0          0          0
FHC143100N       661.40     0          0          0          0
FHC144066N       653.80     0          0          0          0
FHC122012N       830.00     0          0          0          0
FHC124098N       802.60     0          0          0          0
FHC124029N       761.60     0          0          0          0
FHC124041N       749.90     0          0          0          0
FHC127003N       748.60     0          0          0          0
FHC128015N       726.50     0          0          0          0
FHC131019N       710.50     0          0          0          0
FHC132038N       702.00     0          0          0          0
FHC092030N       707.00     0          0          0          0
WBT120001N       952.72     0          0          0          0
WBT120005N       941.85     0          0          0          0
WBT122004N       926.98     0          0          0          0
WBT121005N       917.75     0          0          0          0
WBT124033N       897.20     0          0          0          0
WBT123021N       929.90     0          0          0          0
WBT124006N       881.62     0          0          0          0
WBT116016N       976.19     0          0          0          0
WBT125010N       949.99     0          0          0          0
WBT111001N       948.71     0          0          0          0
WBT129002N       921.86     0          0          0          0
WBT135027N       896.47     0          0          0          0
FHC013028N       865.50     0          0          0          0
FHC050020N       752.45     0          0          0          0
FHC050019N       752.45     0          0          0          0
FHC05007N        750.60     0          0          0          0
FHC056025N       735.40     0          0          0          0
HW_59            749.10     0          0          0          0
HW_98            743.96     0          0          0          0
HW_99            739.43     0          0          0          0
HW_003FHC05007C  740.58     0          0          0          0
HW_005FHC056025C 721.61     0          0          0          0

[OUTFALLS]
;;Name           Elev       Type       Stage      Gated
;;-------------- ---------- ---------- ---------- -----
FHC052089N       714.30     FREE                  NO

[CONDUITS]
;;Name           From             To               Length     Roughness  InOffset   OutOffset  InitFlow   MaxFlow
;;-------------- ---------------- ---------------- ---------- ---------- ---------- ---------- ---------- ----------
755              FHC002055N       FHC003070N       2737.00    0.0130     846.64     842.89     0          0
756              FHC003070N       FHC046007N       2444.00    0.0130     842.85     809.58     0          0
757              FHC046007N       FHC047014N       4403.00    0.0130     800.12     774.77     0          0
758              FHC047014N       FHC050CMCN       2323.50    0.0130     774.77     748.96     0          0
759              FHC050CMCN       FHC05007N        289.00     0.0130     748.79     740.58     0          0
760              FHC051019N       FHC052089N       3541.10    0.0130     724.19     696.55     0          0
762              FHC051005N       FHC094046N       1922.50    0.0130     720.09     695.93     0          0
763              FHC094046N       FHC095048N       1011.00    0.0130     695.93     687.75     0          0
764              FHC095048N       FHC095038N       2370.50    0.0130     687.75     671.89     0          0
765              FHC095038N       FHC098037N       1815.00    0.0130     670.96     666.83     0          0
766              FHC098037N       FHC099049N       3565.00    0.0130     666.83     646.40     0          0
767              FHC099049N       FHC142070N       843.00     0.0130     645.48     644.47     0          0
768              FHC142070N       FHC142003N       2810.00    0.0130     644.47     641.05     0          0
769              FHC142003N       FHC141049N       2522.50    0.0130     641.05     638.09     0          0
770              FHC141049N       FHC144107N       2931.00    0.0130     638.09     634.51     0          0
771              WBT127002N       FHC018069N       1046.55    0.0130     868.52     866.65     0          0
772              FHC018069N       FHC018066N       686.80     0.0130     866.65     865.40     0          0
773              FHC024047N       FHC018062N       2407.40    0.0130     897.76     883.60     0          0
774              FHC018062N       FHC018066N       1380.80    0.0130     883.60     866.20     0          0
775              FHC018066N       FHC017026N       2461.80    0.0130     865.40     861.45     0          0
776              FHC017026N       FHC015062N       3089.20    0.0130     861.45     857.60     0          0
777              FHC015062N       FHC034002N       3532.70    0.0130     857.60     852.09     0          0
778              FHC034002N       FHC033063N       1745.10    0.0130     852.09     849.94     0          0
779              FHC029018N       FHC033055N       3129.45    0.0130     860.29     852.98     0          0
780              FHC033055N       FHC033063N       1400.50    0.0130     852.98     850.74     0          0
781              FHC033063N       FHC033067N       667.70     0.0130     849.94     849.12     0          0
782              FHC033067N       FHC033009N       2403.37    0.0130     849.12     846.23     0          0
783              FHC033009N       FHC011034N       2886.00    0.0130     846.23     842.77     0          0
784              FHC017005N       FHC014052N       2188.90    0.0130     906.87     868.28     0          0
785              FHC014052N       FHC013020N       3936.40    0.0130     868.28     859.80     0          0
786              FHC013020N       FHC013028N       1324.00    0.0130     859.80     856.23     0          0
787              FHC011016N       FHC011034N       1827.00    0.0130     851.35     846.86     0          0
788              FHC011034N       FHC012008N       2741.00    0.0130     842.17     840.43     0          0
789              FHC009070N       FHC009020N       3314.60    0.0130     879.27     858.07     0          0
790              FHC009020N       FHC012008N       2661.00    0.0130     858.07     841.63     0          0
791              FHC012008N       FHC007040N       3588.00    0.0130     840.43     823.87     0          0
792              FHC007040N       FHC008028N       966.00     0.0130     823.87     818.11     0          0
793              FHC008023N       FHC008028N       1394.00    0.0130     842.50     819.24     0          0
794              FHC008028N       FHC041001N       1648.00    0.0130     818.11     808.25     0          0
795              FHC041001N       FHC046007N       865.00     0.0130     807.25     802.04     0          0
796              FHC055024N       FHC056035N       2248.50    0.0130     751.02     723.88     0          0
797              FHC056035N       FHC056025N       350.00     0.0130     722.73     721.61     0          0
798              FHC058001N       FHC057037N       3242.60    0.0130     827.00     818.20     0          0
799              FHC057037N       FHC057026N       3218.80    0.0130     818.10     792.42     0          0
800              FHC057016N       FHC057026N       1896.40    0.0130     833.53     795.02     0          0
801              FHC057026N       FHC056078N       3658.35    0.0130     792.31     757.18     0          0
802              FHC056078N       FHC056035N       3060.20    0.0130     757.10     723.05     0          0
803              FHC118036N       FHC117053N       4414.00    0.0130     830.29     800.04     0          0
804              FHC117053N       FHC079034N       3379.00    0.0130     800.04     777.38     0          0
805              FHC079034N       FHC113070N       2462.50    0.0130     777.38     747.44     0          0
806              FHC080036N       FHC113070N       1033.50    0.0130     749.95     747.69     0          0
807              FHC113070N       FHC116001N       2360.00    0.0130     747.44     731.74     0          0
808              FHC116001N       FHC116021N       2318.00    0.0130     731.74     715.13     0          0
809              FHC116021N       FHC125002N       1480.50    0.0130     714.88     710.31     0          0
810              FHC125002N       FHC130005N       3994.00    0.0130     710.31     695.08     0          0
811              FHC130005N       FHC132039N       3629.00    0.0130     694.83     683.80     0          0
812              FHC132039N       FHC132037N       363.00     0.0130     683.80     682.68     0          0
813              FHC132037N       FHC135003N       4612.50    0.0130     682.15     675.20     0          0
814              FHC135003N       FHC139030N       2998.00    0.0130     675.10     658.10     0          0
815              FHC139030N       FHC140028N       2643.50    0.0130     657.76     652.48     0          0
816              FHC140028N       FHC143127N       4307.50    0.0130     652.48     643.86     0          0
817              FHC143127N       FHC143129N       450.00     0.0130     643.32     623.40     0          0
818              FHC143129N       FHC144052N       2177.01    0.0130     623.22     620.61     0          0
819              FHC144052N       FHC144107N       711.50     0.0130     620.61     619.60     0          0
820              FHC144107N       SOC123003N       761.00     0.0130     619.75     618.28     0          0
822              FHC138013N       FHC137055N       2952.50    0.0130     670.57     656.80     0          0
823              FHC137055N       FHC143100N       2601.50    0.0130     656.80     646.30     0          0
824              FHC143100N       FHC144066N       3136.00    0.0130     645.95     630.59     0          0
825              FHC144066N       FHC144052N       375.60     0.0130     630.59     621.75     0          0
826              FHC122012N       FHC124098N       3363.00    0.0130     813.44     781.22     0          0
827              FHC124098N       FHC124029N       2685.50    0.0130     781.22     748.84     0          0
828              FHC124029N       FHC124041N       1305.50    0.0130     748.59     737.91     0          0
829              FHC124041N       FHC127003N       2664.50    0.0130     737.66     733.69     0          0
830              FHC127003N       FHC128015N       2099.00    0.0130     733.69     706.89     0          0
831              FHC128015N       FHC131019N       3149.50    0.0130     706.89     694.92     0          0
832              FHC131019N       FHC132038N       681.00     0.0130     694.92     684.04     0          0
833              FHC132038N       FHC132037N       365.50     0.0130     682.69     682.15     0          0
957              FHC092030N       FHC095038N       1382.00    0.0130     684.56     675.62     0          0
971              WBT120001N       WBT120005N       1089.10    0.0130     942.69     932.04     0          0
972              WBT120005N       WBT122004N       2987.85    0.0130     931.91     916.68     0          0
973              WBT122004N       WBT121005N       2200.25    0.0130     916.48     910.06     0          0
974              WBT121005N       WBT124033N       1146.30    0.0130     910.06     889.33     0          0
975              WBT124033N       WBT124006N       2359.13    0.0130     889.13     872.21     0          0
976              WBT123021N       WBT124006N       2171.80    0.0130     920.06     872.51     0          0
977              WBT124006N       WBT127002N       1006.50    0.0130     871.97     868.52     0          0
978              WBT116016N       WBT125010N       3194.30    0.0130     960.62     935.02     0          0
979              WBT125010N       FHC017005N       3407.34    0.0130     935.02     906.87     0          0
980              WBT111001N       WBT129002N       4495.15    0.0130     932.33     909.06     0          0
981              WBT129002N       WBT135027N       4593.35    0.0130     908.86     883.70     0          0
982              WBT135027N       FHC009070N       1542.77    0.0130     883.53     879.27     0          0
996              FHC013028N       FHC011016N       2271.00    0.0130     856.23     851.35     0          0
59               HW_59            FHC050020N       312.40     0.0130     749.10     743.96     0          0
98               HW_98            FHC050019N       497.90     0.0130     743.96     739.85     0          0
99               HW_99            FHC051019N       1986.80    0.0130     739.43     724.19     0          0
003FHC05007C     HW_003FHC05007C  FHC051005N       3014.00    0.0120     740.58     720.09     0          0
005FHC056025C    HW_005FHC056025C FHC051005N       350.00     0.0140     721.61     720.49     0          0

[XSECTIONS]
;;Link           Shape        Geom1      Geom2      Geom3      Geom4      Barrels
;;-------------- ------------ ---------- ---------- ---------- ---------- ----------
755              CIRCULAR     3.00       0          0          0          1
756              CIRCULAR     2.50       0          0          0          1
757              CIRCULAR     2.50       0          0          0          1
758              CIRCULAR     2.50       0          0          0          1
759              CIRCULAR     2.00       0          0          0          1
760              CIRCULAR     2.00       0          0          0          1
762              CIRCULAR     2.50       0          0          0          1
763              CIRCULAR     3.00       0          0          0          1
764              CIRCULAR     3.00       0          0          0          1
765              CIRCULAR     3.50       0          0          0          1
766              CIRCULAR     3.00       0          0          0          1
767              CIRCULAR     4.00       0          0          0          1
768              CIRCULAR     4.00       0          0          0          1
769              CIRCULAR     4.00       0          0          0          1
770              CIRCULAR     4.00       0          0          0          1
771              CIRCULAR     1.75       0          0          0          1
772              CIRCULAR     2.00       0          0          0          1
773              CIRCULAR     1.00       0          0          0          1
774              CIRCULAR     1.00       0          0          0          1
775              CIRCULAR     2.00       0          0          0          1
776              CIRCULAR     2.25       0          0          0          1
777              CIRCULAR     2.25       0          0          0          1
778              CIRCULAR     2.25       0          0          0          1
779              CIRCULAR     1.25       0          0          0          1
780              CIRCULAR     1.25       0          0          0          1
781              CIRCULAR     2.25       0          0          0          1
782              CIRCULAR     2.25       0          0          0          1
783              CIRCULAR     2.25       0          0          0          1
784              CIRCULAR     1.25       0          0          0          1
785              CIRCULAR     1.50       0          0          0          1
786              CIRCULAR     1.50       0          0          0          1
787              CIRCULAR     1.50       0          0          0          1
788              CIRCULAR     3.00       0          0          0          1
789              CIRCULAR     1.25       0          0          0          1
790              CIRCULAR     1.50       0          0          0          1
791              CIRCULAR     3.00       0          0          0          1
792              CIRCULAR     2.25       0          0          0          1
793              CIRCULAR     0.83       0          0          0          1
794              CIRCULAR     2.25       0          0          0          1
795              CIRCULAR     2.25       0          0          0          1
796              CIRCULAR     0.83       0          0          0          1
797              CIRCULAR     1.75       0          0          0          1
798              CIRCULAR     1.75       0          0          0          1
799              CIRCULAR     1.50       0          0          0          1
800              CIRCULAR     1.00       0          0          0          1
801              CIRCULAR     1.50       0          0          0          1
802              CIRCULAR     1.50       0          0          0          1
803              CIRCULAR     1.00       0          0          0          1
804              CIRCULAR     1.25       0          0          0          1
805              CIRCULAR     1.25       0          0          0          1
806              CIRCULAR     1.25       0          0          0          1
807              CIRCULAR     1.50       0          0          0          1
808              CIRCULAR     1.50       0          0          0          1
809              CIRCULAR     1.75       0          0          0          1
810              CIRCULAR     1.75       0          0          0          1
811              CIRCULAR     2.00       0          0          0          1
812              CIRCULAR     2.00       0          0          0          1
813              CIRCULAR     2.50       0          0          0          1
814              CIRCULAR     2.00       0          0          0          1
815              CIRCULAR     2.50       0          0          0          1
816              CIRCULAR     2.50       0          0          0          1
817              CIRCULAR     2.00       0          0          0          1
818              CIRCULAR     4.00       0          0          0          1
819              CIRCULAR     4.00       0          0          0          1
820              CIRCULAR     4.00       0          0          0          1
822              CIRCULAR     0.83       0          0          0          1
823              CIRCULAR     0.83       0          0          0          1
824              CIRCULAR     1.00       0          0          0          1
825              CIRCULAR     3.00       0          0          0          1
826              CIRCULAR     1.00       0          0          0          1
827              CIRCULAR     1.00       0          0          0          1
828              CIRCULAR     1.25       0          0          0          1
829              CIRCULAR     1.50       0          0          0          1
830              CIRCULAR     1.25       0          0          0          1
831              CIRCULAR     1.50       0          0          0          1
832              CIRCULAR     1.25       0          0          0          1
833              CIRCULAR     2.50       0          0          0          1
957              CIRCULAR     2.50       0          0          0          1
971              CIRCULAR     0.83       0          0          0          1
972              CIRCULAR     1.00       0          0          0          1
973              CIRCULAR     1.25       0          0          0          1
974              CIRCULAR     1.00       0          0          0          1
975              CIRCULAR     1.25       0          0          0          1
976              CIRCULAR     0.83       0          0          0          1
977              CIRCULAR     1.50       0          0          0          1
978              CIRCULAR     0.83       0          0          0          1
979              CIRCULAR     1.00       0          0          0          1
980              CIRCULAR     1.00       0          0          0          1
981              CIRCULAR     1.25       0          0          0          1
982              CIRCULAR     1.50       0          0          0          1
996              CIRCULAR     1.50       0          0          0          1
59               CIRCULAR     1.50       0          0          0          1
98               CIRCULAR     1.50       0          0          0          1
99               CIRCULAR     1.75       0          0          0          1
003FHC05007C     CIRCULAR     3.00       0          0          0          1
005FHC056025C    CIRCULAR     1.75       0          0          0          1

[LOSSES]
;;Link           Inlet      Outlet     Average    Flap Gate
;;-------------- ---------- ---------- ---------- ----------
755              0          0          0          NO
756              0          0          0          NO
757              0          0          0          NO
758              0          0          0          NO
759              0          0          0          NO
760              0          0          0          NO
762              0          0          0          NO
763              0          0          0          NO
764              0          0          0          NO
765              0          0          0          NO
766              0          0          0          NO
767              0          0          0          NO
768              0          0          0          NO
769              0          0          0          NO
770              0          0          0          NO
771              0          0          0          NO
772              0          0          0          NO
773              0          0          0          NO
774              0          0          0          NO
775              0          0          0          NO
776              0          0          0          NO
777              0          0          0          NO
778              0          0          0          NO
779              0          0          0          NO
780              0          0          0          NO
781              0          0          0          NO
782              0          0          0          NO
783              0          0          0          NO
784              0          0          0          NO
785              0          0          0          NO
786              0          0          0          NO
787              0          0          0          NO
788              0          0          0          NO
789              0          0          0          NO
790              0          0          0          NO
791              0          0          0          NO
792              0          0          0          NO
793              0          0          0          NO
794              0          0          0          NO
795              0          0          0          NO
796              0          0          0          NO
797              0          0          0          NO
798              0          0          0          NO
799              0          0          0          NO
800              0          0          0          NO
801              0          0          0          NO
802              0          0          0          NO
803              0          0          0          NO
804              0          0          0          NO
805              0          0          0          NO
806              0          0          0          NO
807              0          0          0          NO
808              0          0          0          NO
809              0          0          0          NO
810              0          0          0          NO
811              0          0          0          NO
812              0          0          0          NO
813              0          0          0          NO
814              0          0          0          NO
815              0          0          0          NO
816              0          0          0          NO
817              0          0          0          NO
818              0          0          0          NO
819              0          0          0          NO
820              0          0          0          NO
822              0          0          0          NO
823              0          0          0          NO
824              0          0          0          NO
825              0          0          0          NO
826              0          0          0          NO
827              0          0          0          NO
828              0          0          0          NO
829              0          0          0          NO
830              0          0          0          NO
831              0          0          0          NO
832              0          0          0          NO
833              0          0          0          NO
957              0          0          0          NO
971              0          0          0          NO
972              0          0          0          NO
973              0          0          0          NO
974              0          0          0          NO
975              0          0          0          NO
976              0          0          0          NO
977              0          0          0          NO
978              0          0          0          NO
979              0          0          0          NO
980              0          0          0          NO
981              0          0          0          NO
982              0          0          0          NO
996              0          0          0          NO
59               0          0          0          NO
98               0          0          0          NO
99               0          0          0          NO
003FHC05007C     0          0          0          NO
005FHC056025C    0          0          0          NO

[INFLOWS]
;;Node           Constituent  Time Series      Type     Mfactor  Sfactor  Baseline Pattern
;;-------------- ------------ ---------------- -------- -------- -------- -------- --------
;; SYNTHETIC TEST INFLOWS — the source .xp carried no constant inflows
;; and RUNF hydrology is not converted; 1.00 CFS is applied at each
;; headwater node so the network runs wet for QA. Replace with real
;; hydrology or inflow hydrographs before using results.
FHC002055N       FLOW         ""               FLOW     1.0      1.0      1.00
FHC024047N       FLOW         ""               FLOW     1.0      1.0      1.00
FHC029018N       FLOW         ""               FLOW     1.0      1.0      1.00
FHC008023N       FLOW         ""               FLOW     1.0      1.0      1.00
FHC055024N       FLOW         ""               FLOW     1.0      1.0      1.00
FHC058001N       FLOW         ""               FLOW     1.0      1.0      1.00
FHC057016N       FLOW         ""               FLOW     1.0      1.0      1.00
FHC118036N       FLOW         ""               FLOW     1.0      1.0      1.00
FHC080036N       FLOW         ""               FLOW     1.0      1.0      1.00
FHC138013N       FLOW         ""               FLOW     1.0      1.0      1.00
FHC122012N       FLOW         ""               FLOW     1.0      1.0      1.00
FHC092030N       FLOW         ""               FLOW     1.0      1.0      1.00
WBT120001N       FLOW         ""               FLOW     1.0      1.0      1.00
WBT123021N       FLOW         ""               FLOW     1.0      1.0      1.00
WBT116016N       FLOW         ""               FLOW     1.0      1.0      1.00
WBT111001N       FLOW         ""               FLOW     1.0      1.0      1.00
HW_59            FLOW         ""               FLOW     1.0      1.0      1.00
HW_98            FLOW         ""               FLOW     1.0      1.0      1.00
HW_99            FLOW         ""               FLOW     1.0      1.0      1.00
HW_003FHC05007C  FLOW         ""               FLOW     1.0      1.0      1.00
HW_005FHC056025C FLOW         ""               FLOW     1.0      1.0      1.00

[COORDINATES]
;;Node           X-Coord            Y-Coord
;;-------------- ------------------ ------------------
FHC002055N       -6500.60           -0.60             
FHC003070N       -6000.60           -0.60             
FHC046007N       -5500.60           -0.60             
FHC047014N       -4700.60           -0.60             
FHC050CMCN       -4000.60           -0.60             
FHC051019N       -3800.60           799.40            
FHC052089N       -3650.60           1999.40           
FHC051005N       -3500.60           -0.60             
FHC094046N       -3250.60           -0.60             
FHC095048N       -2900.60           -0.60             
FHC095038N       -2500.60           -0.60             
FHC098037N       -2250.60           -0.60             
FHC099049N       -1750.60           -0.60             
FHC142070N       -1300.60           -0.60             
FHC142003N       -1150.60           799.40            
FHC141049N       -650.60            1799.40           
WBT127002N       -6550.60           -7600.60          
FHC018069N       -6400.60           -7600.60          
FHC024047N       -6000.60           -8800.60          
FHC018062N       -6050.60           -8000.60          
FHC018066N       -6200.60           -7400.60          
FHC017026N       -6000.60           -7000.60          
FHC015062N       -5850.60           -6000.60          
FHC034002N       -5500.60           -5500.60          
FHC029018N       -5000.60           -6000.60          
FHC033055N       -5000.60           -5000.60          
FHC033063N       -5250.60           -5000.60          
FHC033067N       -5250.60           -4700.60          
FHC033009N       -5450.60           -4040.60          
FHC017005N       -6500.60           -6000.60          
FHC014052N       -6240.60           -5700.60          
FHC013020N       -6240.60           -4500.60          
FHC011016N       -6000.60           -3640.60          
FHC011034N       -5680.60           -3600.60          
FHC009070N       -6500.60           -3000.60          
FHC009020N       -6000.60           -2300.60          
FHC012008N       -5680.60           -2300.60          
FHC007040N       -5675.60           -1100.60          
FHC008023N       -5525.60           -1100.60          
FHC008028N       -5650.60           -800.60           
FHC041001N       -5515.60           -250.60           
FHC055024N       -3500.60           -1000.60          
FHC056035N       -3500.60           -300.60           
FHC058001N       -4500.60           -3300.60          
FHC057037N       -3990.60           -2900.60          
FHC057016N       -4500.60           -2000.60          
FHC057026N       -4050.60           -2000.60          
FHC056078N       -3900.60           -1000.60          
FHC118036N       -2300.60           -10000.60         
FHC117053N       -2500.60           -8200.60          
FHC079034N       -2500.60           -7500.60          
FHC080036N       -2500.60           -6500.60          
FHC113070N       -2350.60           -6500.60          
FHC116001N       -2200.60           -6600.60          
FHC116021N       -2100.60           -6100.60          
FHC125002N       -1450.60           -6000.60          
FHC130005N       -1000.60           -5300.60          
FHC132039N       -600.60            -5200.60          
FHC132037N       -500.60            -5000.60          
FHC135003N       -500.60            -3000.60          
FHC139030N       -500.60            -2000.60          
FHC140028N       -500.60            -1000.60          
FHC143127N       -500.60            899.40            
FHC143129N       -500.60            1099.40           
FHC144052N       -500.60            1599.40           
FHC144107N       -500.60            1799.40           
SOC123003N       -500.60            1999.40           
FHC138013N       -1400.60           -1850.60          
FHC137055N       -1000.60           -250.60           
FHC143100N       -800.60            449.40            
FHC144066N       -550.60            1549.40           
FHC122012N       -1500.60           -9000.60          
FHC124098N       -1000.60           -9000.60          
FHC124029N       -900.60            -8500.60          
FHC124041N       -500.60            -8200.60          
FHC127003N       -500.60            -7500.60          
FHC128015N       -500.60            -6600.60          
FHC131019N       -500.60            -5500.60          
FHC132038N       -500.60            -5250.60          
FHC092030N       -2500.60           -500.60           
WBT120001N       -7800.60           -8400.60          
WBT120005N       -7800.60           -8600.60          
WBT122004N       -7300.60           -8200.60          
WBT121005N       -7100.60           -8200.60          
WBT124033N       -6800.60           -8200.60          
WBT123021N       -6500.60           -9000.60          
WBT124006N       -6500.60           -8100.60          
WBT116016N       -7500.60           -8000.60          
WBT125010N       -7000.60           -6000.60          
WBT111001N       -7500.60           -5500.60          
WBT129002N       -7000.60           -4500.60          
WBT135027N       -6750.60           -4200.60          
FHC013028N       -6120.60           -4070.60          
FHC050020N       -3920.60           199.40            
FHC050019N       -3850.60           299.40            
FHC05007N        -3900.60           -0.60             
FHC056025N       -3500.60           -150.60           

[MAP]
DIMENSIONS -7800.60 -10000.60 -500.60 1999.40
Units      None

[REPORT]
SUBCATCHMENTS ALL
NODES ALL
LINKS ALL
