;; SWMM5 .inp converted from XPSWMM .xp file
;; Generated by XPSWMM Card Reader
;; Source format: XP_CARD | Original title: RUNOFF MODEL FOR PUTNUM DRIVE STORMWATER IMPROVEMENTS

[TITLE]
;;Project Title/Notes
RUNOFF MODEL FOR PUTNUM DRIVE STORMWATER IMPROVEMENTS

[OPTIONS]
FLOW_UNITS           CFS
INFILTRATION         HORTON
FLOW_ROUTING         DYNWAVE
LINK_OFFSETS         DEPTH
MIN_SLOPE            0.0
ALLOW_PONDING        NO
SKIP_STEADY_STATE    NO
ROUTING_STEP         00:00:05
VARIABLE_STEP        0.75
INERTIAL_DAMPING     PARTIAL
NORMAL_FLOW_LIMITED  BOTH
MAX_TRIALS           50
HEAD_TOLERANCE       0.0033
START_DATE           01/01/2001
START_TIME           00:00:00
REPORT_START_DATE    01/01/2001
REPORT_START_TIME    00:00:00
END_DATE             01/02/2001
END_TIME             00:00:00
SWEEP_START          01/01
SWEEP_END            12/31
DRY_DAYS             0
REPORT_STEP          00:15:00
WET_STEP             00:05:00
DRY_STEP             01:00:00

[JUNCTIONS]
;;Name           Elev       MaxDepth   InitDepth  SurDepth   Aponded
;;-------------- ---------- ---------- ---------- ---------- ----------
1100             135.14     0          0          0          0
1200             123.64     0          0          0          0
1400             112.64     0          0          0          0
1600             101.14     0          0          0          0
1700             97.14      0          0          0          0
1900             83.14      0          0          0          0
2000             81.14      0          0          0          0
2100             80.14      0          0          0          0
2450             66.64      0          0          0          0
2500             66.14      0          0          0          0
2600             65.14      0          0          0          0
2700             67.00      0          0          0          0
2750             66.99      0          0          0          0
2800             63.28      0          0          0          0
2300             85.00      0          0          0          0
1000a            143.00     0          0          0          0
putw1            52.84      0          0          0          0
APW1             55.24      0          0          0          0
MAGW1            59.14      0          0          0          0
NEW30"           58.24      0          0          0          0
Weir1            0          0          0          0          0
Weir2            0          0          0          0          0

[OUTFALLS]
;;Name           Elev       Type       Stage      Gated
;;-------------- ---------- ---------- ---------- -----
1500             103.14     FREE                  NO

[STORAGE]
;;Name           Elev       MaxDepth   InitDepth  Shape      Curve/Params
;;-------------- ---------- ---------- ---------- ---------- ----------
1000             143.00     10.00      0          FUNCTIONAL 1000.00 0          0
1300             123.14     10.00      0          FUNCTIONAL 1000.00 0          0
1800             90.14      10.00      0          FUNCTIONAL 1000.00 0          0
2200             71.14      10.00      0          FUNCTIONAL 1000.00 0          0
2250             70.14      10.00      0          FUNCTIONAL 1000.00 0          0
2400             70.14      10.00      0          FUNCTIONAL 1000.00 0          0
2900             59.14      10.00      0          FUNCTIONAL 1000.00 0          0
3000             59.14      10.00      0          FUNCTIONAL 1000.00 0          0
54               82.00      10.00      0          FUNCTIONAL 1000.00 0          0
1500a            100.00     10.00      0          FUNCTIONAL 50.00 0          0

[CONDUITS]
;;Name           From             To               Length     Roughness  InOffset   OutOffset  InitFlow   MaxFlow
;;-------------- ---------------- ---------------- ---------- ---------- ---------- ---------- ---------- ----------
1011             1000a            1100             100.00     0.0140     128.60     123.14     0          0
1112             1100             1200             180.00     0.0140     123.14     111.64     0          0
1213             1200             1300             160.00     0.0140     111.64     111.14     0          0
1314             1300             1400             190.00     0.0140     111.14     100.64     0          0
1415             1400             1500             465.00     0.0140     100.64     92.00      0          0
1516             1500a            1600             362.00     0.0140     90.00      89.14      0          0
1617             1600             1700             626.00     0.0140     89.14      85.14      0          0
1718             1700             1800             294.00     0.0140     85.14      78.14      0          0
1819             1800             1900             420.00     0.0140     78.14      71.14      0          0
1920             1900             2000             275.00     0.0140     71.14      69.14      0          0
2021             2000             2100             50.00      0.0140     69.14      68.14      0          0
2122             2100             2200             420.00     0.0140     68.14      59.14      0          0
2224             2250             2400             250.00     0.0140     58.24      55.24      0          0
2425             2450             2500             200.00     0.0140     53.54      53.34      0          0
2526             2500             2600             275.00     0.0140     53.34      53.04      0          0
2627             2600             2700             235.00     0.0140     53.04      52.84      0          0
2728             2750             2800             440.00     0.0140     50.94      50.04      0          0
2829             2800             2900             230.00     0.0140     50.04      47.74      0          0
2930             2900             3000             33.00      0.0140     47.74      46.94      0          0
2322             2300             2200             600.00     0.0140     78.14      59.14      0          0
putc1            putw1            2750             55.00      0.0120     52.84      50.94      0          0
APC1             APW1             2450             350.00     0.0120     55.24      53.54      0          0
MAGC1            MAGW1            NEW30"           40.00      0.0120     59.14      58.24      0          0
55               54               1900             100.00     0.0300     81.00      80.00      0          0

[ORIFICES]
;;Name           From             To               Type       Offset     Qcoeff     Gated    CloseTime
;;-------------- ---------------- ---------------- ---------- ---------- ---------- -------- ----------
weir1            1000             1000a            SIDE       0          0.650      NO       0
Orifice1         Weir1            Weir2            SIDE       0          0.650      NO       0

[XSECTIONS]
;;Link           Shape        Geom1      Geom2      Geom3      Geom4      Barrels
;;-------------- ------------ ---------- ---------- ---------- ---------- ----------
1011             TRAPEZOIDAL  4.00       10.00      2          2          1
1112             TRAPEZOIDAL  6.00       10.00      2          2          1
1213             TRAPEZOIDAL  5.50       10.00      2          2          1
1314             TRAPEZOIDAL  4.00       10.00      2          2          1
1415             TRAPEZOIDAL  4.00       10.00      2          2          1
1516             TRAPEZOIDAL  6.00       10.00      2          2          1
1617             TRAPEZOIDAL  6.00       10.00      2          2          1
1718             TRAPEZOIDAL  4.00       10.00      2          2          1
1819             TRAPEZOIDAL  5.00       10.00      2          2          1
1920             TRAPEZOIDAL  4.20       10.00      2          2          1
2021             TRAPEZOIDAL  5.30       10.00      2          2          1
2122             TRAPEZOIDAL  4.70       10.00      2          2          1
2224             TRAPEZOIDAL  8.50       10.00      2          2          1
2425             TRAPEZOIDAL  5.90       10.00      2          2          1
2526             TRAPEZOIDAL  6.70       10.00      2          2          1
2627             TRAPEZOIDAL  10.50      10.00      2          2          1
2728             TRAPEZOIDAL  13.20      10.00      2          2          1
2829             TRAPEZOIDAL  10.90      10.00      2          2          1
2930             TRAPEZOIDAL  7.80       10.00      2          2          1
2322             TRAPEZOIDAL  6.00       3.00       2          2          1
putc1            CIRCULAR     6.00       0          0          0          1
APC1             CIRCULAR     5.00       0          0          0          1
MAGC1            CIRCULAR     3.00       0          0          0          1
55               TRAPEZOIDAL  1.00       50.00      1          1          1
weir1            RECT_CLOSED  0.59       0.59       0          0
Orifice1         RECT_CLOSED  1.77       1.77       0          0

[LOSSES]
;;Link           Inlet      Outlet     Average    Flap Gate
;;-------------- ---------- ---------- ---------- ----------
1011             0          0          0          NO
1112             0          0          0          NO
1213             0          0          0          NO
1314             0          0          0          NO
1415             0          0          0          NO
1516             0          0          0          NO
1617             0          0          0          NO
1718             0          0          0          NO
1819             0          0          0          NO
1920             0          0          0          NO
2021             0          0          0          NO
2122             0          0          0          NO
2224             0          0          0          NO
2425             0          0          0          NO
2526             0          0          0          NO
2627             0          0          0          NO
2728             0          0          0          NO
2829             0          0          0          NO
2930             0          0          0          NO
2322             0          0          0          NO
putc1            0          0          0          NO
APC1             0          0          0          NO
MAGC1            0          0          0          NO
55               0          0          0          NO

[COORDINATES]
;;Node           X-Coord            Y-Coord
;;-------------- ------------------ ------------------
1000             416.25             123.48            
1100             404.89             27.13             
1200             408.58             -19.51            
1300             421.39             -48.96            
1400             457.02             -64.23            
1500             500.26             -75.99            
1600             538.25             -73.57            
1700             568.91             -61.71            
1800             597.43             -48.16            
1900             628.06             -39.92            
2000             665.13             -47.57            
2100             697.20             -52.12            
2200             697.32             -98.06            
2250             732.94             -101.18           
2400             769.28             -110.00           
2450             797.08             -132.99           
2500             825.60             -139.45           
2600             862.60             -152.43           
2700             896.04             -160.08           
2750             929.58             -173.04           
2800             965.95             -174.22           
2900             1000.86            -175.48           
3000             1042.20            -179.54           
2300             696.60             -157.14           
1000a            403.17             75.25             
54               630.34             -110.00           
1500a            509.96             -49.32            

[MAP]
DIMENSIONS 403.17 -179.54 1042.20 123.48
Units      None

[REPORT]
SUBCATCHMENTS ALL
NODES ALL
LINKS ALL
