;; SWMM5 .inp converted from XPSWMM .xp file
;; Generated by XPSWMM Card Reader
;; Source format: XP_CARD | Original title: C7-100FX.XP C-7 BASIN 100 YEAR STORM FLOODING MAPS
;; Links parsed from source: 5 | Routable in this .inp: 5

[TITLE]
;;Project Title/Notes
C7-100FX.XP C-7 BASIN 100 YEAR STORM FLOODING MAPS

[OPTIONS]
FLOW_UNITS           CFS
INFILTRATION         HORTON
FLOW_ROUTING         DYNWAVE
LINK_OFFSETS         DEPTH
MIN_SLOPE            0.0
ALLOW_PONDING        NO
SKIP_STEADY_STATE    NO
ROUTING_STEP         00:00:30
VARIABLE_STEP        0.75
INERTIAL_DAMPING     PARTIAL
NORMAL_FLOW_LIMITED  BOTH
MAX_TRIALS           50
HEAD_TOLERANCE       0.0033
START_DATE           01/01/2001
START_TIME           00:00:00
REPORT_START_DATE    01/01/2001
REPORT_START_TIME    00:00:00
END_DATE             01/02/2001
END_TIME             00:00:00
SWEEP_START          01/01
SWEEP_END            12/31
DRY_DAYS             0
REPORT_STEP          00:15:00
WET_STEP             00:05:00
DRY_STEP             01:00:00

[JUNCTIONS]
;;Name           Elev       MaxDepth   InitDepth  SurDepth   Aponded
;;-------------- ---------- ---------- ---------- ---------- ----------
U1-W             6.40       0          0          0          0
U2-W             7.48       0          0          0          0
U1-E             7.48       0          0          0          0

[OUTFALLS]
;;Name           Elev       Type       Stage      Gated
;;-------------- ---------- ---------- ---------- -----
U8-E             6.13       FREE                  NO

[STORAGE]
;;Name           Elev       MaxDepth   InitDepth  Shape      Curve/Params
;;-------------- ---------- ---------- ---------- ---------- ----------
FC-N-1           10.00      10.00      0          FUNCTIONAL 1780000.00 0          0
FC-S-1           10.00      10.00      0          FUNCTIONAL 7350000.00 0          0

[CONDUITS]
;;Name           From             To               Length     Roughness  InOffset   OutOffset  InitFlow   MaxFlow
;;-------------- ---------------- ---------------- ---------- ---------- ---------- ---------- ---------- ----------
U1               U1-W             U1-E             130.00     0.0140     0.84       0          0          0
FC-C-1           U1-E             U2-W             500.00     0.0140     0          0          0          0
U2               U2-W             U8-E             120.00     0.0140     0          0          0          0

[WEIRS]
;;Name           From             To               Type       CrestHt    Qcoeff     Gated    EndCon   EndCoeff   Surcharge
;;-------------- ---------------- ---------------- ---------- ---------- ---------- -------- -------- ---------- ----------
FC-W-N-1         FC-N-1           U2-W             TRANSVERSE 6.50       1.840      NO       0        0          YES
FC-W-S-1         FC-S-1           U2-W             TRANSVERSE 6.50       1.840      NO       0        0          YES

[XSECTIONS]
;;Link           Shape        Geom1      Geom2      Geom3      Geom4      Barrels
;;-------------- ------------ ---------- ---------- ---------- ---------- ----------
U1               CIRCULAR     4.50       0          0          0          1
FC-C-1           TRAPEZOIDAL  1.00       10.00      2          2          1
U2               CIRCULAR     6.00       0          0          0          1
FC-W-N-1         RECT_OPEN    1.00       500.00     0          0
FC-W-S-1         RECT_OPEN    1.00       500.00     0          0

[LOSSES]
;;Link           Inlet      Outlet     Average    Flap Gate
;;-------------- ---------- ---------- ---------- ----------
U1               0          0          0          NO
FC-C-1           0          0          0          NO
U2               0          0          0          NO

[INFLOWS]
;;Node           Constituent  Time Series      Type     Mfactor  Sfactor  Baseline Pattern
;;-------------- ------------ ---------------- -------- -------- -------- -------- --------
;; SYNTHETIC TEST INFLOWS — the source .xp carried no constant inflows
;; and RUNF hydrology is not converted; 1.00 CFS is applied at each
;; headwater node so the network runs wet for QA. Replace with real
;; hydrology or inflow hydrographs before using results.
U1-W             FLOW         ""               FLOW     1.0      1.0      1.00
FC-N-1           FLOW         ""               FLOW     1.0      1.0      1.00
FC-S-1           FLOW         ""               FLOW     1.0      1.0      1.00

[COORDINATES]
;;Node           X-Coord            Y-Coord
;;-------------- ------------------ ------------------
U1-W             62.45              -2.20             
FC-N-1           12.13              38.75             
U2-W             61.91              88.11             
U1-E             62.45              41.38             
FC-S-1           110.39             42.71             
U8-E             62.48              121.80            

[MAP]
DIMENSIONS 12.13 -2.20 110.39 121.80
Units      None

[REPORT]
SUBCATCHMENTS ALL
NODES ALL
LINKS ALL
