;; SWMM5 .inp converted from XPSWMM .xp file
;; Generated by XPSWMM Card Reader
;; Source format: XP_CARD | Original title: FORT WAYNE CSO IMPACT CHARACT. STUDY      C:\XPS\..\FW927Rn1.XP
;; Links parsed from source: 35 | Routable in this .inp: 35

[TITLE]
;;Project Title/Notes
FORT WAYNE CSO IMPACT CHARACT. STUDY      C:\XPS\..\FW927Rn1.XP

[OPTIONS]
FLOW_UNITS           CFS
INFILTRATION         HORTON
FLOW_ROUTING         DYNWAVE
LINK_OFFSETS         DEPTH
MIN_SLOPE            0.0
ALLOW_PONDING        NO
SKIP_STEADY_STATE    NO
ROUTING_STEP         00:00:08
VARIABLE_STEP        0.75
INERTIAL_DAMPING     PARTIAL
NORMAL_FLOW_LIMITED  BOTH
MAX_TRIALS           50
START_DATE           01/01/2001
START_TIME           00:00:00
REPORT_START_DATE    01/01/2001
REPORT_START_TIME    00:00:00
END_DATE             01/02/2001
END_TIME             00:00:00
SWEEP_START          01/01
SWEEP_END            12/31
DRY_DAYS             0
REPORT_STEP          00:15:00
WET_STEP             00:05:00
DRY_STEP             01:00:00

[JUNCTIONS]
;;Name           Elev       MaxDepth   InitDepth  SurDepth   Aponded
;;-------------- ---------- ---------- ---------- ---------- ----------
M10310           756.60     0          0          0          0
P06014(R7)       754.80     0          0          0          0
Q14025           760.00     0          0          0          0
S02008           754.10     0          0          0          0
P06124           768.93     0          0          0          0
N06102           780.00     0          0          0          0
Q06003           756.00     0          0          0          0
L06112           760.00     0          0          0          0
K06066           760.00     0          0          0          0
K11117           760.00     0          0          0          0
J11104           760.00     0          0          0          0
K15065           770.00     0          0          0          0
R18182           780.00     0          0          0          0
L19254           770.00     0          0          0          0
Q06038           750.00     0          0          0          0
O10295           760.00     0          0          0          0
K06250           753.07     0          0          0          0
J02075           751.00     0          0          0          0
K07029           753.00     0          0          0          0
L06172           760.00     0          0          0          0
L06140           755.00     0          0          0          0
L06069           756.70     0          0          0          0
M10234           755.00     0          0          0          0
M06251           758.00     0          0          0          0
M06098           763.20     0          0          0          0
L18064           755.00     0          0          0          0
N22101           763.00     0          0          0          0
M18271           758.00     0          0          0          0
Reg34A           763.70     0          0          0          0
P22157           776.00     0          0          0          0
O22100           762.00     0          0          0          0
M10101           754.00     0          0          0          0
J05291           755.80     0          0          0          0
O10090           747.00     0          0          0          0
L06293           768.00     0          0          0          0
Node_3807        0          0          0          0          0
Node_31813046    0          0          0          0          0
Node_3808        0          0          0          0          0
Node_30461040    0          0          0          0          0
Node_3809        0          0          0          0          0
Node_10403190    0          0          0          0          0
Node_3810        0          0          0          0          0
Node_31903405    0          0          0          0          0
Node_3811        0          0          0          0          0
Node_34053272    0          0          0          0          0
Node_3812        0          0          0          0          0
Node_32723006    0          0          0          0          0
Node_3813        0          0          0          0          0
Node_30063172    0          0          0          0          0
Node_3814        0          0          0          0          0
Node_31723015    0          0          0          0          0
Node_3815        0          0          0          0          0
Node_30153777    0          0          0          0          0
Node_3816        0          0          0          0          0
Node_37773158    0          0          0          0          0
Node_3817        0          0          0          0          0
Node_31582995    0          0          0          0          0
Node_3818        0          0          0          0          0
Node_29953234    0          0          0          0          0
Node_3819        0          0          0          0          0
Node_32343039    0          0          0          0          0
Node_3820        0          0          0          0          0
Node_30393235    0          0          0          0          0
Node_3821        0          0          0          0          0
Node_32353236    0          0          0          0          0
Node_3822        0          0          0          0          0
Node_32363766    0          0          0          0          0
Node_3823        0          0          0          0          0
Node_3766261     0          0          0          0          0
Node_3825        0          0          0          0          0
Node_3255446     0          0          0          0          0
Node_3827        0          0          0          0          0
Node_31393345    0          0          0          0          0
Node_3828        0          0          0          0          0
Node_3345544     0          0          0          0          0
Node_3830        0          0          0          0          0
Node_32443318    0          0          0          0          0
Node_3831        0          0          0          0          0
Node_33183299    0          0          0          0          0
Node_3832        0          0          0          0          0
Node_32993327    0          0          0          0          0
Node_3833        0          0          0          0          0
Node_33273328    0          0          0          0          0
Node_3834        0          0          0          0          0
Node_33283343    0          0          0          0          0
Node_3835        0          0          0          0          0
Node_33433138    0          0          0          0          0
Node_3836        0          0          0          0          0
Node_31383384    0          0          0          0          0
Node_3837        0          0          0          0          0
Node_32023066    0          0          0          0          0
Node_3838        0          0          0          0          0
Node_30663089    0          0          0          0          0
Node_3839        0          0          0          0          0
Node_30893113    0          0          0          0          0
Node_3840        0          0          0          0          0
Node_31133150    0          0          0          0          0
Node_3841        0          0          0          0          0
Node_31503181    0          0          0          0          0

[OUTFALLS]
;;Name           Elev       Type       Stage      Gated
;;-------------- ---------- ---------- ---------- -----
S18081           787.00     FREE                  NO

[CONDUITS]
;;Name           From             To               Length     Roughness  InOffset   OutOffset  InitFlow   MaxFlow
;;-------------- ---------------- ---------------- ---------- ---------- ---------- ---------- ---------- ----------
3807             Node_3807        Node_31813046    100.00     0.0130     0          0          0          0
3808             Node_3808        Node_30461040    100.00     0.0130     0          0          0          0
3809             Node_3809        Node_10403190    100.00     0.0130     0          0          0          0
3810             Node_3810        Node_31903405    100.00     0.0130     0          0          0          0
3811             Node_3811        Node_34053272    100.00     0.0130     0          0          0          0
3812             Node_3812        Node_32723006    100.00     0.0130     0          0          0          0
3813             Node_3813        Node_30063172    100.00     0.0130     0          0          0          0
3814             Node_3814        Node_31723015    100.00     0.0130     0          0          0          0
3815             Node_3815        Node_30153777    100.00     0.0130     0          0          0          0
3816             Node_3816        Node_37773158    100.00     0.0130     0          0          0          0
3817             Node_3817        Node_31582995    100.00     0.0130     0          0          0          0
3818             Node_3818        Node_29953234    100.00     0.0130     0          0          0          0
3819             Node_3819        Node_32343039    100.00     0.0130     0          0          0          0
3820             Node_3820        Node_30393235    100.00     0.0130     0          0          0          0
3821             Node_3821        Node_32353236    100.00     0.0130     0          0          0          0
3822             Node_3822        Node_32363766    100.00     0.0130     0          0          0          0
3823             Node_3823        Node_3766261     100.00     0.0130     0          0          0          0
3824             M10310           M06251           100.00     0.0130     0          0          0          0
3825             Node_3825        Node_3255446     100.00     0.0130     0          0          0          0
3826             P06014(R7)       S18081           100.00     0.0130     0          0          0          0
3827             Node_3827        Node_31393345    100.00     0.0130     0          0          0          0
3828             Node_3828        Node_3345544     100.00     0.0130     0          0          0          0
3829             Q14025           M10234           100.00     0.0130     0          0          0          0
3830             Node_3830        Node_32443318    100.00     0.0130     0          0          0          0
3831             Node_3831        Node_33183299    100.00     0.0130     0          0          0          0
3832             Node_3832        Node_32993327    100.00     0.0130     0          0          0          0
3833             Node_3833        Node_33273328    100.00     0.0130     0          0          0          0
3834             Node_3834        Node_33283343    100.00     0.0130     0          0          0          0
3835             Node_3835        Node_33433138    100.00     0.0130     0          0          0          0
3836             Node_3836        Node_31383384    100.00     0.0130     0          0          0          0
3837             Node_3837        Node_32023066    100.00     0.0130     0          0          0          0
3838             Node_3838        Node_30663089    100.00     0.0130     0          0          0          0
3839             Node_3839        Node_30893113    100.00     0.0130     0          0          0          0
3840             Node_3840        Node_31133150    100.00     0.0130     0          0          0          0
3841             Node_3841        Node_31503181    100.00     0.0130     0          0          0          0

[XSECTIONS]
;;Link           Shape        Geom1      Geom2      Geom3      Geom4      Barrels
;;-------------- ------------ ---------- ---------- ---------- ---------- ----------
3807             CIRCULAR     1.00       0          0          0          1
3808             CIRCULAR     1.00       0          0          0          1
3809             CIRCULAR     1.00       0          0          0          1
3810             CIRCULAR     1.00       0          0          0          1
3811             CIRCULAR     1.00       0          0          0          1
3812             CIRCULAR     1.00       0          0          0          1
3813             CIRCULAR     1.00       0          0          0          1
3814             CIRCULAR     1.00       0          0          0          1
3815             CIRCULAR     1.00       0          0          0          1
3816             CIRCULAR     1.00       0          0          0          1
3817             CIRCULAR     1.00       0          0          0          1
3818             CIRCULAR     1.00       0          0          0          1
3819             CIRCULAR     1.00       0          0          0          1
3820             CIRCULAR     1.00       0          0          0          1
3821             CIRCULAR     1.00       0          0          0          1
3822             CIRCULAR     1.00       0          0          0          1
3823             CIRCULAR     1.00       0          0          0          1
3824             CIRCULAR     1.00       0          0          0          1
3825             CIRCULAR     1.00       0          0          0          1
3826             CIRCULAR     1.00       0          0          0          1
3827             CIRCULAR     1.00       0          0          0          1
3828             CIRCULAR     1.00       0          0          0          1
3829             CIRCULAR     1.00       0          0          0          1
3830             CIRCULAR     1.00       0          0          0          1
3831             CIRCULAR     1.00       0          0          0          1
3832             CIRCULAR     1.00       0          0          0          1
3833             CIRCULAR     1.00       0          0          0          1
3834             CIRCULAR     1.00       0          0          0          1
3835             CIRCULAR     1.00       0          0          0          1
3836             CIRCULAR     1.00       0          0          0          1
3837             CIRCULAR     1.00       0          0          0          1
3838             CIRCULAR     1.00       0          0          0          1
3839             CIRCULAR     1.00       0          0          0          1
3840             CIRCULAR     1.00       0          0          0          1
3841             CIRCULAR     1.00       0          0          0          1

[LOSSES]
;;Link           Inlet      Outlet     Average    Flap Gate
;;-------------- ---------- ---------- ---------- ----------
3807             0          0          0          NO
3808             0          0          0          NO
3809             0          0          0          NO
3810             0          0          0          NO
3811             0          0          0          NO
3812             0          0          0          NO
3813             0          0          0          NO
3814             0          0          0          NO
3815             0          0          0          NO
3816             0          0          0          NO
3817             0          0          0          NO
3818             0          0          0          NO
3819             0          0          0          NO
3820             0          0          0          NO
3821             0          0          0          NO
3822             0          0          0          NO
3823             0          0          0          NO
3824             0          0          0          NO
3825             0          0          0          NO
3826             0          0          0          NO
3827             0          0          0          NO
3828             0          0          0          NO
3829             0          0          0          NO
3830             0          0          0          NO
3831             0          0          0          NO
3832             0          0          0          NO
3833             0          0          0          NO
3834             0          0          0          NO
3835             0          0          0          NO
3836             0          0          0          NO
3837             0          0          0          NO
3838             0          0          0          NO
3839             0          0          0          NO
3840             0          0          0          NO
3841             0          0          0          NO

[INFLOWS]
;;Node           Constituent  Time Series      Type     Mfactor  Sfactor  Baseline Pattern
;;-------------- ------------ ---------------- -------- -------- -------- -------- --------
;; SYNTHETIC TEST INFLOWS — the source .xp carried no constant inflows
;; and RUNF hydrology is not converted; 1.00 CFS is applied at each
;; headwater node so the network runs wet for QA. Replace with real
;; hydrology or inflow hydrographs before using results.
M10310           FLOW         ""               FLOW     1.0      1.0      1.00
P06014(R7)       FLOW         ""               FLOW     1.0      1.0      1.00
Q14025           FLOW         ""               FLOW     1.0      1.0      1.00
Node_3807        FLOW         ""               FLOW     1.0      1.0      1.00
Node_3808        FLOW         ""               FLOW     1.0      1.0      1.00
Node_3809        FLOW         ""               FLOW     1.0      1.0      1.00
Node_3810        FLOW         ""               FLOW     1.0      1.0      1.00
Node_3811        FLOW         ""               FLOW     1.0      1.0      1.00
Node_3812        FLOW         ""               FLOW     1.0      1.0      1.00
Node_3813        FLOW         ""               FLOW     1.0      1.0      1.00
Node_3814        FLOW         ""               FLOW     1.0      1.0      1.00
Node_3815        FLOW         ""               FLOW     1.0      1.0      1.00
Node_3816        FLOW         ""               FLOW     1.0      1.0      1.00
Node_3817        FLOW         ""               FLOW     1.0      1.0      1.00
Node_3818        FLOW         ""               FLOW     1.0      1.0      1.00
Node_3819        FLOW         ""               FLOW     1.0      1.0      1.00
Node_3820        FLOW         ""               FLOW     1.0      1.0      1.00
Node_3821        FLOW         ""               FLOW     1.0      1.0      1.00
Node_3822        FLOW         ""               FLOW     1.0      1.0      1.00
Node_3823        FLOW         ""               FLOW     1.0      1.0      1.00
Node_3825        FLOW         ""               FLOW     1.0      1.0      1.00
Node_3827        FLOW         ""               FLOW     1.0      1.0      1.00
Node_3828        FLOW         ""               FLOW     1.0      1.0      1.00
Node_3830        FLOW         ""               FLOW     1.0      1.0      1.00
Node_3831        FLOW         ""               FLOW     1.0      1.0      1.00
Node_3832        FLOW         ""               FLOW     1.0      1.0      1.00
Node_3833        FLOW         ""               FLOW     1.0      1.0      1.00
Node_3834        FLOW         ""               FLOW     1.0      1.0      1.00
Node_3835        FLOW         ""               FLOW     1.0      1.0      1.00
Node_3836        FLOW         ""               FLOW     1.0      1.0      1.00
Node_3837        FLOW         ""               FLOW     1.0      1.0      1.00
Node_3838        FLOW         ""               FLOW     1.0      1.0      1.00
Node_3839        FLOW         ""               FLOW     1.0      1.0      1.00
Node_3840        FLOW         ""               FLOW     1.0      1.0      1.00
Node_3841        FLOW         ""               FLOW     1.0      1.0      1.00

[COORDINATES]
;;Node           X-Coord            Y-Coord
;;-------------- ------------------ ------------------
M10310           -1313905.45        658265.06         
P06014(R7)       -1314112.01        686011.94         
Q14025           -1323160.23        658308.01         
S02008           -1287227.19        657752.03         
P06124           -1304600.85        672156.02         
N06102           -1295865.71        646027.11         
Q06003           -1295853.06        672316.62         
L06112           -1304873.29        645935.44         
K06066           -1287046.40        672104.11         
K11117           -1278063.40        646187.65         
J11104           -1278122.64        658913.07         
K15065           -1278238.14        672214.66         
R18182           -1331969.22        685895.88         
S18081           -1322984.32        686082.46         
L19254           -1278287.64        686225.69         
Q06038           -1305003.79        686164.89         
O10295           -1295897.88        657932.04         
K06250           -1286849.01        685948.17         
J02075           -1287181.24        646144.63         
K07029           -1277727.20        630996.09         
L06172           -1304878.74        658285.81         
L06140           -1304892.54        630080.80         
L06069           -1313792.80        630053.60         
M10234           -1322873.49        645940.28         
M06251           -1313962.09        672136.19         
M06098           -1295881.08        630027.60         
L18064           -1331777.19        630300.00         
N22101           -1323037.52        630229.35         
M18271           -1331920.66        646182.92         
Reg34A           -1331997.05        658298.48         
P22157           -1331829.65        671944.98         
O22100           -1322990.52        671899.05         
M10101           -1341050.23        685708.36         
J05291           -1286752.27        629955.98         
O10090           -1313950.62        646082.56         
L06293           -1295999.95        686002.04         

[MAP]
DIMENSIONS -1341050.23 629955.98 -1277727.20 686225.69
Units      None

[REPORT]
SUBCATCHMENTS ALL
NODES ALL
LINKS ALL
