;; SWMM5 .inp converted from XPSWMM .xp file
;; Generated by XPSWMM Card Reader
;; Source format: XP_CARD | Original title: (none)

[TITLE]
;;Project Title/Notes
Converted from XPSWMM .xp file

[OPTIONS]
FLOW_UNITS           CFS
INFILTRATION         HORTON
FLOW_ROUTING         DYNWAVE
LINK_OFFSETS         DEPTH
MIN_SLOPE            0.0
ALLOW_PONDING        NO
SKIP_STEADY_STATE    NO
ROUTING_STEP         00:01:00
VARIABLE_STEP        0.75
INERTIAL_DAMPING     PARTIAL
NORMAL_FLOW_LIMITED  BOTH
MAX_TRIALS           100
START_DATE           01/01/2001
START_TIME           00:00:00
REPORT_START_DATE    01/01/2001
REPORT_START_TIME    00:00:00
END_DATE             01/02/2001
END_TIME             00:00:00
SWEEP_START          01/01
SWEEP_END            12/31
DRY_DAYS             0
REPORT_STEP          00:15:00
WET_STEP             00:05:00
DRY_STEP             01:00:00

[JUNCTIONS]
;;Name           Elev       MaxDepth   InitDepth  SurDepth   Aponded
;;-------------- ---------- ---------- ---------- ---------- ----------
B6-L4            23.00      0          0          0          0
B6-L5            23.00      0          0          0          0
B6-L12           24.00      0          0          0          0
B6-L1            23.00      0          0          0          0
Offsite-6b       22.70      0          0          0          0
B6-W3            23.70      0          0          0          0
B6-L16           23.20      0          0          0          0
B6-L17           23.20      0          0          0          0
B6-L14           23.00      0          0          0          0
B6-W6            23.20      0          0          0          0
B6-L13           24.00      0          0          0          0
CS#6             24.80      0          0          0          0
B2-L29           23.50      0          0          0          0
B2-L23           24.50      0          0          0          0
B2-L25           23.50      0          0          0          0
B6-L18           23.20      0          0          0          0
B2-L22           24.50      0          0          0          0
B2-W10           25.80      0          0          0          0
B2-L21           24.50      0          0          0          0
B2-L33           25.00      0          0          0          0
Offsite-2b       26.00      0          0          0          0
B6-L2            23.00      0          0          0          0
B6-L7            23.00      0          0          0          0
B6-L3            23.00      0          0          0          0
B6-L6            23.00      0          0          0          0
B6-L19           23.20      0          0          0          0
B6-L8            23.00      0          0          0          0
B6-L10           23.00      0          0          0          0
B2-L26           24.00      0          0          0          0
B2-W9            24.80      0          0          0          0
B2-L27           23.50      0          0          0          0
ex#1             23.50      0          0          0          0
EX#2             23.50      0          0          0          0
B2-L34           23.50      0          0          0          0
B2-L31           23.50      0          0          0          0
B2-L32           23.50      0          0          0          0
B2-L24           23.50      0          0          0          0
B2-L30           23.50      0          0          0          0
B2-W8            24.80      0          0          0          0
CS#4             24.00      0          0          0          0
CS#2             23.70      0          0          0          0
B6-L9            23.00      0          0          0          0
CS#3             23.20      0          0          0          0
B2-L28           23.50      0          0          0          0
CS#7             23.50      0          0          0          0
CS#9             24.50      0          0          0          0
CS#10            25.50      0          0          0          0
B2-L20           24.80      0          0          0          0
B2-L35           23.50      0          0          0          0
from             25.00      0          0          0          0
Offsite-2a       26.00      0          0          0          0
Offsite-6a       22.70      0          0          0          0
CS#8             24.80      0          0          0          0
CS#5             24.00      0          0          0          0
notch            0          0          0          0          0
Notch            0          0          0          0          0
Weir             0          0          0          0          0

[OUTFALLS]
;;Name           Elev       Type       Stage      Gated
;;-------------- ---------- ---------- ---------- -----
B6-L11           24.00      FREE                  NO

[STORAGE]
;;Name           Elev       MaxDepth   InitDepth  Shape      Curve/Params
;;-------------- ---------- ---------- ---------- ---------- ----------
from_2           26.30      10.00      5.50       FUNCTIONAL 43560.00 0          0

[CONDUITS]
;;Name           From             To               Length     Roughness  InOffset   OutOffset  InitFlow   MaxFlow
;;-------------- ---------------- ---------------- ---------- ---------- ---------- ---------- ---------- ----------
207              B6-L4            B6-L5            190.00     0.0130     15.50      15.50      0          0
208              B6-L5            B6-L6            220.00     0.0130     15.50      15.50      0          0
371              CS#4             B6-L6            240.00     0.0130     14.50      14.50      0          0
216              B6-L12           B6-L11           380.00     0.0130     15.00      15.00      0          0
285              B6-L2            B6-L1            500.00     0.0130     14.50      14.50      0          0
375              CS#2             B6-L7            80.00      0.0130     15.70      15.70      0          0
302              B6-L8            B6-L7            390.00     0.0130     14.50      14.50      0          0
230              B6-L17           B6-L19           500.00     0.0130     14.70      14.70      0          0
233              B6-W6            B6-L19           135.00     0.0130     19.70      15.70      0          0
239              B6-L13           B6-L12           400.00     0.0130     15.00      15.00      0          0
244              B2-L29           B2-L28           570.00     0.0130     15.00      15.00      0          0
246              B2-L23           B2-L22           770.00     0.0130     16.00      16.00      0          0
250              B6-L18           B6-L17           930.00     0.0130     14.70      14.70      0          0
409              CS#9             B2-L21           230.00     0.0130     17.00      17.00      0          0
343              B2-L24           B2-L31           500.00     0.0130     14.00      14.00      0          0
327              EX#2             B2-L31           175.00     0.0130     14.00      14.00      0          0
252              B2-L22           B2-L21           440.00     0.0130     16.00      16.00      0          0
405              CS#7             B2-L24           330.00     0.0130     14.00      14.00      0          0
248              B2-L25           B2-L24           460.00     0.0130     15.00      15.00      0          0
416              CS#10            B2-L31           200.00     0.0130     15.00      15.00      0          0
290              B6-L7            B6-L1            1160.00    0.0130     14.50      14.50      0          0
297              B6-L6            B6-L3            360.00     0.0130     14.50      14.50      0          0
301              B6-L19           B6-L16           620.00     0.0130     14.70      14.70      0          0
395              CS#3             B6-L8            320.00     0.0130     14.50      14.50      0          0
232              B6-L14           B6-L8            260.00     0.0130     15.50      15.50      0          0
308              B6-L10           B6-L8            325.00     0.0130     15.50      15.50      0          0
241              CS#6             B2-L26           70.00      0.0130     16.50      16.50      0          0
399              B2-L28           B2-L27           830.00     0.0130     15.00      15.00      0          0
321              B2-L27           B2-L31           430.00     0.0130     14.50      14.50      0          0
328              B2-L34           B2-L31           445.00     0.0130     16.00      16.00      0          0
345              B2-L30           B2-L31           445.00     0.0130     15.00      15.00      0          0
331              B2-L31           ex#1             60.00      0.0120     18.00      18.00      0          0
341              B2-L32           B2-L31           420.00     0.0130     16.00      16.00      0          0
447              CS#8             B2-L21           475.00     0.0130     17.00      17.00      0          0
296              B6-L3            B6-L2            230.00     0.0130     14.50      14.50      0          0
381.1            B6-L9            B6-L2            155.00     0.0130     14.50      14.50      0          0
451              CS#5             B2-L28           115.00     0.0130     16.00      16.00      0          0
250_2            B6-L18           B2-L29           100.00     0.0130     0          0          0          0
425              B6-L16           B2-L21           100.00     0.0130     0          0          0          0
428              B2-L35           B2-L31           50.00      0.0130     16.00      16.00      0          0
rcp              from             B2-L33           100.00     0.0120     16.00      16.00      0          0

[WEIRS]
;;Name           From             To               Type       CrestHt    Qcoeff     Gated    EndCon   EndCoeff   Surcharge
;;-------------- ---------------- ---------------- ---------- ---------- ---------- -------- -------- ---------- ----------
weir             notch            Offsite-6b       TRANSVERSE 19.80      1.840      NO       0        0          YES
Weir_2           Notch            Offsite-2b       TRANSVERSE 20.35      1.840      NO       0        0          YES
319              B2-W9            CS#6             TRANSVERSE 21.30      1.840      NO       0        0          YES
Notch            Weir             CS#4             TRANSVERSE 20.25      1.840      NO       0        0          YES
226              B6-W3            CS#2             TRANSVERSE 19.70      1.840      NO       0        0          YES
Weir_3           Notch            CS#3             TRANSVERSE 20.60      1.840      NO       0        0          YES
Weir_4           Notch            CS#7             TRANSVERSE 21.60      1.840      NO       0        0          YES
253              B2-W10           CS#9             TRANSVERSE 22.30      1.840      NO       0        0          YES
270              B2-L33           CS#10            TRANSVERSE 21.50      1.840      NO       0        0          YES
432              from             EX#2             TRANSVERSE 21.00      1.840      NO       0        0          YES
Weir_5           Notch            Offsite-2a       TRANSVERSE 20.35      1.840      NO       0        0          YES
weir_6           notch            Offsite-6a       TRANSVERSE 19.30      1.840      NO       0        0          YES
Weir_7           B2-W8            CS#8             TRANSVERSE 21.30      1.840      NO       0        0          YES
Weir_8           Notch            CS#5             TRANSVERSE 22.00      1.840      NO       0        0          YES

[XSECTIONS]
;;Link           Shape        Geom1      Geom2      Geom3      Geom4      Barrels
;;-------------- ------------ ---------- ---------- ---------- ---------- ----------
207              CIRCULAR     2.00       2.00       0          0          1
208              CIRCULAR     2.00       2.00       0          0          1
371              CIRCULAR     3.00       2.00       0          0          1
216              CIRCULAR     3.00       2.00       0          0          1
285              CIRCULAR     3.00       10.00      0          0          1
375              CIRCULAR     2.00       2.00       0          0          1
302              CIRCULAR     3.00       2.00       0          0          1
230              CIRCULAR     3.00       4.00       0          0          1
233              CIRCULAR     1.50       2.00       0          0          1
239              CIRCULAR     3.00       2.00       0          0          1
244              CIRCULAR     3.00       2.00       0          0          1
246              CIRCULAR     3.00       2.00       0          0          1
250              CIRCULAR     3.00       2.00       0          0          1
409              CIRCULAR     2.00       2.00       0          0          1
343              CIRCULAR     4.00       2.00       0          0          1
327              CIRCULAR     4.00       2.00       0          0          1
252              CIRCULAR     3.00       2.00       0          0          1
405              CIRCULAR     4.00       2.00       0          0          1
248              CIRCULAR     3.00       2.00       0          0          1
416              RECT_CLOSED  3.00       6.00       0          0          2
290              CIRCULAR     3.00       10.00      0          0          1
297              CIRCULAR     3.00       2.00       0          0          1
301              CIRCULAR     3.00       2.00       0          0          1
395              CIRCULAR     3.00       2.00       0          0          1
232              CIRCULAR     2.00       2.00       0          0          1
308              CIRCULAR     2.00       2.00       0          0          1
241              CIRCULAR     2.00       2.00       0          0          1
399              CIRCULAR     3.00       2.00       0          0          1
321              CIRCULAR     3.50       2.00       0          0          1
328              CIRCULAR     2.00       2.00       0          0          1
345              CIRCULAR     3.00       2.00       0          0          1
331              HORSESHOE    3.00       24.00      0          0          2
341              CIRCULAR     2.00       2.00       0          0          1
447              CIRCULAR     2.00       2.00       0          0          1
296              CIRCULAR     3.00       2.00       0          0          1
381.1            CIRCULAR     3.00       4.00       0          0          1
451              CIRCULAR     2.00       2.00       0          0          1
250_2            CIRCULAR     1.00       0          0          0          1
425              CIRCULAR     1.00       0          0          0          1
428              CIRCULAR     2.00       0          0          0          1
rcp              CIRCULAR     4.00       0          0          0          1
weir             RECT_OPEN    1.00       3.00       0          0
Weir_2           RECT_OPEN    1.00       25.00      0          0
319              RECT_OPEN    1.00       2.00       0          0
Notch            RECT_OPEN    1.00       2.00       0          0
226              RECT_OPEN    1.00       1.50       0          0
Weir_3           RECT_OPEN    1.00       2.00       0          0
Weir_4           RECT_OPEN    1.00       2.00       0          0
253              RECT_OPEN    1.00       2.50       0          0
270              RECT_OPEN    1.00       6.00       0          0
432              RECT_OPEN    1.00       20.00      0          0
Weir_5           RECT_OPEN    1.00       25.00      0          0
weir_6           RECT_OPEN    1.00       2.00       0          0
Weir_7           RECT_OPEN    1.00       2.50       0          0
Weir_8           RECT_OPEN    1.00       2.00       0          0

[LOSSES]
;;Link           Inlet      Outlet     Average    Flap Gate
;;-------------- ---------- ---------- ---------- ----------
207              0          0          0          NO
208              0          0          0          NO
371              0          0          0          NO
216              0          0          0          NO
285              0          0          0          NO
375              0          0          0          NO
302              0          0          0          NO
230              0          0          0          NO
233              0          0          0          NO
239              0          0          0          NO
244              0          0          0          NO
246              0          0          0          NO
250              0          0          0          NO
409              0          0          0          NO
343              0          0          0          NO
327              0          0          0          NO
252              0          0          0          NO
405              0          0          0          NO
248              0          0          0          NO
416              0          0          0          NO
290              0          0          0          NO
297              0          0          0          NO
301              0          0          0          NO
395              0          0          0          NO
232              0          0          0          NO
308              0          0          0          NO
241              0          0          0          NO
399              0          0          0          NO
321              0          0          0          NO
328              0          0          0          NO
345              0          0          0          NO
331              0          0          0          NO
341              0          0          0          NO
447              0          0          0          NO
296              0          0          0          NO
381.1            0          0          0          NO
451              0          0          0          NO
250_2            0          0          0          NO
425              0          0          0          NO
428              0          0          0          NO
rcp              0          0          0          NO

[COORDINATES]
;;Node           X-Coord            Y-Coord
;;-------------- ------------------ ------------------
B6-L4            -826180.47         573258.57         
B6-L5            -825947.25         573278.51         
B6-L11           -825245.75         572648.88         
B6-L12           -824935.00         572838.15         
B6-L1            -826601.84         569827.10         
Offsite-6b       -826749.94         569423.84         
B6-W3            -825047.43         570005.69         
B6-L16           -824074.90         570180.96         
B6-L17           -822646.48         569926.43         
B6-L14           -824267.53         571630.71         
B6-W6            -823390.46         571090.51         
B6-L13           -824024.27         572530.42         
CS#6             -820825.57         571080.24         
B2-L29           -821604.32         570644.47         
B2-L23           -822522.38         574687.54         
B2-L25           -819559.16         572436.49         
B6-L18           -822738.41         570810.21         
B2-L22           -821720.87         574316.57         
B2-W10           -820666.72         574735.95         
B2-L21           -821369.95         573994.16         
B2-L33           -817655.94         572855.53         
Offsite-2b       -818645.99         570215.11         
B6-L2            -826714.87         571985.59         
B6-L7            -825134.91         570341.92         
B6-L3            -826080.74         571885.71         
B6-L6            -825708.59         572488.10         
B6-L19           -823549.50         570043.38         
B6-L8            -824608.34         571493.81         
B6-L10           -824713.81         571906.79         
B2-L26           -820730.62         570951.01         
B2-W9            -821119.70         571246.84         
B2-L27           -819883.38         570883.94         
ex#1             -819158.64         570895.43         
EX#2             -817225.12         574494.52         
B2-L34           -818632.03         574662.94         
B2-L31           -818030.66         573380.98         
B2-L32           -817676.20         571220.64         
B2-L24           -819664.51         573159.14         
B2-L30           -819509.91         575347.66         
B2-W8            -821302.51         573007.46         
CS#4             -825337.92         572649.83         
CS#2             -825066.11         569802.19         
B6-L9            -826416.54         570981.25         
CS#3             -824336.21         570601.38         
B2-L28           -820735.78         570640.76         
CS#7             -820573.61         573534.28         
CS#9             -820907.20         574467.82         
CS#10            -817879.97         573055.11         
B2-L20           -821600.37         572757.22         
B2-L35           -818776.82         571833.77         
from             -817232.09         575341.26         
from_2           -817391.74         572676.57         
Offsite-2a       -818733.82         570181.48         
Offsite-6a       -826641.45         569406.89         
CS#8             -821444.50         573532.89         
CS#5             -820732.88         570829.60         

[MAP]
DIMENSIONS -826749.94 569406.89 -817225.12 575347.66
Units      None

[REPORT]
SUBCATCHMENTS ALL
NODES ALL
LINKS ALL
