;; SWMM5 .inp converted from XPSWMM .xp file
;; Generated by XPSWMM Card Reader
;; Source format: XP_CARD | Original title: FALL RIVER - CDM Proposed Tunnel, modified from fr53a33%.dat
;; Links parsed from source: 330 | Routable in this .inp: 330

[TITLE]
;;Project Title/Notes
FALL RIVER - CDM Proposed Tunnel, modified from fr53a33%.dat

[OPTIONS]
FLOW_UNITS           CFS
INFILTRATION         HORTON
FLOW_ROUTING         DYNWAVE
LINK_OFFSETS         DEPTH
MIN_SLOPE            0.0
ALLOW_PONDING        NO
SKIP_STEADY_STATE    NO
ROUTING_STEP         00:00:10
VARIABLE_STEP        0.75
INERTIAL_DAMPING     PARTIAL
NORMAL_FLOW_LIMITED  BOTH
MAX_TRIALS           25
HEAD_TOLERANCE       0.0033
START_DATE           01/01/2001
START_TIME           00:00:00
REPORT_START_DATE    01/01/2001
REPORT_START_TIME    00:00:00
END_DATE             01/02/2001
END_TIME             00:00:00
SWEEP_START          01/01
SWEEP_END            12/31
DRY_DAYS             0
REPORT_STEP          00:15:00
WET_STEP             00:05:00
DRY_STEP             01:00:00

[JUNCTIONS]
;;Name           Elev       MaxDepth   InitDepth  SurDepth   Aponded
;;-------------- ---------- ---------- ---------- ---------- ----------
301              24.05      0          0          0          0
132              22.18      0          0          0          0
101              55.50      0          0          0          0
204              27.26      0          0          0          0
611              20.09      0          0          0          0
706              20.00      0          0          0          0
104              74.00      0          0          0          0
403              7.00       0          0          0          0
303              24.44      0          0          0          0
103              54.30      0          0          0          0
133              25.20      0          0          0          0
402              6.00       0          0          0          0
302              17.10      0          0          0          0
704              17.00      0          0          0          0
608              20.06      0          0          0          0
610              42.00      0          0          0          0
404              22.00      0          0          0          0
inlet-I&Q        129.28     0          0          0          0
907              129.48     0          0          0          0
624              131.48     0          0          0          0
315              131.31     0          0          0          0
906              130.88     0          0          0          0
621              130.38     0          0          0          0
inlet-G2         163.20     0          0          0          0
314              136.80     0          0          0          0
214              153.00     0          0          0          0
inlet-G1         175.00     0          0          0          0
313              134.80     0          0          0          0
213              144.40     0          0          0          0
G2sanitary       158.60     0          0          0          0
inlet-K1&3       149.00     0          0          0          0
415              139.58     0          0          0          0
903              143.00     0          0          0          0
901              144.00     0          0          0          0
inlet-K2         170.60     0          0          0          0
902              150.00     0          0          0          0
215              152.60     0          0          0          0
inlet-J1         151.80     0          0          0          0
420              135.40     0          0          0          0
417              136.70     0          0          0          0
217              141.77     0          0          0          0
317              135.56     0          0          0          0
418              138.33     0          0          0          0
218              141.60     0          0          0          0
318              138.33     0          0          0          0
419              142.00     0          0          0          0
219              144.21     0          0          0          0
319              143.75     0          0          0          0
inlet-J3         173.50     0          0          0          0
inlet-J2         178.40     0          0          0          0
inlet-Z          134.90     0          0          0          0
216              140.00     0          0          0          0
416              138.60     0          0          0          0
316              137.75     0          0          0          0
626              136.40     0          0          0          0
309              5.59       0          0          0          0
209              5.70       0          0          0          0
109              9.00       0          0          0          0
615              62.91      0          0          0          0
616              33.31      0          0          0          0
618              40.73      0          0          0          0
307              10.37      0          0          0          0
604              3.77       0          0          0          0
702              1.45       0          0          0          0
207              39.90      0          0          0          0
211              92.10      0          0          0          0
inlet-cent       108.00     0          0          0          0
112              85.00      0          0          0          0
633              129.99     0          0          0          0
627              126.08     0          0          0          0
628              134.00     0          0          0          0
629              157.37     0          0          0          0
630              133.30     0          0          0          0
inlet-H          154.00     0          0          0          0
620              132.18     0          0          0          0
120              31.92      0          0          0          0
601              38.50      0          0          0          0
110              19.50      0          0          0          0
310              16.88      0          0          0          0
210              16.60      0          0          0          0
410              5.00       0          0          0          0
308              10.80      0          0          0          0
208              10.50      0          0          0          0
409              12.51      0          0          0          0
782              10.00      0          0          0          0
108              27.50      0          0          0          0
131              8.32       0          0          0          0
126              19.68      0          0          0          0
125              3.00       0          0          0          0
127              11.01      0          0          0          0
106              54.77      0          0          0          0
406              3.75       0          0          0          0
473              9.12       0          0          0          0
476              7.63       0          0          0          0
478              11.94      0          0          0          0
481              21.12      0          0          0          0
483              21.99      0          0          0          0
486              35.00      0          0          0          0
488              22.07      0          0          0          0
493              8.01       0          0          0          0
495              14.79      0          0          0          0
497              11.64      0          0          0          0
499n             17.05      0          0          0          0
501n             24.99      0          0          0          0
503n             23.00      0          0          0          0
505n             27.82      0          0          0          0
507n             24.60      0          0          0          0
511n             39.30      0          0          0          0
513n             28.00      0          0          0          0
515n             31.27      0          0          0          0
517n             21.85      0          0          0          0
520n             21.17      0          0          0          0
522n             24.20      0          0          0          0
525n             18.15      0          0          0          0
527n             21.40      0          0          0          0
529n             29.48      0          0          0          0
536n             120.70     0          0          0          0
539n             131.28     0          0          0          0
544n             133.78     0          0          0          0
546n             127.56     0          0          0          0
548n             130.28     0          0          0          0
550n             131.18     0          0          0          0
553n             126.46     0          0          0          0
568n             130.28     0          0          0          0
571n             135.00     0          0          0          0
573n             135.00     0          0          0          0
575n             134.90     0          0          0          0
578n             143.20     0          0          0          0
611w             20.09      0          0          0          0
608w             20.06      0          0          0          0
604w             5.10       0          0          0          0
208w             10.50      0          0          0          0
210w             16.60      0          0          0          0
612n             160.63     0          0          0          0
615n             143.00     0          0          0          0
617n             138.50     0          0          0          0
623n             145.50     0          0          0          0
415a             137.41     0          0          0          0
415c             139.00     0          0          0          0
643n             9.30       0          0          0          0
647n             11.50      0          0          0          0
649n             8.70       0          0          0          0
656n             132.00     0          0          0          0
658n             131.50     0          0          0          0
660n             130.00     0          0          0          0
665n             106.00     0          0          0          0
674n             106.50     0          0          0          0
681n             102.00     0          0          0          0
682n             66.00      0          0          0          0
685n             93.00      0          0          0          0
688n             117.00     0          0          0          0
700n             90.00      0          0          0          0
702n             33.16      0          0          0          0
703n             26.00      0          0          0          0
707n             8.00       0          0          0          0
716n             43.50      0          0          0          0
718n             26.00      0          0          0          0
730n             15.50      0          0          0          0
743n             60.55      0          0          0          0
745n             35.22      0          0          0          0
749n             86.50      0          0          0          0
751n             62.30      0          0          0          0
753n             140.00     0          0          0          0
754n             72.00      0          0          0          0
756n             27.00      0          0          0          0
759n             74.00      0          0          0          0
761n             32.63      0          0          0          0
inlet-mthp       114.00     0          0          0          0
inlet-wood       118.00     0          0          0          0
inlet-birc       136.00     0          0          0          0
inlet-glob       115.00     0          0          0          0
771n             136.00     0          0          0          0
773n             100.00     0          0          0          0
775n             68.93      0          0          0          0
inlet-stew       137.00     0          0          0          0
780n             45.75      0          0          0          0
782n             57.00      0          0          0          0
inlet-herm       96.00      0          0          0          0
792n             102.00     0          0          0          0
794n             85.00      0          0          0          0
796n             50.50      0          0          0          0
inlet-clmb       108.00     0          0          0          0
801n             40.29      0          0          0          0
803n             38.82      0          0          0          0
805N             72.02      0          0          0          0
807n             133.00     0          0          0          0
inlet-nmai       169.92     0          0          0          0
TN5              150.00     0          0          0          0
TN10             150.00     0          0          0          0
TN20             150.00     0          0          0          0
TN15             150.00     0          0          0          0
TN25             150.00     0          0          0          0
TN45             150.00     0          0          0          0
TN35             150.00     0          0          0          0
TN70             150.00     0          0          0          0
TN65             150.00     0          0          0          0
TN60             150.00     0          0          0          0
TN55             150.00     0          0          0          0
TN50             150.00     0          0          0          0
inlet-midd       148.40     0          0          0          0
1000N            144.20     0          0          0          0
TN90             150.00     0          0          0          0
TN85             150.00     0          0          0          0
TN80             150.00     0          0          0          0
TN75             150.00     0          0          0          0
873N             33.00      0          0          0          0
874N             24.50      0          0          0          0
TN105            150.00     0          0          0          0
885N             105.00     0          0          0          0
inlet-elm        114.00     0          0          0          0
TN110            150.00     0          0          0          0
TN130            150.00     0          0          0          0
TN125            150.00     0          0          0          0
TN120            150.00     0          0          0          0
TN115            150.00     0          0          0          0
TN150            150.00     0          0          0          0
TN145            150.00     0          0          0          0
TN140            150.00     0          0          0          0
TN135            150.00     0          0          0          0
TN155            150.00     0          0          0          0
inlet-pres       113.00     0          0          0          0
TN170            200.00     0          0          0          0
TN165            200.00     0          0          0          0
TN190            200.00     0          0          0          0
TN180            200.00     0          0          0          0
inlet-lang       152.79     0          0          0          0
LANG-DS          90.15      0          0          0          0
inlet-jone       144.23     0          0          0          0
DS-JONES         96.56      0          0          0          0
TN210            200.00     0          0          0          0
TN205            200.00     0          0          0          0
TN200            200.00     0          0          0          0
TN195            200.00     0          0          0          0
TN250            200.00     0          0          0          0
TN240            200.00     0          0          0          0
TN230            200.00     0          0          0          0
TN220            200.00     0          0          0          0
TN305            200.00     0          0          0          0
TN300            200.00     0          0          0          0
TN310            200.00     0          0          0          0
TN320            200.00     0          0          0          0
TN325            200.00     0          0          0          0
TN335            200.00     0          0          0          0
TN360            200.00     0          0          0          0
TN355            200.00     0          0          0          0
TN350            200.00     0          0          0          0
TN345            200.00     0          0          0          0
TN340            200.00     0          0          0          0
1030n            140.00     0          0          0          0
1032             134.00     0          0          0          0
1034N            134.00     0          0          0          0
1036N            134.00     0          0          0          0
1046             27.22      0          0          0          0
1048             135.00     0          0          0          0
1055             136.44     0          0          0          0
1069             141.37     0          0          0          0
1102n            124.80     0          0          0          0
1104             105.70     0          0          0          0
203w             36.20      0          0          0          0
206w             30.61      0          0          0          0
128hb            26.18      0          0          0          0
102n             66.40      0          0          0          0
1125             134.50     0          0          0          0
1135             135.00     0          0          0          0
1139n            22.00      0          0          0          0
788n             92.10      0          0          0          0
790n             34.41      0          0          0          0
407              34.00      0          0          0          0
1156             10.00      0          0          0          0
HW_1115556       2.60       0          0          0          0
HW_104837        123.58     0          0          0          0
HW_11109         14.04      0          0          0          0
HW_111215        20.61      0          0          0          0
HW_473           -6.04      0          0          0          0
HW_476           -5.30      0          0          0          0
HW_478           -4.11      0          0          0          0
HW_279           -3.37      0          0          0          0
HW_481           -1.93      0          0          0          0
HW_483           -0.31      0          0          0          0
HW_313           -0.35      0          0          0          0
HW_311           18.60      0          0          0          0
HW_486           14.96      0          0          0          0
HW_488           10.70      0          0          0          0
HW_495           -4.43      0          0          0          0
HW_497           -3.20      0          0          0          0
HW_499           -2.25      0          0          0          0
HW_501           0.39       0          0          0          0
HW_503           1.63       0          0          0          0
HW_226           11.25      0          0          0          0
HW_505           10.90      0          0          0          0
HW_507           10.48      0          0          0          0
HW_215           9.90       0          0          0          0
HW_511           9.61       0          0          0          0
HW_513           9.25       0          0          0          0
HW_515           8.88       0          0          0          0
HW_517           8.46       0          0          0          0
HW_218           8.29       0          0          0          0
HW_520           8.07       0          0          0          0
HW_522           7.83       0          0          0          0
HW_212           7.12       0          0          0          0
HW_525           6.75       0          0          0          0
HW_527           6.52       0          0          0          0
HW_529           6.27       0          0          0          0
HW_536           109.96     0          0          0          0
HW_539           113.93     0          0          0          0
HW_544           114.58     0          0          0          0
HW_546           116.14     0          0          0          0
HW_548           115.63     0          0          0          0
HW_550           115.15     0          0          0          0
HW_553           116.95     0          0          0          0
HW_238           119.73     0          0          0          0
HW_568           119.39     0          0          0          0
HW_240           124.83     0          0          0          0
HW_571           124.28     0          0          0          0
HW_573           123.69     0          0          0          0
HW_575           123.12     0          0          0          0
HW_258           129.25     0          0          0          0
HW_578           128.93     0          0          0          0
HW_600           -5.00      0          0          0          0
HW_245           135.40     0          0          0          0
HW_246           124.43     0          0          0          0
HW_615           123.61     0          0          0          0
HW_617           123.10     0          0          0          0
HW_259           138.00     0          0          0          0
HW_623           135.80     0          0          0          0
HW_253           132.08     0          0          0          0
HW_1055805       130.40     0          0          0          0
HW_643           -1.39      0          0          0          0
HW_231           7.50       0          0          0          0
HW_647           3.10       0          0          0          0
HW_261           124.45     0          0          0          0
HW_656           123.97     0          0          0          0
HW_658           123.53     0          0          0          0
HW_660           123.35     0          0          0          0
HW_665           96.00      0          0          0          0
HW_674           92.78      0          0          0          0
HW_681           89.17      0          0          0          0
HW_682           52.33      0          0          0          0
HW_685           79.75      0          0          0          0
HW_688           104.50     0          0          0          0
HW_700           81.00      0          0          0          0
HW_702           22.62      0          0          0          0
HW_703           13.84      0          0          0          0
HW_716           31.26      0          0          0          0
HW_718           12.80      0          0          0          0
HW_707           0.63       0          0          0          0
HW_720           -0.29      0          0          0          0
HW_730           3.79       0          0          0          0
HW_296           76.25      0          0          0          0
HW_743           52.50      0          0          0          0
HW_745           27.43      0          0          0          0
HW_749           78.10      0          0          0          0
HW_751           52.95      0          0          0          0
HW_753           137.00     0          0          0          0
HW_754           60.74      0          0          0          0
HW_756           15.00      0          0          0          0
HW_759           60.34      0          0          0          0
HW_761           16.23      0          0          0          0
HW_763           102.46     0          0          0          0
HW_765           106.62     0          0          0          0
HW_767           122.39     0          0          0          0
HW_769           103.00     0          0          0          0
HW_771           122.34     0          0          0          0
HW_773           88.68      0          0          0          0
HW_775           57.46      0          0          0          0
HW_778           124.92     0          0          0          0
HW_780           33.78      0          0          0          0
HW_782           44.41      0          0          0          0
HW_784           83.37      0          0          0          0
HW_792           94.46      0          0          0          0
HW_796           38.80      0          0          0          0
HW_794           77.25      0          0          0          0
HW_799           98.74      0          0          0          0
HW_308           23.76      0          0          0          0
HW_801           22.55      0          0          0          0
HW_805           66.72      0          0          0          0
HW_807           120.80     0          0          0          0
HW_855           134.54     0          0          0          0
HW_856           130.40     0          0          0          0
HW_873           22.60      0          0          0          0
HW_874           15.10      0          0          0          0
HW_295           101.35     0          0          0          0
HW_889           106.48     0          0          0          0
HW_923           100.56     0          0          0          0
HW_943           140.39     0          0          0          0
HW_944           78.20      0          0          0          0
HW_947           104.08     0          0          0          0
HW_949           84.48      0          0          0          0
HW_0301031c      128.69     0          0          0          0
HW_036525        121.21     0          0          0          0
HW_10321035C     121.98     0          0          0          0
HW_10341037C     121.67     0          0          0          0
HW_0461047       16.82      0          0          0          0
HW_69            133.85     0          0          0          0
HW_75            132.75     0          0          0          0
HW_66            133.83     0          0          0          0
HW_09251         133.83     0          0          0          0
HW_250           129.51     0          0          0          0
HW_55            132.79     0          0          0          0
HW_63            132.00     0          0          0          0
HW_1021103c      110.37     0          0          0          0
HW_1041106       89.66      0          0          0          0
HW_09            161.29     0          0          0          0
HW_1174o         46.50      0          0          0          0
HW_29            27.22      0          0          0          0
HW_41            26.69      0          0          0          0
HW_887           101.10     0          0          0          0
HW_612           125.96     0          0          0          0
HW_11351127      124.80     0          0          0          0
HW_11251137      124.83     0          0          0          0
HW_1391140c      11.72      0          0          0          0
HW_14716         86.29      0          0          0          0
HW_114918        25.13      0          0          0          0
HW_201           -2.00      0          0          0          0
HW_TunDischg     14.75      0          0          0          0

[OUTFALLS]
;;Name           Elev       Type       Stage      Gated
;;-------------- ---------- ---------- ---------- -----
401              10.00      FREE                  NO

[STORAGE]
;;Name           Elev       MaxDepth   InitDepth  Shape      Curve/Params
;;-------------- ---------- ---------- ---------- ---------- ----------
500              40.00      10.00      0          FUNCTIONAL 3200.00 0          0
201              22.18      10.00      0          FUNCTIONAL 100.00 0          0
613              23.06      10.00      0          FUNCTIONAL 200.00 0          0
134              27.26      10.00      0          FUNCTIONAL 100.00 0          0
304              31.36      10.00      0          FUNCTIONAL 200.00 0          0
203              36.20      10.00      0          FUNCTIONAL 100.00 0          0
102              65.00      10.00      0          FUNCTIONAL 64.00 0          0
202              48.00      10.00      0          FUNCTIONAL 100.00 0          0
607              24.38      10.00      0          FUNCTIONAL 220.00 0          0
206              30.61      10.00      0          FUNCTIONAL 100.00 0          0
306              30.65      10.00      0          FUNCTIONAL 200.00 0          0
712              13.50      10.00      0          FUNCTIONAL 250.00 0          0
606              21.41      10.00      0          FUNCTIONAL 200.00 0          0
135              21.95      10.05      0          FUNCTIONAL 200.00 0          0
inlet-L3&4       136.74     10.00      0          FUNCTIONAL 400.00 0          0
inlet-J4         150.37     10.00      0          FUNCTIONAL 100.00 0          0
617              26.99      10.00      0          FUNCTIONAL 100.00 0          0
605              22.41      10.00      0          FUNCTIONAL 400.00 0          0
619              110.98     10.00      0          FUNCTIONAL 75.00 0          0
121              7.00       10.00      0          FUNCTIONAL 238.75 0          0
123              6.00       10.00      0          FUNCTIONAL 400.00 0          0
124              4.80       10.00      0          FUNCTIONAL 500.00 0          0
129              33.00      10.00      0          FUNCTIONAL 400.00 0          0
130              26.18      10.00      0          FUNCTIONAL 200.00 0          0
128              26.18      10.00      0          FUNCTIONAL 200.00 0          0
122a             4.80       10.00      0          FUNCTIONAL 100.00 0          0
122c             4.80       10.00      0          FUNCTIONAL 980.00 0          0
720n             8.00       10.00      0          FUNCTIONAL 100.00 0          0
Swift            150.00     10.00      0          FUNCTIONAL 113.89 0          0
MtHope           96.00      10.00      0          FUNCTIONAL 19.63 0          0
BIRCH            124.50     10.00      0          FUNCTIONAL 19.63 0          0
GLOBE            105.00     10.00      0          FUNCTIONAL 19.63 0          0
MIDDLE           145.00     10.00      0          FUNCTIONAL 12.57 0          0
COLUMBIA         92.00      10.00      0          FUNCTIONAL 12.57 0          0
SPRING           123.00     10.00      0          FUNCTIONAL 50.27 0          0
CENTRAL          107.80     10.00      0          FUNCTIONAL 19.64 0          0
ELM              100.00     10.00      0          FUNCTIONAL 19.63 0          0
NMAIN            82.00      10.00      0          FUNCTIONAL 19.63 0          0
PRESIDENT        103.20     10.00      0          FUNCTIONAL 12.57 0          0
STEWART          106.00     10.00      0          FUNCTIONAL 12.57 0          0
JONES            120.00     10.00      0          FUNCTIONAL 12.57 0          0
LANGLEY          137.50     10.00      0          FUNCTIONAL 12.57 0          0
HERMAN           86.00      10.00      0          FUNCTIONAL 12.57 0          0
HIGHLAND         157.00     10.00      0          FUNCTIONAL 490.87 0          0
THIRD            128.00     10.00      0          FUNCTIONAL 12.57 0          0
PLEASANT         132.00     10.00      0          FUNCTIONAL 12.57 0          0
PLY-N            135.00     10.00      0          FUNCTIONAL 19.63 0          0
LOWELL           135.00     10.00      0          FUNCTIONAL 12.57 0          0
QUEQUECHAN       142.00     10.00      0          FUNCTIONAL 19.63 0          0
121ps            7.00       10.00      0          FUNCTIONAL 200.00 0          0

[CONDUITS]
;;Name           From             To               Length     Roughness  InOffset   OutOffset  InitFlow   MaxFlow
;;-------------- ---------------- ---------------- ---------- ---------- ---------- ---------- ---------- ----------
289              307              605              660.00     0.0080     0          0          0          0
290              511n             307              173.00     0.0150     0          0          0          0
316              513n             309              571.00     0.0150     0          0          0          0
314              210              310              22.00      0.0150     1.75       0.37       0          0
312              110              210              697.00     0.0150     8.80       2.58       0          0
885              885N             211              218.00     0.0140     99.00      86.30      0          0
293              207              307              358.00     0.0150     24.80      5.52       0          0
294              211              112              419.05     0.0150     86.30      76.25      0          0
281              109              209              190.00     0.0150     0.78       0          0          0
280              209              309              10.00      0.0150     0          0          0          0
320              108              208              600.00     0.0150     8.00       1.24       0          0
317              208              308              10.00      0.0150     1.24       0          0          0
318              409              782              638.46     0.0140     0          0          0          0
803              550n             601              374.20     0.0150     22.40      18.60      0          0
323              553n             125              325.00     0.0150     0          0          0          0
322              126              495              335.90     0.0150     0          0          0          0
328              127              499n             536.30     0.0150     0          0          0          0
1115556          HW_1115556       503n             388.00     0.0150     2.60       1.63       0          0
325              129              128              1100.00    0.0150     9.21       2.80       0          0
326              130              131              1234.00    0.0150     2.80       0          0          0
251              G2sanitary       213              509.00     0.0120     132.80     129.51     0          0
104837           HW_104837        LOWELL           1095.42    0.0150     123.58     123.00     0          0
249              313              314              894.00     0.0140     125.30     124.43     0          0
247              214              1030n            175.00     0.0150     141.85     128.69     0          0
248              inlet-G1         214              202.00     0.0150     167.63     143.17     0          0
304              inlet-H          630              480.00     0.0140     138.67     122.50     0          0
303              630              628              464.00     0.0150     122.50     120.48     0          0
302              536n             628              425.00     0.0140     148.07     118.86     0          0
301              628              THIRD            373.00     0.0140     118.86     115.24     0          0
299              627              633              422.00     0.0150     115.28     110.30     0          0
298              633              619              26.00      0.0140     110.30     106.87     0          0
256              inlet-K2         215              831.47     0.0150     159.64     139.00     0          0
241              527n             624              82.77      0.0150     124.93     124.84     0          0
274              inlet-Z          1032             571.00     0.0150     122.54     121.98     0          0
278              529n             inlet-Z          518.17     0.0150     125.65     123.02     0          0
243              621              546n             766.00     0.0150     116.75     116.14     0          0
305              522n             1102n            520.00     0.0150     111.12     110.37     0          0
242              inlet-nmai       621              282.00     0.0100     123.35     121.68     0          0
257              inlet-L3&4       315              465.67     0.0150     126.32     124.93     0          0
252              inlet-K1&3       901              717.57     0.0150     134.14     132.79     0          0
273              inlet-J4         219              241.60     0.0150     138.42     133.85     0          0
269              219              319              18.73      0.0150     133.85     133.28     0          0
268              419              418              137.00     0.0150     131.17     128.18     0          0
270              319              318              244.75     0.0150     133.28     129.26     0          0
271              inlet-J3         218              661.00     0.0150     163.64     133.83     0          0
265              418              417              243.78     0.0100     128.18     126.37     0          0
267              318              317              237.38     0.0140     129.26     127.86     0          0
239              907              553n             752.00     0.0150     117.40     116.95     0          0
272              inlet-J2         217              699.39     0.0150     168.27     132.00     0          0
263              217              317              680.00     0.0150     132.00     127.86     0          0
262              417              420              233.76     0.0100     126.37     124.45     0          0
264              317              626              487.00     0.0150     127.86     125.50     0          0
260              inlet-J1         216              646.00     0.0150     139.53     132.75     0          0
275              216              316              351.00     0.0120     132.75     128.39     0          0
276              416              420              396.33     0.0120     128.86     124.45     0          0
277              316              626              175.00     0.0140     128.39     125.50     0          0
297              619              805N             640.00     0.0150     104.38     66.72      0          0
232              606              306              328.00     0.0150     12.58      12.26      0          0
230              306              607              915.00     0.0150     12.26      11.73      0          0
228              507n             608              570.00     0.0150     11.77      11.25      0          0
224              503n             611              630.00     0.0150     7.44       7.12       0          0
205              501n             500              890.00     0.0150     6.00       5.00       0          0
206              201              301              160.00     0.0150     11.10      9.50       0          0
208              101              201              974.20     0.0150     39.66      12.10      0          0
221              202              1139n            594.00     0.0150     40.90      11.72      0          0
207              132              401              523.11     0.0150     12.10      0          0          0
222              133              402              288.52     0.0150     14.42      0          0          0
216              203              303              100.00     0.0150     12.04      11.79      0          0
219              103              203              694.00     0.0150     45.90      14.04      0          0
11109            HW_11109         403              158.00     0.0150     14.04      0          0          0
211              204              304              20.00      0.0150     15.01      13.54      0          0
214              104              204              558.00     0.0150     63.00      16.81      0          0
210              134              404              558.78     0.0150     16.26      6.00       0          0
227              610              873N             287.32     0.0150     32.03      22.60      0          0
229              206              306              13.00      0.0150     19.36      18.26      0          0
329              106              206              825.00     0.0150     45.27      20.61      0          0
111215           HW_111215        712              386.00     0.0150     20.61      7.50       0          0
209              517n             606              201.10     0.0150     15.05      14.50      0          0
283              616              761n             847.00     0.0200     20.00      16.23      0          0
282              615              761n             618.40     0.0140     54.89      16.23      0          0
233              135              712              591.00     0.0150     15.30      7.50       0          0
220              102              202              237.00     0.0130     45.70      40.90      0          0
287              520n             617              625.90     0.0150     35.62      20.99      0          0
284              617              616              282.00     0.0150     20.99      20.00      0          0
473              HW_473           473              371.80     0.0150     0          0          0          0
476              HW_476           476              640.00     0.0150     0          0          0          0
478              HW_478           478              771.14     0.0150     0          0          0          0
279              HW_279           309              726.30     0.0150     0          0          0          0
481              HW_481           481              628.90     0.0150     0          0          0          0
483              HW_483           483              766.11     0.0150     0          0          0          0
313              HW_313           310              381.37     0.0150     0          0          0          0
311              HW_311           601              822.00     0.0150     18.60      14.96      0          0
486              HW_486           486              964.00     0.0150     14.96      10.70      0          0
488              HW_488           488              373.37     0.0150     10.70      0          0          0
495              HW_495           495              663.10     0.0150     0          0          0          0
497              HW_497           497              547.75     0.0150     0          0          0          0
499              HW_499           499n             504.40     0.0150     0          0          0          0
501              HW_501           501n             541.65     0.0150     0.39       0          0          0
503              HW_503           503n             649.65     0.0140     1.63       0.39       0          0
226              HW_226           608              537.80     0.0150     11.25      10.90      0          0
505              HW_505           505n             827.80     0.0150     10.90      10.48      0          0
507              HW_507           507n             321.40     0.0150     10.48      9.90       0          0
215              HW_215           304              771.25     0.0150     9.90       9.61       0          0
511              HW_511           511n             845.75     0.0150     9.61       9.25       0          0
513              HW_513           513n             843.50     0.0150     9.25       8.88       0          0
515              HW_515           515n             644.70     0.0150     8.88       8.46       0          0
517              HW_517           517n             456.00     0.0150     8.46       8.29       0          0
218              HW_218           303              446.10     0.0150     8.29       8.07       0          0
520              HW_520           520n             495.50     0.0150     8.07       7.83       0          0
522              HW_522           522n             837.70     0.0150     7.83       7.44       0          0
212              HW_212           611              655.20     0.0150     7.12       6.75       0          0
525              HW_525           525n             493.70     0.0150     6.75       6.52       0          0
527              HW_527           527n             502.30     0.0150     6.52       6.27       0          0
529              HW_529           529n             531.16     0.0150     6.27       6.00       0          0
536              HW_536           536n             257.00     0.0150     109.96     104.38     0          0
539              HW_539           539n             696.00     0.0150     113.93     111.12     0          0
544              HW_544           544n             802.00     0.0150     114.58     113.93     0          0
546              HW_546           546n             632.00     0.0150     116.14     115.63     0          0
548              HW_548           548n             586.00     0.0150     115.63     115.15     0          0
550              HW_550           550n             586.00     0.0150     115.15     114.41     0          0
553              HW_553           553n             334.00     0.0150     116.95     116.75     0          0
238              HW_238           inlet-I&Q        562.00     0.0140     119.73     119.39     0          0
568              HW_568           568n             885.00     0.0140     119.39     117.40     0          0
240              HW_240           624              547.18     0.0140     124.83     124.28     0          0
571              HW_571           571n             587.47     0.0140     124.28     123.69     0          0
573              HW_573           573n             569.39     0.0140     123.69     123.12     0          0
575              HW_575           575n             594.08     0.0140     123.12     122.54     0          0
258              HW_258           902              515.00     0.0150     129.25     128.93     0          0
578              HW_578           578n             737.53     0.0150     128.93     124.93     0          0
581              611w             706              95.00      0.0150     4.45       3.50       0          0
584              703n             704              25.00      0.0150     11.25      11.00      0          0
587              604w             702              10.32      0.0150     0          0          0          0
593              208w             409              600.00     0.0150     2.07       0          0          0
310              123              122c             659.00     0.0150     0          0          0          0
600              HW_600           122c             25.00      0.0130     0          0          0          0
493              493              122a             508.40     0.0150     0          0          0          0
599              122a             121              25.00      0.0130     0          0          0          0
245              HW_245           inlet-G2         685.00     0.0140     135.40     125.96     0          0
246              HW_246           314              410.00     0.0140     124.43     123.61     0          0
615              HW_615           615n             540.54     0.0140     123.61     123.10     0          0
617              HW_617           617n             397.60     0.0140     123.10     122.50     0          0
259              HW_259           215              648.32     0.0140     138.00     135.80     0          0
623              HW_623           623n             556.60     0.0140     135.80     135.02     0          0
240_2            624              906              821.00     0.0150     125.03     123.35     0          0
254              803n             415a             233.05     0.0140     135.02     131.58     0          0
629              415a             415c             15.00      0.0140     131.58     131.29     0          0
253              HW_253           415              15.00      0.0140     132.08     131.98     0          0
1055805          HW_1055805       QUEQUECHAN       274.25     0.0140     130.40     126.75     0          0
596              210w             643n             460.00     0.0150     2.57       0          0          0
643              HW_643           643n             580.00     0.0150     0          0          0          0
231              HW_231           712              273.00     0.0150     7.50       3.10       0          0
649              649n             406              478.00     0.0150     1.06       0          0          0
647              HW_647           647n             340.00     0.0150     3.10       1.06       0          0
261              HW_261           420              504.00     0.0140     124.45     123.97     0          0
656              HW_656           656n             521.80     0.0140     123.97     123.53     0          0
658              HW_658           658n             579.18     0.0140     123.53     123.35     0          0
660              HW_660           660n             50.00      0.0140     123.35     123.27     0          0
665              HW_665           665n             1018.00    0.0140     96.00      45.90      0          0
674              HW_674           674n             421.90     0.0140     92.78      46.70      0          0
681              HW_681           681n             543.16     0.0140     89.17      52.33      0          0
682              HW_682           682n             593.53     0.0140     52.33      39.66      0          0
685              HW_685           685n             655.29     0.0140     79.75      39.66      0          0
688              HW_688           688n             530.62     0.0140     104.50     63.00      0          0
700              HW_700           700n             590.00     0.0140     81.00      45.27      0          0
702              HW_702           702n             416.00     0.0140     22.62      13.84      0          0
703              HW_703           703n             422.00     0.0140     13.84      3.79       0          0
716              HW_716           716n             393.88     0.0140     31.26      0.63       0          0
718              HW_718           718n             950.00     0.0140     12.80      0          0          0
707              HW_707           707n             167.00     0.0140     0.63       0          0          0
720              HW_720           720n             409.00     0.0140     0          0          0          0
730              HW_730           730n             634.00     0.0140     3.79       0.63       0          0
296              HW_296           112              1015.00    0.0140     76.25      52.50      0          0
743              HW_743           743n             597.00     0.0140     52.50      27.43      0          0
745              HW_745           745n             640.00     0.0140     27.43      0.78       0          0
749              HW_749           749n             1000.00    0.0140     78.10      8.00       0          0
751              HW_751           751n             1080.00    0.0140     52.95      8.80       0          0
753              HW_753           753n             710.00     0.0140     137.00     60.74      0          0
754              HW_754           754n             970.00     0.0140     60.74      15.00      0          0
756              HW_756           756n             670.00     0.0140     15.00      10.70      0          0
759              HW_759           759n             550.00     0.0140     60.34      2.60       0          0
761              HW_761           761n             143.00     0.0140     16.23      15.05      0          0
763              HW_763           inlet-mthp       200.00     0.0140     102.46     86.33      0          0
765              HW_765           inlet-wood       300.00     0.0140     106.62     90.66      0          0
767              HW_767           inlet-birc       819.00     0.0140     122.39     111.15     0          0
769              HW_769           inlet-glob       302.00     0.0140     103.00     92.60      0          0
771              HW_771           771n             290.00     0.0140     122.34     104.50     0          0
773              HW_773           773n             438.00     0.0140     88.68      52.95      0          0
775              HW_775           775n             330.00     0.0140     57.46      22.62      0          0
778              HW_778           inlet-stew       163.75     0.0140     124.92     97.90      0          0
780              HW_780           780n             62.93      0.0140     33.78      31.26      0          0
782              HW_782           782n             242.60     0.0140     44.41      12.80      0          0
784              HW_784           inlet-herm       307.18     0.0140     83.37      60.54      0          0
792              HW_792           792n             250.00     0.0140     94.46      77.46      0          0
796              HW_796           796n             131.90     0.0140     38.80      35.90      0          0
794              HW_794           794n             689.60     0.0140     77.25      38.80      0          0
799              HW_799           inlet-clmb       285.00     0.0140     98.74      82.29      0          0
308              HW_308           120              488.11     0.0140     23.76      22.55      0          0
801              HW_801           801n             232.00     0.0140     22.55      22.40      0          0
805              HW_805           805N             510.00     0.0140     66.72      35.62      0          0
807              HW_807           807n             160.00     0.0140     120.80     115.20     0          0
819              TN10             TN5              750.00     0.0170     15.50      15.13      0          0
817              TN5              Swift            750.00     0.0170     15.13      14.75      0          0
815              MtHope           TN10             499.00     0.0130     21.49      19.50      0          0
821              TN20             TN15             969.00     0.0170     16.47      15.98      0          0
822              TN15             TN10             969.00     0.0170     15.98      15.50      0          0
827              TN25             TN20             969.00     0.0170     16.96      16.47      0          0
834              TN35             TN25             794.00     0.0170     17.36      16.96      0          0
833              TN45             TN35             794.00     0.0170     17.75      17.36      0          0
845              TN70             TN65             617.00     0.0170     19.29      18.98      0          0
846              TN65             TN60             617.00     0.0170     18.98      18.68      0          0
848              TN60             TN55             617.00     0.0170     18.68      18.37      0          0
850              TN55             TN50             617.00     0.0170     18.37      18.06      0          0
852              TN50             TN45             617.00     0.0170     18.06      17.75      0          0
855              HW_855           inlet-midd       295.40     0.0140     134.54     132.88     0          0
856              HW_856           1000N            520.00     0.0140     130.40     122.34     0          0
860              MIDDLE           TN70             210.00     0.0130     24.34      23.29      0          0
862              TN90             TN85             619.00     0.0170     20.53      20.22      0          0
863              TN85             TN80             619.00     0.0170     20.22      19.91      0          0
865              TN80             TN75             619.00     0.0170     19.91      19.60      0          0
867              TN75             TN70             619.00     0.0170     19.60      19.29      0          0
871              COLUMBIA         TN90             324.00     0.0130     26.15      24.53      0          0
873              HW_873           873N             246.52     0.0150     22.60      15.10      0          0
874              HW_874           874N             110.70     0.0150     15.10      14.00      0          0
877              SPRING           TN90             735.00     0.0170     20.97      20.53      0          0
883              TN105            SPRING           987.00     0.0170     21.46      20.97      0          0
295              HW_295           inlet-cent       50.00      0.0140     101.35     101.10     0          0
889              HW_889           inlet-elm        197.00     0.0140     106.48     91.24      0          0
891              TN110            TN105            987.00     0.0170     21.88      21.46      0          0
893              ELM              TN110            365.00     0.0130     27.66      25.89      0          0
895              TN130            TN125            577.00     0.0170     23.03      22.75      0          0
896              TN125            TN120            577.00     0.0170     22.75      22.46      0          0
898              TN120            TN115            577.00     0.0170     22.46      22.17      0          0
900              TN115            TN110            577.00     0.0170     22.17      21.88      0          0
904              NMAIN            TN130            395.00     0.0130     29.01      23.03      0          0
906              TN150            TN145            620.00     0.0170     24.28      23.96      0          0
907              TN145            TN140            620.00     0.0170     23.96      23.65      0          0
909              TN140            TN135            620.00     0.0170     23.65      23.34      0          0
911              TN135            TN130            620.00     0.0170     23.34      23.03      0          0
915              PRESIDENT        TN150            292.00     0.0130     29.74      28.28      0          0
926              TN165            TN155            689.00     0.0170     24.97      24.62      0          0
918              TN155            TN150            689.00     0.0170     24.62      24.28      0          0
923              HW_923           inlet-pres       118.78     0.0140     100.56     95.65      0          0
925              TN170            TN165            689.00     0.0170     25.31      24.97      0          0
929              STEWART          TN170            217.00     0.0130     30.39      29.31      0          0
931              TN190            TN180            984.00     0.0170     26.40      25.90      0          0
934              TN180            TN170            1183.00    0.0170     25.90      25.31      0          0
939              JONES            TN190            370.00     0.0130     32.24      30.40      0          0
941              LANGLEY          TN180            110.00     0.0140     30.45      29.90      0          0
943              HW_943           inlet-lang       155.00     0.0140     140.39     125.79     0          0
944              HW_944           LANG-DS          287.45     0.0140     78.20      33.78      0          0
947              HW_947           inlet-jone       470.00     0.0140     104.08     102.52     0          0
949              HW_949           DS-JONES         271.56     0.0140     84.48      44.41      0          0
952              TN210            TN205            548.00     0.0170     27.77      27.22      0          0
953              TN205            TN200            548.00     0.0170     27.22      26.95      0          0
955              TN200            TN195            548.00     0.0170     26.95      26.67      0          0
957              TN195            TN190            548.00     0.0170     26.67      26.40      0          0
961              HERMAN           TN210            840.00     0.0130     35.97      31.77      0          0
963              HIGHLAND         TN250            615.00     0.0170     29.30      29.01      0          0
964              TN250            TN240            615.00     0.0170     29.01      28.70      0          0
966              TN240            TN230            615.00     0.0170     28.70      28.39      0          0
972              TN220            TN210            615.00     0.0170     28.08      27.77      0          0
970              TN230            TN220            630.00     0.0170     28.39      28.08      0          0
980              TN305            TN300            574.00     0.0170     21.47      21.26      0          0
981              TN300            SPRING           574.00     0.0170     21.26      20.97      0          0
984              THIRD            TN305            218.00     0.0130     26.56      25.47      0          0
986              PLEASANT         TN310            591.00     0.0130     26.91      25.82      0          0
987              TN310            TN305            689.00     0.0170     21.82      21.47      0          0
990              TN320            TN310            507.00     0.0170     22.07      21.82      0          0
996              PLY-N            TN325            354.00     0.0130     28.09      26.32      0          0
997              TN325            TN320            507.00     0.0170     22.32      22.07      0          0
1001AD_LOWELL    LOWELL           TN335            208.00     0.0130     27.71      26.71      0          0
00220T200        102              TN325            777.00     0.0170     22.71      22.32      0          0
1008AD_QUE       QUEQUECHAN       TN360            82.00      0.0130     28.78      28.38      0          0
101020T225       704              TN355            665.00     0.0170     24.38      24.04      0          0
101220T220       102              TN350            665.00     0.0170     24.04      23.71      0          0
101420T215       304              TN345            665.00     0.0170     23.71      23.38      0          0
101620T210       134              TN340            665.00     0.0170     23.38      23.04      0          0
101820T205       301              TN335            665.00     0.0170     23.04      22.71      0          0
0301031c         HW_0301031c      314              280.00     0.0140     128.69     125.89     0          0
036525           HW_036525        PLEASANT         131.50     0.0140     121.21     120.14     0          0
10321035C        HW_10321035C     1034N            308.50     0.0140     121.98     121.67     0          0
10341037C        HW_10341037C     1036N            67.20      0.0140     121.67     121.21     0          0
0461047          HW_0461047       608              438.57     0.0140     16.82      14.00      0          0
632              415c             1055             93.90      0.0140     131.29     130.40     0          0
69               HW_69            419              123.82     0.0150     133.85     131.17     0          0
75               HW_75            416              355.00     0.0110     132.75     128.86     0          0
66               HW_66            418              336.60     0.0110     133.83     130.89     0          0
266              218              1069             15.00      0.0120     133.83     131.84     0          0
09251            HW_09251         318              320.00     0.0120     133.83     129.26     0          0
250              HW_250           213              460.00     0.0140     129.51     127.00     0          0
55               HW_55            415              188.52     0.0140     132.79     132.08     0          0
63               HW_63            417              650.00     0.0150     132.00     126.37     0          0
1021103c         HW_1021103c      536n             260.00     0.0140     110.37     109.96     0          0
1041106          HW_1041106       MtHope           673.00     0.0140     89.66      83.94      0          0
09               HW_09            NMAIN            580.00     0.0140     161.29     67.17      0          0
1174o            HW_1174o         133              715.00     0.0150     46.50      14.42      0          0
309              121              121ps            10.00      0.0150     0          0          0          0
29               HW_29            TN25             1252.00    0.0130     27.22      20.95      0          0
41               HW_41            TN45             989.00     0.0170     26.69      21.75      0          0
887              HW_887           CENTRAL          528.00     0.0140     101.10     91.25      0          0
612              HW_612           612n             684.00     0.0140     125.96     124.83     0          0
11351127         HW_11351127      LOWELL           526.00     0.0140     124.80     123.00     0          0
11251137         HW_11251137      1048             20.00      0.0140     124.83     124.80     0          0
1391140c         HW_1391140c      302              141.00     0.0140     11.72      11.69      0          0
327              128              128hb            150.00     0.0150     2.60       2.33       0          0
14716            HW_14716         796n             524.10     0.0150     86.29      38.80      0          0
114918           HW_114918        407              210.00     0.0150     25.13      23.60      0          0
201              HW_201           500              500.00     0.0130     0          0          0          0
TunDischg        HW_TunDischg     Swift            500.00     0.1000     14.75      9.75       0          0

[ORIFICES]
;;Name           From             To               Type       Offset     Qcoeff     Gated    CloseTime
;;-------------- ---------------- ---------------- ---------- ---------- ---------- -------- ----------
Cove-orif        122a             124              SIDE       0          0.650      NO       0
1125Lowbor       1125             1135             SIDE       0          0.650      NO       0

[WEIRS]
;;Name           From             To               Type       CrestHt    Qcoeff     Gated    EndCon   EndCoeff   Surcharge
;;-------------- ---------------- ---------------- ---------- ---------- ---------- -------- -------- ---------- ----------
206_2            500              132              V-NOTCH    13.60      1.840      NO       0        0          YES
220_2            102              102n             TRANSVERSE 47.80      1.840      NO       0        0          YES
211_2            204              134              TRANSVERSE 17.35      1.840      NO       0        0          YES
Alton            128              130              V-NOTCH    6.33       1.840      NO       0        0          YES
209_2            613              135              V-NOTCH    19.05      1.840      NO       0        0          YES
212_2            611              611w             V-NOTCH    12.20      1.840      NO       0        0          YES
William          608              608w             V-NOTCH    18.00      1.840      NO       0        0          YES
290_2            604              604w             V-NOTCH    1.33       1.840      NO       0        0          YES
317_2            101              208w             V-NOTCH    2.07       1.840      NO       0        0          YES
Pres_wr          134              210w             TRANSVERSE 6.58       1.840      NO       0        0          YES
Cove_Wr          122c             124              V-NOTCH    2.00       1.840      NO       0        0          YES
629_2            415a             415              V-NOTCH    133.08     1.840      NO       0        0          YES
296_2            112              794n             TRANSVERSE 78.25      1.840      NO       0        0          YES
rvr-vw           203              203w             TRANSVERSE 15.04      1.840      NO       0        0          YES
Clmba_wr         206              206w             TRANSVERSE 21.27      1.840      NO       0        0          YES
293_2            132              790n             TRANSVERSE 26.30      1.840      NO       0        0          YES
294_2            204              788n             TRANSVERSE 88.70      1.840      NO       0        0          YES

[PUMPS]
;;Name           From             To               PumpCurve  Status   Startup    Shutoff
;;-------------- ---------------- ---------------- ---------- -------- ---------- ----------
Central_PS       605              606              PC_Central_PS ON       1.00       0         
Cove_St.         121ps            120              PC_Cove_St_ ON       1.00       0         

[CURVES]
;;Name           Type       X-Value    Y-Value
;;-------------- ---------- ---------- ----------
;; Synthesized generic pump curves — replace with actual pump data
PC_Central_PS    Pump1      0          5
PC_Central_PS               10         10
PC_Cove_St_      Pump1      0          5
PC_Cove_St_                 10         10

[XSECTIONS]
;;Link           Shape        Geom1      Geom2      Geom3      Geom4      Barrels
;;-------------- ------------ ---------- ---------- ---------- ---------- ----------
289              CIRCULAR     3.00       0          0          0          1
290              CIRCULAR     3.00       0          0          0          1
316              CIRCULAR     3.00       0          0          0          1
314              CIRCULAR     0.83       0          0          0          1
312              CIRCULAR     3.50       0          0          0          1
885              RECT_CLOSED  4.00       2.75       0          0          1
293              CIRCULAR     0.67       0          0          0          1
294              CIRCULAR     1.00       0          0          0          1
281              CIRCULAR     3.00       0          0          0          1
280              CIRCULAR     1.75       0          0          0          1
320              CIRCULAR     4.50       0          0          0          1
317              CIRCULAR     1.75       0          0          0          1
318              CIRCULAR     5.00       5.00       0          0          1
803              CIRCULAR     2.50       0          0          0          1
323              HORSESHOE    6.50       5.75       0          0          1
322              CIRCULAR     2.00       0          0          0          1
328              CIRCULAR     2.00       0          0          0          1
1115556          CIRCULAR     2.00       0          0          0          1
325              CIRCULAR     5.00       0          0          0          1
326              CIRCULAR     6.00       0          0          0          1
251              CIRCULAR     3.33       0          0          0          1
104837           RECT_CLOSED  6.50       5.75       0          0          1
249              HORSESHOE    4.25       2.83       0          0          1
247              CIRCULAR     1.00       0          0          0          1
248              CIRCULAR     1.25       0          0          0          1
304              CIRCULAR     1.25       0          0          0          1
303              CIRCULAR     2.50       0          0          0          1
302              CIRCULAR     1.25       0          0          0          1
301              CIRCULAR     2.25       0          0          0          1
299              CIRCULAR     3.33       0          0          0          1
298              RECT_CLOSED  3.25       2.75       0          0          1
256              CIRCULAR     2.25       0          0          0          1
241              CIRCULAR     2.50       0          0          0          1
274              CIRCULAR     2.50       0          0          0          1
278              CIRCULAR     1.25       0          0          0          1
243              CIRCULAR     3.50       0          0          0          1
305              CIRCULAR     3.50       0          0          0          1
242              CIRCULAR     1.33       0          0          0          1
257              CIRCULAR     2.50       0          0          0          1
252              CIRCULAR     2.25       0          0          0          1
273              CIRCULAR     2.67       0          0          0          1
269              CIRCULAR     1.00       0          0          0          1
268              CIRCULAR     3.50       0          0          0          1
270              CIRCULAR     1.00       0          0          0          1
271              CIRCULAR     1.00       0          0          0          1
265              CIRCULAR     4.00       0          0          0          1
267              CIRCULAR     1.00       0          0          0          1
239              CIRCULAR     3.50       0          0          0          1
272              CIRCULAR     1.25       0          0          0          1
263              CIRCULAR     0.50       0          0          0          1
262              CIRCULAR     5.00       0          0          0          1
264              CIRCULAR     1.00       0          0          0          1
260              CIRCULAR     3.00       0          0          0          1
275              CIRCULAR     1.00       0          0          0          1
276              CIRCULAR     4.00       0          0          0          1
277              CIRCULAR     1.00       0          0          0          1
297              CIRCULAR     3.00       0          0          0          1
232              CIRCULAR     5.00       0          0          0          1
230              CIRCULAR     5.00       0          0          0          1
228              CIRCULAR     5.00       0          0          0          1
224              CIRCULAR     5.50       0          0          0          1
205              CIRCULAR     5.50       0          0          0          1
206              CIRCULAR     2.00       0          0          0          1
208              CIRCULAR     3.75       0          0          0          1
221              CIRCULAR     1.00       0          0          0          1
207              CIRCULAR     4.00       0          0          0          1
222              CIRCULAR     3.50       0          0          0          1
216              CIRCULAR     2.00       0          0          0          1
219              RECT_CLOSED  3.30       3.80       0          0          1
11109            CIRCULAR     3.00       0          0          0          1
211              CIRCULAR     2.00       0          0          0          1
214              CIRCULAR     4.17       0          0          0          1
210              CIRCULAR     4.17       0          0          0          1
227              CIRCULAR     1.25       0          0          0          1
229              CIRCULAR     1.25       0          0          0          1
329              HORSESHOE    3.50       0          0          0          1
111215           CIRCULAR     4.00       3.50       0          0          1
209              CIRCULAR     3.00       0          0          0          1
283              CIRCULAR     3.33       0          0          0          1
282              CIRCULAR     1.00       0          0          0          1
233              CIRCULAR     4.00       4.00       0          0          1
220              CIRCULAR     1.00       0          0          0          1
287              CIRCULAR     3.00       0          0          0          1
284              CIRCULAR     3.00       0          0          0          1
473              CIRCULAR     3.00       0          0          0          1
476              CIRCULAR     3.00       0          0          0          1
478              CIRCULAR     3.00       0          0          0          1
279              CIRCULAR     3.00       0          0          0          1
481              CIRCULAR     2.75       0          0          0          1
483              CIRCULAR     2.75       0          0          0          1
313              CIRCULAR     2.75       0          0          0          1
311              CIRCULAR     2.50       0          0          0          1
486              CIRCULAR     2.50       0          0          0          1
488              CIRCULAR     2.50       0          0          0          1
495              CIRCULAR     2.00       0          0          0          1
497              CIRCULAR     2.00       0          0          0          1
499              CIRCULAR     2.00       0          0          0          1
501              CIRCULAR     2.00       0          0          0          1
503              CIRCULAR     2.00       0          0          0          1
226              CIRCULAR     5.00       0          0          0          1
505              CIRCULAR     5.00       0          0          0          1
507              CIRCULAR     5.00       0          0          0          1
215              CIRCULAR     5.50       0          0          0          1
511              CIRCULAR     5.50       0          0          0          1
513              CIRCULAR     5.50       0          0          0          1
515              CIRCULAR     5.50       0          0          0          1
517              CIRCULAR     5.50       0          0          0          1
218              CIRCULAR     5.50       0          0          0          1
520              CIRCULAR     5.50       0          0          0          1
522              CIRCULAR     5.50       0          0          0          1
212              CIRCULAR     5.50       0          0          0          1
525              CIRCULAR     5.50       0          0          0          1
527              CIRCULAR     5.50       0          0          0          1
529              CIRCULAR     5.50       0          0          0          1
536              CIRCULAR     2.50       0          0          0          1
539              CIRCULAR     3.50       0          0          0          1
544              CIRCULAR     3.50       0          0          0          1
546              CIRCULAR     3.50       0          0          0          1
548              CIRCULAR     3.50       0          0          0          1
550              CIRCULAR     3.50       0          0          0          1
553              CIRCULAR     3.50       0          0          0          1
238              CIRCULAR     3.00       0          0          0          1
568              CIRCULAR     3.00       0          0          0          1
240              CIRCULAR     2.50       0          0          0          1
571              CIRCULAR     2.50       0          0          0          1
573              CIRCULAR     2.50       0          0          0          1
575              CIRCULAR     2.50       0          0          0          1
258              CIRCULAR     2.00       0          0          0          1
578              CIRCULAR     2.00       0          0          0          1
581              CIRCULAR     3.00       0          0          0          1
584              RECT_CLOSED  4.00       2.50       0          0          1
587              CIRCULAR     3.00       0          0          0          1
593              CIRCULAR     4.50       0          0          0          1
310              HORSESHOE    6.50       5.75       0          0          1
600              CIRCULAR     1.33       0          0          0          1
493              CIRCULAR     1.75       0          0          0          1
599              CIRCULAR     1.67       0          0          0          1
245              HORSESHOE    4.25       0          0          0          1
246              HORSESHOE    4.25       0          0          0          1
615              HORSESHOE    4.25       0          0          0          1
617              HORSESHOE    4.25       0          0          0          1
259              CIRCULAR     3.75       0          0          0          1
623              CIRCULAR     3.75       0          0          0          1
240_2            CIRCULAR     1.33       0          0          0          1
254              CIRCULAR     2.75       0          0          0          1
629              CIRCULAR     2.75       0          0          0          1
253              CIRCULAR     2.25       0          0          0          1
1055805          CIRCULAR     3.30       0          0          0          1
596              CIRCULAR     5.00       0          0          0          1
643              CIRCULAR     5.00       0          0          0          1
231              CIRCULAR     4.16       0          0          0          1
649              CIRCULAR     4.17       0          0          0          1
647              CIRCULAR     4.17       0          0          0          1
261              HORSESHOE    5.70       0          0          0          1
656              HORSESHOE    5.70       0          0          0          1
658              HORSESHOE    5.70       0          0          0          1
660              RECT_CLOSED  5.75       6.50       0          0          1
665              CIRCULAR     3.00       0          0          0          1
674              CIRCULAR     3.50       0          0          0          1
681              CIRCULAR     1.70       0          0          0          1
682              CIRCULAR     3.00       0          0          0          1
685              CIRCULAR     2.20       0          0          0          1
688              CIRCULAR     2.25       0          0          0          1
700              HORSESHOE    2.90       0          0          0          1
702              CIRCULAR     2.00       0          0          0          1
703              CIRCULAR     2.50       0          0          0          1
716              CIRCULAR     2.00       0          0          0          1
718              CIRCULAR     3.50       0          0          0          1
707              CIRCULAR     4.00       0          0          0          1
720              HORSESHOE    6.50       0          0          0          1
730              CIRCULAR     3.50       0          0          0          1
296              CIRCULAR     1.00       0          0          0          1
743              CIRCULAR     1.00       0          0          0          1
745              CIRCULAR     1.00       0          0          0          1
749              CIRCULAR     3.00       0          0          0          1
751              CIRCULAR     2.00       0          0          0          1
753              CIRCULAR     1.50       0          0          0          1
754              CIRCULAR     2.00       0          0          0          1
756              CIRCULAR     3.50       0          0          0          1
759              CIRCULAR     5.00       0          0          0          1
761              CIRCULAR     3.50       0          0          0          1
763              CIRCULAR     2.00       0          0          0          1
765              CIRCULAR     2.00       0          0          0          1
767              CIRCULAR     3.33       0          0          0          1
769              CIRCULAR     3.00       0          0          0          1
771              CIRCULAR     2.67       0          0          0          1
773              CIRCULAR     2.00       0          0          0          1
775              CIRCULAR     1.67       0          0          0          1
778              CIRCULAR     1.67       0          0          0          1
780              CIRCULAR     2.00       0          0          0          1
782              CIRCULAR     2.25       0          0          0          1
784              CIRCULAR     2.00       0          0          0          1
792              CIRCULAR     2.00       0          0          0          1
796              RECT_CLOSED  4.00       2.70       0          0          1
794              CIRCULAR     2.00       0          0          0          1
799              HORSESHOE    2.90       0          0          0          1
308              CIRCULAR     2.50       0          0          0          1
801              CIRCULAR     2.50       0          0          0          1
805              CIRCULAR     3.00       0          0          0          1
807              CIRCULAR     2.00       0          0          0          1
819              CIRCULAR     20.00      0          0          0          1
817              CIRCULAR     20.00      0          0          0          1
815              CIRCULAR     6.75       0          0          0          1
821              CIRCULAR     20.00      0          0          0          1
822              CIRCULAR     20.00      0          0          0          1
827              CIRCULAR     20.00      0          0          0          1
834              CIRCULAR     20.00      0          0          0          1
833              CIRCULAR     20.00      0          0          0          1
845              CIRCULAR     20.00      0          0          0          1
846              CIRCULAR     20.00      0          0          0          1
848              CIRCULAR     20.00      0          0          0          1
850              CIRCULAR     20.00      0          0          0          1
852              CIRCULAR     20.00      0          0          0          1
855              CIRCULAR     3.00       0          0          0          1
856              CIRCULAR     2.67       0          0          0          1
860              CIRCULAR     5.50       0          0          0          1
862              CIRCULAR     20.00      0          0          0          1
863              CIRCULAR     20.00      0          0          0          1
865              CIRCULAR     20.00      0          0          0          1
867              CIRCULAR     20.00      0          0          0          1
871              CIRCULAR     5.50       0          0          0          1
873              CIRCULAR     1.50       0          0          0          1
874              CIRCULAR     1.67       0          0          0          1
877              CIRCULAR     20.00      0          0          0          1
883              CIRCULAR     20.00      0          0          0          1
295              RECT_CLOSED  4.00       3.00       0          0          1
889              CIRCULAR     2.00       0          0          0          1
891              CIRCULAR     20.00      0          0          0          1
893              CIRCULAR     5.50       0          0          0          1
895              CIRCULAR     20.00      0          0          0          1
896              CIRCULAR     20.00      0          0          0          1
898              CIRCULAR     20.00      0          0          0          1
900              CIRCULAR     20.00      0          0          0          1
904              CIRCULAR     6.75       0          0          0          1
906              CIRCULAR     20.00      0          0          0          1
907              CIRCULAR     20.00      0          0          0          1
909              CIRCULAR     20.00      0          0          0          1
911              CIRCULAR     20.00      0          0          0          1
915              CIRCULAR     5.50       0          0          0          1
926              CIRCULAR     20.00      0          0          0          1
918              CIRCULAR     20.00      0          0          0          1
923              CIRCULAR     2.25       0          0          0          1
925              CIRCULAR     20.00      0          0          0          1
929              CIRCULAR     5.50       0          0          0          1
931              CIRCULAR     20.00      0          0          0          1
934              CIRCULAR     20.00      0          0          0          1
939              CIRCULAR     5.50       0          0          0          1
941              CIRCULAR     5.50       0          0          0          1
943              CIRCULAR     2.00       0          0          0          1
944              CIRCULAR     1.67       0          0          0          1
947              CIRCULAR     2.25       0          0          0          1
949              CIRCULAR     2.00       0          0          0          1
952              CIRCULAR     20.00      0          0          0          1
953              CIRCULAR     20.00      0          0          0          1
955              CIRCULAR     20.00      0          0          0          1
957              CIRCULAR     20.00      0          0          0          1
961              CIRCULAR     5.50       0          0          0          1
963              CIRCULAR     20.00      0          0          0          1
964              CIRCULAR     20.00      0          0          0          1
966              CIRCULAR     20.00      0          0          0          1
972              CIRCULAR     20.00      0          0          0          1
970              CIRCULAR     20.00      0          0          0          1
980              CIRCULAR     20.00      0          0          0          1
981              CIRCULAR     20.00      0          0          0          1
984              CIRCULAR     5.50       0          0          0          1
986              CIRCULAR     5.50       0          0          0          1
987              CIRCULAR     20.00      0          0          0          1
990              CIRCULAR     20.00      0          0          0          1
996              CIRCULAR     6.75       0          0          0          1
997              CIRCULAR     20.00      0          0          0          1
1001AD_LOWELL    CIRCULAR     5.50       0          0          0          1
00220T200        CIRCULAR     20.00      0          0          0          1
1008AD_QUE       CIRCULAR     6.75       0          0          0          1
101020T225       CIRCULAR     20.00      0          0          0          1
101220T220       CIRCULAR     20.00      0          0          0          1
101420T215       CIRCULAR     20.00      0          0          0          1
101620T210       CIRCULAR     20.00      0          0          0          1
101820T205       CIRCULAR     20.00      0          0          0          1
0301031c         CIRCULAR     1.00       0          0          0          1
036525           CIRCULAR     2.50       0          0          0          1
10321035C        CIRCULAR     2.50       0          0          0          1
10341037C        CIRCULAR     2.50       0          0          0          1
0461047          CIRCULAR     2.00       0          0          0          1
632              CIRCULAR     2.75       0          0          0          1
69               CIRCULAR     3.50       0          0          0          1
75               CIRCULAR     3.00       0          0          0          1
66               CIRCULAR     1.25       0          0          0          1
266              CIRCULAR     0.50       0          0          0          1
09251            CIRCULAR     1.00       0          0          0          1
250              CIRCULAR     3.50       0          0          0          1
55               CIRCULAR     2.25       0          0          0          1
63               CIRCULAR     2.50       0          0          0          1
1021103c         CIRCULAR     3.50       0          0          0          1
1041106          CIRCULAR     3.00       0          0          0          1
09               CIRCULAR     2.67       0          0          0          1
1174o            CIRCULAR     3.00       0          0          0          1
309              CIRCULAR     10.00      0          0          0          1
29               CIRCULAR     6.75       0          0          0          1
41               CIRCULAR     6.75       0          0          0          1
887              CIRCULAR     4.00       0          0          0          1
612              HORSESHOE    4.25       0          0          0          1
11351127         CIRCULAR     1.50       0          0          0          1
11251137         HORSESHOE    4.25       0          0          0          1
1391140c         CIRCULAR     1.25       0          0          0          1
327              CIRCULAR     2.00       0          0          0          1
14716            RECT_CLOSED  4.00       2.70       0          0          1
114918           RECT_CLOSED  3.50       3.00       0          0          1
201              CIRCULAR     5.00       0          0          0          1
TunDischg        CIRCULAR     9.00       0          0          0          1
Cove-orif        RECT_CLOSED  1.00       1.00       0          0
1125Lowbor       RECT_CLOSED  1.00       1.00       0          0
206_2            TRIANGULAR   1.00       3.83       0          0
220_2            RECT_OPEN    1.00       5.50       0          0
211_2            RECT_OPEN    1.00       3.96       0          0
Alton            TRIANGULAR   1.00       10.00      0          0
209_2            TRIANGULAR   1.00       14.00      0          0
212_2            TRIANGULAR   1.00       10.00      0          0
William          TRIANGULAR   1.00       17.13      0          0
290_2            TRIANGULAR   1.00       3.00       0          0
317_2            TRIANGULAR   1.00       3.65       0          0
Pres_wr          RECT_OPEN    1.00       5.00       0          0
Cove_Wr          TRIANGULAR   1.00       27.00      0          0
629_2            TRIANGULAR   1.00       10.00      0          0
296_2            RECT_OPEN    1.00       2.00       0          0
rvr-vw           RECT_OPEN    1.00       3.80       0          0
Clmba_wr         RECT_OPEN    1.00       4.00       0          0
293_2            RECT_OPEN    1.00       3.00       0          0
294_2            RECT_OPEN    1.00       2.70       0          0

[LOSSES]
;;Link           Inlet      Outlet     Average    Flap Gate
;;-------------- ---------- ---------- ---------- ----------
289              0          0          0          NO
290              0          0          0          NO
316              0          0          0          NO
314              0          0          0          NO
312              0          0          0          NO
885              0          0          0          NO
293              0          0          0          NO
294              0          0          0          NO
281              0          0          0          NO
280              0          0          0          NO
320              0          0          0          NO
317              0          0          0          NO
318              0          0          0          NO
803              0          0          0          NO
323              0          0          0          NO
322              0          0          0          NO
328              0          0          0          NO
1115556          0          0          0          NO
325              0          0          0          NO
326              0          0          0          NO
251              0          0          0          NO
104837           0          0          0          NO
249              0          0          0          NO
247              0          0          0          NO
248              0          0          0          NO
304              0          0          0          NO
303              0          0          0          NO
302              0          0          0          NO
301              0          0          0          NO
299              0          0          0          NO
298              0          0          0          NO
256              0          0          0          NO
241              0          0          0          NO
274              0          0          0          NO
278              0          0          0          NO
243              0          0          0          NO
305              0          0          0          NO
242              0          0          0          NO
257              0          0          0          NO
252              0          0          0          NO
273              0          0          0          NO
269              0          0          0          NO
268              0          0          0          NO
270              0          0          0          NO
271              0          0          0          NO
265              0          0          0          NO
267              0          0          0          NO
239              0          0          0          NO
272              0          0          0          NO
263              0          0          0          NO
262              0          0          0          NO
264              0          0          0          NO
260              0          0          0          NO
275              0          0          0          NO
276              0          0          0          NO
277              0          0          0          NO
297              0          0          0          NO
232              0          0          0          NO
230              0          0          0          NO
228              0          0          0          NO
224              0          0          0          NO
205              0          0          0          NO
206              0          0          0          NO
208              0          0          0          NO
221              0          0          0          NO
207              0          0          0          NO
222              0          0          0          NO
216              0          0          0          NO
219              0          0          0          NO
11109            0          0          0          NO
211              0          0          0          NO
214              0          0          0          NO
210              0          0          0          NO
227              0          0          0          NO
229              0          0          0          NO
329              0          0          0          NO
111215           0          0          0          NO
209              0          0          0          NO
283              0          0          0          NO
282              0          0          0          NO
233              0          0          0          NO
220              0          0          0          NO
287              0          0          0          NO
284              0          0          0          NO
473              0          0          0          NO
476              0          0          0          NO
478              0          0          0          NO
279              0          0          0          NO
481              0          0          0          NO
483              0          0          0          NO
313              0          0          0          NO
311              0          0          0          NO
486              0          0          0          NO
488              0          0          0          NO
495              0          0          0          NO
497              0          0          0          NO
499              0          0          0          NO
501              0          0          0          NO
503              0          0          0          NO
226              0          0          0          NO
505              0          0          0          NO
507              0          0          0          NO
215              0          0          0          NO
511              0          0          0          NO
513              0          0          0          NO
515              0          0          0          NO
517              0          0          0          NO
218              0          0          0          NO
520              0          0          0          NO
522              0          0          0          NO
212              0          0          0          NO
525              0          0          0          NO
527              0          0          0          NO
529              0          0          0          NO
536              0          0          0          NO
539              0          0          0          NO
544              0          0          0          NO
546              0          0          0          NO
548              0          0          0          NO
550              0          0          0          NO
553              0          0          0          NO
238              0          0          0          NO
568              0          0          0          NO
240              0          0          0          NO
571              0          0          0          NO
573              0          0          0          NO
575              0          0          0          NO
258              0          0          0          NO
578              0          0          0          NO
581              0          0          0          NO
584              0          0          0          NO
587              0          0          0          NO
593              0          0          0          NO
310              0          0          0          NO
600              0          0          0          NO
493              0          0          0          NO
599              0          0          0          NO
245              0          0          0          NO
246              0          0          0          NO
615              0          0          0          NO
617              0          0          0          NO
259              0          0          0          NO
623              0          0          0          NO
240_2            0          0          0          NO
254              0          0          0          NO
629              0          0          0          NO
253              0          0          0          NO
1055805          0          0          0          NO
596              0          0          0          NO
643              0          0          0          NO
231              0          0          0          NO
649              0          0          0          NO
647              0          0          0          NO
261              0          0          0          NO
656              0          0          0          NO
658              0          0          0          NO
660              0          0          0          NO
665              0          0          0          NO
674              0          0          0          NO
681              0          0          0          NO
682              0          0          0          NO
685              0          0          0          NO
688              0          0          0          NO
700              0          0          0          NO
702              0          0          0          NO
703              0          0          0          NO
716              0          0          0          NO
718              0          0          0          NO
707              0          0          0          NO
720              0          0          0          NO
730              0          0          0          NO
296              0          0          0          NO
743              0          0          0          NO
745              0          0          0          NO
749              0          0          0          NO
751              0          0          0          NO
753              0          0          0          NO
754              0          0          0          NO
756              0          0          0          NO
759              0          0          0          NO
761              0          0          0          NO
763              0          0          0          NO
765              0          0          0          NO
767              0          0          0          NO
769              0          0          0          NO
771              0          0          0          NO
773              0          0          0          NO
775              0          0          0          NO
778              0          0          0          NO
780              0          0          0          NO
782              0          0          0          NO
784              0          0          0          NO
792              0          0          0          NO
796              0          0          0          NO
794              0          0          0          NO
799              0          0          0          NO
308              0          0          0          NO
801              0          0          0          NO
805              0          0          0          NO
807              0          0          0          NO
819              0          0          0          NO
817              0          0          0          NO
815              0          0          0          NO
821              0          0          0          NO
822              0          0          0          NO
827              0          0          0          NO
834              0          0          0          NO
833              0          0          0          NO
845              0          0          0          NO
846              0          0          0          NO
848              0          0          0          NO
850              0          0          0          NO
852              0          0          0          NO
855              0          0          0          NO
856              0          0          0          NO
860              0          0          0          NO
862              0          0          0          NO
863              0          0          0          NO
865              0          0          0          NO
867              0          0          0          NO
871              0          0          0          NO
873              0          0          0          NO
874              0          0          0          NO
877              0          0          0          NO
883              0          0          0          NO
295              0          0          0          NO
889              0          0          0          NO
891              0          0          0          NO
893              0          0          0          NO
895              0          0          0          NO
896              0          0          0          NO
898              0          0          0          NO
900              0          0          0          NO
904              0          0          0          NO
906              0          0          0          NO
907              0          0          0          NO
909              0          0          0          NO
911              0          0          0          NO
915              0          0          0          NO
926              0          0          0          NO
918              0          0          0          NO
923              0          0          0          NO
925              0          0          0          NO
929              0          0          0          NO
931              0          0          0          NO
934              0          0          0          NO
939              0          0          0          NO
941              0          0          0          NO
943              0          0          0          NO
944              0          0          0          NO
947              0          0          0          NO
949              0          0          0          NO
952              0          0          0          NO
953              0          0          0          NO
955              0          0          0          NO
957              0          0          0          NO
961              0          0          0          NO
963              0          0          0          NO
964              0          0          0          NO
966              0          0          0          NO
972              0          0          0          NO
970              0          0          0          NO
980              0          0          0          NO
981              0          0          0          NO
984              0          0          0          NO
986              0          0          0          NO
987              0          0          0          NO
990              0          0          0          NO
996              0          0          0          NO
997              0          0          0          NO
1001AD_LOWELL    0          0          0          NO
00220T200        0          0          0          NO
1008AD_QUE       0          0          0          NO
101020T225       0          0          0          NO
101220T220       0          0          0          NO
101420T215       0          0          0          NO
101620T210       0          0          0          NO
101820T205       0          0          0          NO
0301031c         0          0          0          NO
036525           0          0          0          NO
10321035C        0          0          0          NO
10341037C        0          0          0          NO
0461047          0          0          0          NO
632              0          0          0          NO
69               0          0          0          NO
75               0          0          0          NO
66               0          0          0          NO
266              0          0          0          NO
09251            0          0          0          NO
250              0          0          0          NO
55               0          0          0          NO
63               0          0          0          NO
1021103c         0          0          0          NO
1041106          0          0          0          NO
09               0          0          0          NO
1174o            0          0          0          NO
309              0          0          0          NO
29               0          0          0          NO
41               0          0          0          NO
887              0          0          0          NO
612              0          0          0          NO
11351127         0          0          0          NO
11251137         0          0          0          NO
1391140c         0          0          0          NO
327              0          0          0          NO
14716            0          0          0          NO
114918           0          0          0          NO
201              0          0          0          NO
TunDischg        0          0          0          NO

[INFLOWS]
;;Node           Constituent  Time Series      Type     Mfactor  Sfactor  Baseline Pattern
;;-------------- ------------ ---------------- -------- -------- -------- -------- --------
101              FLOW         ""               FLOW     1.0      1.0      0.20000
104              FLOW         ""               FLOW     1.0      1.0      2.07000
610              FLOW         ""               FLOW     1.0      1.0      0.90000
inlet-I&Q        FLOW         ""               FLOW     1.0      1.0      4.25000
inlet-G2         FLOW         ""               FLOW     1.0      1.0      1.71000
G2sanitary       FLOW         ""               FLOW     1.0      1.0      1.07000
inlet-K1&3       FLOW         ""               FLOW     1.0      1.0      3.57000
inlet-K2         FLOW         ""               FLOW     1.0      1.0      0.57000
inlet-L3&4       FLOW         ""               FLOW     1.0      1.0      4.97000
inlet-J1         FLOW         ""               FLOW     1.0      1.0      0.94000
inlet-J3         FLOW         ""               FLOW     1.0      1.0      0.24000
inlet-J2         FLOW         ""               FLOW     1.0      1.0      0.15000
inlet-J4         FLOW         ""               FLOW     1.0      1.0      0.81000
inlet-Z          FLOW         ""               FLOW     1.0      1.0      0.17000
109              FLOW         ""               FLOW     1.0      1.0      0.27000
615              FLOW         ""               FLOW     1.0      1.0      0.75000
207              FLOW         ""               FLOW     1.0      1.0      0.09000
inlet-cent       FLOW         ""               FLOW     1.0      1.0      0.34000
629              FLOW         ""               FLOW     1.0      1.0      0.89000
inlet-H          FLOW         ""               FLOW     1.0      1.0      0.35000
123              FLOW         ""               FLOW     1.0      1.0      0.20000
110              FLOW         ""               FLOW     1.0      1.0      0.70000
108              FLOW         ""               FLOW     1.0      1.0      0.50000
129              FLOW         ""               FLOW     1.0      1.0      4.74000
106              FLOW         ""               FLOW     1.0      1.0      1.00000
665n             FLOW         ""               FLOW     1.0      1.0      1.19000
674n             FLOW         ""               FLOW     1.0      1.0      0.59000
681n             FLOW         ""               FLOW     1.0      1.0      0.34000
685n             FLOW         ""               FLOW     1.0      1.0      0.34000
700n             FLOW         ""               FLOW     1.0      1.0      0.26000
749n             FLOW         ""               FLOW     1.0      1.0      0.97000
759n             FLOW         ""               FLOW     1.0      1.0      0.36000
inlet-mthp       FLOW         ""               FLOW     1.0      1.0      0.62000
inlet-wood       FLOW         ""               FLOW     1.0      1.0      0.19000
inlet-birc       FLOW         ""               FLOW     1.0      1.0      0.81000
inlet-glob       FLOW         ""               FLOW     1.0      1.0      3.26000
773n             FLOW         ""               FLOW     1.0      1.0      0.82000
775n             FLOW         ""               FLOW     1.0      1.0      0.24000
inlet-stew       FLOW         ""               FLOW     1.0      1.0      0.14000
inlet-herm       FLOW         ""               FLOW     1.0      1.0      0.36000
792n             FLOW         ""               FLOW     1.0      1.0      0.34000
inlet-clmb       FLOW         ""               FLOW     1.0      1.0      1.37000
inlet-nmai       FLOW         ""               FLOW     1.0      1.0      0.77000
inlet-midd       FLOW         ""               FLOW     1.0      1.0      1.65000
1000N            FLOW         ""               FLOW     1.0      1.0      1.00000
885N             FLOW         ""               FLOW     1.0      1.0      0.39000
inlet-elm        FLOW         ""               FLOW     1.0      1.0      0.29000
inlet-pres       FLOW         ""               FLOW     1.0      1.0      0.42000
inlet-lang       FLOW         ""               FLOW     1.0      1.0      0.40000
LANG-DS          FLOW         ""               FLOW     1.0      1.0      0.50000
inlet-jone       FLOW         ""               FLOW     1.0      1.0      0.65000
DS-JONES         FLOW         ""               FLOW     1.0      1.0      0.75000
HIGHLAND         FLOW         ""               FLOW     1.0      1.0      4.00000

[COORDINATES]
;;Node           X-Coord            Y-Coord
;;-------------- ------------------ ------------------
500              -246548.39         683519.09         
401              -247440.39         683133.52         
301              -247284.06         683580.50         
201              -247247.74         683684.67         
132              -247071.76         683616.87         
101              -247017.02         684665.67         
613              -254921.04         691291.30         
134              -253280.63         688480.07         
204              -253100.69         688705.99         
611              -249172.50         684632.50         
706              -249292.50         684445.50         
104              -252943.43         688946.11         
304              -253080.50         688325.50         
203              -251108.50         686126.87         
403              -251172.50         685854.50         
303              -251108.50         685967.50         
103              -250906.50         686993.50         
102              -249503.50         686006.50         
202              -249612.48         685505.70         
133              -249831.69         685406.74         
402              -249785.64         684803.03         
302              -249650.50         685027.50         
704              -254612.50         689296.14         
608              -254272.50         689422.50         
610              -254119.50         690102.50         
607              -254378.64         689924.07         
206              -254597.16         690984.50         
306              -254621.05         690810.90         
712              -255014.50         690871.50         
606              -254808.32         691103.50         
135              -255104.54         691070.70         
404              -253540.50         687700.50         
inlet-I&Q        -250151.78         697079.04         
907              -251274.51         697950.50         
624              -253193.50         698027.50         
315              -253051.86         698203.04         
906              -252439.50         697850.50         
621              -252222.50         697647.50         
inlet-G2         -251287.50         696150.50         
314              -253095.50         694812.70         
214              -253016.78         694736.83         
inlet-G1         -252785.50         694465.50         
313              -252526.52         695234.80         
213              -252078.97         694922.27         
G2sanitary       -251898.17         694674.06         
inlet-K1&3       -250906.87         699399.50         
415              -250867.55         698597.66         
903              -251134.32         698652.57         
901              -251082.50         698694.50         
inlet-K2         -251545.50         699583.50         
inlet-L3&4       -253044.50         698551.50         
902              -252263.50         698952.38         
215              -252209.50         699009.80         
inlet-J1         -256622.03         696393.50         
420              -254823.50         696412.50         
417              -254780.50         696682.50         
217              -254936.44         696718.50         
317              -254835.50         696639.50         
418              -254713.50         696895.69         
218              -254915.50         696952.50         
318              -254786.50         696847.50         
419              -254645.50         697142.50         
219              -254631.45         697269.83         
319              -254719.50         697106.38         
inlet-J3         -255712.50         697136.50         
inlet-J2         -256416.50         697068.50         
inlet-J4         -254603.50         697387.50         
inlet-Z          -254373.45         696050.50         
216              -255280.77         696106.30         
416              -254961.77         696038.30         
316              -254933.50         696007.50         
626              -254884.50         696197.50         
309              -258492.79         693406.23         
209              -258447.69         693593.10         
109              -258181.56         693526.81         
615              -254753.50         692050.50         
616              -255083.50         692130.50         
617              -255258.50         692273.50         
618              -255313.50         692744.50         
605              -256227.11         692371.50         
307              -256308.11         692428.50         
604              -256270.57         692679.07         
702              -256357.97         692576.14         
207              -256166.66         692768.20         
211              -255821.96         693333.66         
inlet-cent       -255654.00         693670.98         
112              -256235.49         693426.15         
619              -255147.73         693897.42         
633              -255084.50         693965.50         
627              -254817.83         694237.79         
628              -254515.50         694055.75         
629              -254245.15         694097.80         
630              -254278.50         694450.50         
inlet-H          -253849.50         694212.50         
620              -254658.36         694490.38         
120              -263723.71         695511.78         
121              -263899.68         696193.80         
123              -263499.89         696833.04         
601              -262957.32         694948.35         
110              -260621.50         694741.50         
310              -260735.50         694197.25         
210              -260544.00         694381.04         
410              -260996.89         693082.50         
308              -259052.52         693636.22         
208              -258979.50         693763.50         
409              -258923.57         693655.07         
782              -259069.50         692990.50         
108              -259243.50         694036.50         
131              -266909.59         697854.50         
126              -264458.83         697217.34         
124              -264070.55         696223.24         
125              -264281.93         695687.41         
129              -267343.33         699841.11         
130              -266758.59         699013.50         
128              -266504.09         699019.31         
127              -265153.20         698264.23         
106              -254456.68         691626.96         
406              -255217.50         689890.50         
473              -256479.05         692891.20         
476              -257234.10         693073.43         
478              -258193.13         693393.37         
481              -259636.69         693893.53         
483              -260383.63         694036.34         
486              -262057.67         694623.46         
488              -261109.45         694391.76         
493              -263906.65         696640.69         
495              -264464.74         696898.44         
497              -264945.99         697376.55         
499n             -264832.26         697857.60         
501n             -265525.52         698543.97         
503n             -266238.56         698738.32         
505n             -254046.83         688973.94         
507n             -253360.61         688443.82         
511n             -252353.45         688026.79         
513n             -252555.79         687259.53         
515n             -251900.62         686724.05         
517n             -251534.50         686220.54         
520n             -250734.29         685757.94         
522n             -250319.14         685513.05         
525n             -248683.75         684220.52         
527n             -248272.83         683939.80         
529n             -247805.50         683725.92         
536n             -255057.09         694062.97         
539n             -254381.89         694942.81         
544n             -253636.64         695586.31         
546n             -252867.66         697259.56         
548n             -253148.06         696678.07         
550n             -253325.78         696131.24         
553n             -252034.78         697914.70         
568n             -250601.61         697426.67         
571n             -253521.10         697575.88         
573n             -253855.19         697067.80         
575n             -254211.55         696467.34         
578n             -252659.02         698617.14         
611w             -249286.24         684567.50         
608w             -254459.60         689350.87         
604w             -256317.68         692639.90         
208w             -258884.49         693792.04         
210w             -260915.62         693777.65         
122a             -263932.73         696308.68         
122c             -263981.03         696211.48         
612n             -251604.46         695913.29         
615n             -253324.70         694444.18         
617n             -253861.69         694636.18         
623n             -251628.73         698786.55         
415a             -250913.10         698484.98         
415c             -250802.75         698567.95         
643n             -260949.16         693477.74         
647n             -255076.00         690648.89         
649n             -255159.86         690259.32         
656n             -254321.45         696292.99         
658n             -253965.67         696019.72         
660n             -253766.04         695759.58         
665n             -250820.66         687554.90         
674n             -249446.78         686254.08         
681n             -247439.08         685543.92         
682n             -247558.54         684964.03         
685n             -246899.30         685130.78         
688n             -252792.12         689527.45         
700n             -254371.29         692002.67         
702n             -262027.72         696765.12         
703n             -262259.31         696428.92         
707n             -263146.75         696980.68         
716n             -263012.00         697382.63         
718n             -263919.89         697688.88         
720n             -263318.04         697073.88         
730n             -262782.26         696736.47         
743n             -257209.23         693438.72         
745n             -257827.87         693481.48         
749n             -258731.63         694116.17         
751n             -260400.99         695639.06         
753n             -260564.23         696739.43         
754n             -260725.77         695998.11         
756n             -260947.90         695081.08         
759n             -266389.06         699698.00         
761n             -254879.58         691440.03         
inlet-mthp       -246803.16         685585.10         
inlet-wood       -247371.36         685854.39         
inlet-birc       -249215.33         687224.37         
inlet-glob       -250669.60         688087.16         
771n             -252738.91         689773.79         
773n             -260372.69         695942.76         
775n             -261916.46         697082.12         
inlet-stew       -261826.05         697446.60         
780n             -262990.69         697463.10         
782n             -263870.30         697940.96         
inlet-herm       -266291.18         699947.40         
792n             -256219.58         693494.54         
794n             -256266.43         693300.66         
796n             -256172.09         692840.74         
inlet-clmb       -254286.37         692495.07         
801n             -263215.87         695347.96         
803n             -263293.88         695115.07         
805N             -255264.14         693224.15         
807n             -254595.15         695044.28         
inlet-nmai       -258321.16         694835.65         
Swift            -245665.75         684919.78         
MtHope           -246846.41         685350.19         
TN5              -246041.86         685576.41         
TN10             -246727.30         685807.17         
TN20             -248034.89         687307.26         
TN15             -247545.20         686453.13         
TN25             -248751.05         687762.72         
BIRCH            -249335.26         686656.80         
TN45             -250129.29         688530.88         
TN35             -249462.08         688151.35         
GLOBE            -250782.00         687791.61         
TN70             -252464.65         690515.38         
TN65             -252105.40         690120.26         
TN60             -251476.62         689675.80         
TN55             -251049.57         689386.71         
TN50             -250489.56         688966.55         
inlet-midd       -252564.74         690605.27         
1000N            -252648.07         690177.38         
MIDDLE           -252625.64         690389.47         
TN90             -254085.23         692385.79         
TN85             -253668.73         691955.97         
TN80             -253251.41         691534.93         
TN75             -252797.96         690968.12         
COLUMBIA         -254305.05         692210.05         
873N             -254191.82         689795.71         
874N             -254243.45         689511.06         
SPRING           -254560.86         693111.25         
TN105            -255116.68         693718.85         
885N             -255708.89         693484.94         
CENTRAL          -255663.50         693562.29         
inlet-elm        -256133.35         693880.89         
TN110            -256079.18         693987.41         
ELM              -256166.70         693645.53         
TN130            -258314.74         694559.12         
TN125            -257735.27         694404.65         
TN120            -257189.75         694272.13         
TN115            -256608.43         694120.29         
NMAIN            -258488.60         694203.49         
TN150            -260105.11         696270.25         
TN145            -259636.70         695811.04         
TN140            -259185.07         695344.65         
TN135            -258759.41         694920.64         
PRESIDENT        -260302.10         696067.54         
TN155            -260466.99         696645.84         
inlet-pres       -260300.07         696138.53         
TN170            -261745.54         697488.19         
TN165            -260965.40         697110.75         
STEWART          -261838.81         697292.26         
TN190            -263571.77         698644.69         
TN180            -262761.20         698082.37         
JONES            -263779.56         698346.89         
LANGLEY          -262814.95         697994.46         
inlet-lang       -262786.47         698072.29         
LANG-DS          -262941.17         697699.05         
inlet-jone       -263730.34         698462.78         
DS-JONES         -263813.76         698196.90         
TN210            -265812.22         700226.96         
TN205            -265128.56         699728.44         
TN200            -264612.38         699372.99         
TN195            -264090.14         699006.80         
HERMAN           -266381.60         699606.26         
HIGHLAND         -268300.37         701942.20         
TN250            -267844.07         701682.22         
TN240            -267348.04         701406.06         
TN230            -266823.70         701113.30         
TN220            -266388.26         700867.98         
TN305            -254444.37         694096.37         
TN300            -254644.30         693627.83         
THIRD            -254665.97         694188.35         
PLEASANT         -254567.42         695023.96         
TN310            -254107.05         694649.75         
TN320            -253742.03         695013.56         
PLY-N            -253632.80         695616.03         
TN325            -253392.12         695377.33         
LOWELL           -252694.19         695774.31         
TN335            -252847.35         695932.46         
QUEQUECHAN       -250960.13         698593.47         
TN360            -250898.16         698556.94         
TN355            -251317.46         697653.22         
TN350            -251688.45         697083.37         
TN345            -252086.03         696685.27         
TN340            -252494.10         696276.16         
1030n            -253057.53         694774.52         
1032             -254523.26         695494.99         
1034N            -254596.71         695191.45         
1036N            -254614.09         695124.90         
1046             -254057.20         689122.07         
1048             -252387.09         695261.82         
1055             -250780.50         698530.18         
1069             -254875.80         696919.45         
1102n            -254846.71         694267.34         
1104             -247419.06         685625.92         
203w             -251202.76         686103.44         
206w             -254688.28         691028.76         
128hb            -266408.13         698910.80         
102n             -249683.85         685985.30         
121ps            -263865.53         696062.94         
1125             -252049.69         695546.68         
1135             -252339.97         695954.23         
1139n            -249643.39         685260.77         
788n             -255946.86         693161.97         
790n             -255931.09         692730.20         
407              -255982.33         692475.33         
1156             -246344.02         683462.92         

[MAP]
DIMENSIONS -268300.37 683133.52 -245665.75 701942.20
Units      None

[REPORT]
SUBCATCHMENTS ALL
NODES ALL
LINKS ALL
