;; SWMM5 .inp converted from XPSWMM .xp file
;; Generated by XPSWMM Card Reader
;; Source format: XP_CARD | Original title: Grande Prairie Master Database

[TITLE]
;;Project Title/Notes
Grande Prairie Master Database

[OPTIONS]
FLOW_UNITS           CMS
INFILTRATION         HORTON
FLOW_ROUTING         DYNWAVE
LINK_OFFSETS         DEPTH
MIN_SLOPE            0.0
ALLOW_PONDING        NO
SKIP_STEADY_STATE    NO
ROUTING_STEP         00:00:30
VARIABLE_STEP        0.75
INERTIAL_DAMPING     PARTIAL
NORMAL_FLOW_LIMITED  BOTH
START_DATE           01/01/2001
START_TIME           00:00:00
REPORT_START_DATE    01/01/2001
REPORT_START_TIME    00:00:00
END_DATE             01/02/2001
END_TIME             00:00:00
SWEEP_START          01/01
SWEEP_END            12/31
DRY_DAYS             0
REPORT_STEP          00:15:00
WET_STEP             00:05:00
DRY_STEP             01:00:00

[JUNCTIONS]
;;Name           Elev       MaxDepth   InitDepth  SurDepth   Aponded
;;-------------- ---------- ---------- ---------- ---------- ----------
N20              0          0          0          0          0
N22              0          0          0          0          0
N23              0          0          0          0          0
N24              0          0          0          0          0
N25              0          0          0          0          0
N26              0          0          0          0          0
N27              0          0          0          0          0
N28              0          0          0          0          0
N29              0          0          0          0          0
N30              0          0          0          0          0
N31              0          0          0          0          0
N32              0          0          0          0          0
N33              0          0          0          0          0
N34              0          0          0          0          0
N35              0          0          0          0          0
Catchment1       0          0          0          0          0
Junction         0          0          0          0          0
Outlet           0          0          0          0          0
Catchment2       0          0          0          0          0
N2               100.00     0          0          0          0
N3               98.50      0          0          0          0
N4               98.00      0          0          0          0
street_1         98.00      0          0          0          0
street2          96.30      0          0          0          0

[OUTFALLS]
;;Name           Elev       Type       Stage      Gated
;;-------------- ---------- ---------- ---------- -----
N21              0          FREE                  NO

[CONDUITS]
;;Name           From             To               Length     Roughness  InOffset   OutOffset  InitFlow   MaxFlow
;;-------------- ---------------- ---------------- ---------- ---------- ---------- ---------- ---------- ----------
232              Catchment1       Junction         150.00     0.0130     0          0          0          0
233              Junction         Outlet           70.00      0.0180     0          0          0          0
237              Catchment2       Junction         150.00     0.0130     0          0          0          0
pipe1            street_1         N3               120.00     0.0130     98.00      96.30      0          0
pipe2            street2          N4               92.00      0.0130     96.30      95.00      0          0

[XSECTIONS]
;;Link           Shape        Geom1      Geom2      Geom3      Geom4      Barrels
;;-------------- ------------ ---------- ---------- ---------- ---------- ----------
232              CIRCULAR     0.38       0          0          0          1
233              TRAPEZOIDAL  1.00       2.00       1          1          1
237              CIRCULAR     0.38       0          0          0          1
pipe1            CIRCULAR     0.05       0          0          0          1
pipe2            CIRCULAR     0.05       0          0          0          1

[LOSSES]
;;Link           Inlet      Outlet     Average    Flap Gate
;;-------------- ---------- ---------- ---------- ----------
232              0          0          0          NO
233              0          0          0          NO
237              0          0          0          NO
pipe1            0          0          0          NO
pipe2            0          0          0          NO

[COORDINATES]
;;Node           X-Coord            Y-Coord
;;-------------- ------------------ ------------------
N20              32.87              105.88            
N21              32.87              107.88            
N22              33.87              105.88            
N23              33.87              107.88            
N24              34.87              105.88            
N25              34.87              107.88            
N26              35.87              105.88            
N27              35.87              107.88            
N28              36.84              105.95            
N29              36.84              107.95            
N30              37.84              105.95            
N31              37.84              107.95            
N32              38.84              105.95            
N33              38.84              107.95            
N34              39.84              105.95            
N35              39.84              107.95            
Catchment1       33.14              115.50            
Junction         35.38              117.34            
Outlet           38.67              117.34            
Catchment2       33.07              119.11            
N2               34.25              126.31            
N3               35.02              132.18            
N4               35.86              138.42            

[MAP]
DIMENSIONS 32.87 105.88 39.84 138.42
Units      None

[REPORT]
SUBCATCHMENTS ALL
NODES ALL
LINKS ALL
