;; SWMM5 .inp converted from XPSWMM .xp file
;; Generated by XPSWMM Card Reader
;; Source format: XP_CARD | Original title: RUNOFF EXAMPLE 26, PARABOLIC CHANNELS, GROUNDWATER

[TITLE]
;;Project Title/Notes
RUNOFF EXAMPLE 26, PARABOLIC CHANNELS, GROUNDWATER

[OPTIONS]
FLOW_UNITS           CFS
INFILTRATION         HORTON
FLOW_ROUTING         DYNWAVE
LINK_OFFSETS         DEPTH
MIN_SLOPE            0.0
ALLOW_PONDING        NO
SKIP_STEADY_STATE    NO
INERTIAL_DAMPING     PARTIAL
NORMAL_FLOW_LIMITED  BOTH
START_DATE           01/01/2001
START_TIME           00:00:00
REPORT_START_DATE    01/01/2001
REPORT_START_TIME    00:00:00
END_DATE             01/02/2001
END_TIME             00:00:00
SWEEP_START          01/01
SWEEP_END            12/31
DRY_DAYS             0
REPORT_STEP          00:15:00
WET_STEP             00:05:00
DRY_STEP             01:00:00

[JUNCTIONS]
;;Name           Elev       MaxDepth   InitDepth  SurDepth   Aponded
;;-------------- ---------- ---------- ---------- ---------- ----------
gw               0          0          0          0          0

[OUTFALLS]
;;Name           Elev       Type       Stage      Gated
;;-------------- ---------- ---------- ---------- -----
end              0          FREE                  NO

[CONDUITS]
;;Name           From             To               Length     Roughness  InOffset   OutOffset  InitFlow   MaxFlow
;;-------------- ---------------- ---------------- ---------- ---------- ---------- ---------- ---------- ----------
channel          gw               end              2000.00    0.0200     0          0          0          0

[XSECTIONS]
;;Link           Shape        Geom1      Geom2      Geom3      Geom4      Barrels
;;-------------- ------------ ---------- ---------- ---------- ---------- ----------
channel          POWER        10.00      20.00      0          0          1

[LOSSES]
;;Link           Inlet      Outlet     Average    Flap Gate
;;-------------- ---------- ---------- ---------- ----------
channel          0          0          0          NO

[COORDINATES]
;;Node           X-Coord            Y-Coord
;;-------------- ------------------ ------------------
end              438.89             14.45             
gw               428.56             39.75             

[MAP]
DIMENSIONS 428.56 14.45 438.89 39.75
Units      None

[REPORT]
SUBCATCHMENTS ALL
NODES ALL
LINKS ALL
