;; SWMM5 .inp converted from XPSWMM .xp file
;; Generated by XPSWMM Card Reader
;; Source format: XP_CARD | Original title: (none)
;; Links parsed from source: 20 | Routable in this .inp: 20

[TITLE]
;;Project Title/Notes
Converted from XPSWMM .xp file

[OPTIONS]
FLOW_UNITS           CMS
INFILTRATION         HORTON
FLOW_ROUTING         DYNWAVE
LINK_OFFSETS         DEPTH
MIN_SLOPE            0.0
ALLOW_PONDING        NO
SKIP_STEADY_STATE    NO
ROUTING_STEP         00:00:10
VARIABLE_STEP        0.75
INERTIAL_DAMPING     PARTIAL
NORMAL_FLOW_LIMITED  BOTH
MAX_TRIALS           100
HEAD_TOLERANCE       .001
START_DATE           01/01/2001
START_TIME           00:00:00
REPORT_START_DATE    01/01/2001
REPORT_START_TIME    00:00:00
END_DATE             01/02/2001
END_TIME             00:00:00
SWEEP_START          01/01
SWEEP_END            12/31
DRY_DAYS             0
REPORT_STEP          00:15:00
WET_STEP             00:05:00
DRY_STEP             01:00:00

[JUNCTIONS]
;;Name           Elev       MaxDepth   InitDepth  SurDepth   Aponded
;;-------------- ---------- ---------- ---------- ---------- ----------
2                2.49       0          0          0          0
3                2.33       0          0          0          0
5                1.86       0          0          0          0
7                1.80       0          0          0          0
9                1.38       0          0          0          0
11               1.10       0          0          0          0
13               1.10       0          0          0          0
16               3.00       0          0          0          0
18               2.02       0          0          0          0
22               2.50       0          0          0          0
24               2.00       0          0          0          0
26               2.00       0          0          0          0
28               1.50       0          0          0          0
30               1.50       0          0          0          0
32               0.60       0          0          0          0
36               2.00       0          0          0          0
38               2.00       0          0          0          0
40               2.00       0          0          0          0
62               2.50       0          0          0          0
64               3.00       0          0          0          0
newsub1          1.00       0          0          0          0

[OUTFALLS]
;;Name           Elev       Type       Stage      Gated
;;-------------- ---------- ---------- ---------- -----
55               0.60       FREE                  NO

[CONDUITS]
;;Name           From             To               Length     Roughness  InOffset   OutOffset  InitFlow   MaxFlow
;;-------------- ---------------- ---------------- ---------- ---------- ---------- ---------- ---------- ----------
4                2                3                115.00     0.0130     0          0          0          0
8                5                7                158.00     0.0130     0          0          0          0
10               7                9                646.00     0.0130     0          0          0          0
12               9                11               432.00     0.0130     0          0          0          0
1-1              22               3                280.00     0.0130     0          0          0          0
2-1              24               5                1050.00    0.0130     0          0          0          0
2-2              26               7                370.00     0.0130     0          0          0          0
2-3              28               9                1520.00    0.0130     0          0          0          0
2-4              30               9                280.00     0.0130     0          0          0          0
33               13               32               270.00     0.0130     0          0          0          0
4-1              36               11               1290.00    0.0130     0          0          0          0
4-3              38               18               590.00     0.0130     0          0          0          0
41               3                40               415.00     0.0130     0          0          0          0
56               32               55               100.00     0.0130     0          0          0          0
60               16               18               531.00     0.0130     0          0          0          0
63               62               2                280.00     0.0130     0          0          0          0
65               64               16               590.00     0.0130     0          0          0          0
69               11               13               143.00     0.0140     0          0          0          0
73               18               13               356.00     0.0130     0          0          0          0

[WEIRS]
;;Name           From             To               Type       CrestHt    Qcoeff     Gated    EndCon   EndCoeff   Surcharge
;;-------------- ---------------- ---------------- ---------- ---------- ---------- -------- -------- ---------- ----------
242.1            40               5                TRANSVERSE -41.26     1.840      NO       0        0          YES

[XSECTIONS]
;;Link           Shape        Geom1      Geom2      Geom3      Geom4      Barrels
;;-------------- ------------ ---------- ---------- ---------- ---------- ----------
4                CIRCULAR     7.00       0          0          0          1
8                CIRCULAR     7.00       0          0          0          1
10               CIRCULAR     7.00       0          0          0          1
12               CIRCULAR     7.00       0          0          0          1
1-1              CIRCULAR     7.00       0          0          0          1
2-1              CIRCULAR     3.00       0          0          0          1
2-2              CIRCULAR     2.60       0          0          0          1
2-3              CIRCULAR     3.25       0          0          0          1
2-4              CIRCULAR     2.40       0          0          0          1
33               CIRCULAR     7.00       0          0          0          1
4-1              CIRCULAR     2.60       0          0          0          1
4-3              CIRCULAR     2.80       0          0          0          1
41               CIRCULAR     7.00       0          0          0          1
56               CIRCULAR     10.00      0          0          0          1
60               CIRCULAR     7.00       0          0          0          1
63               CIRCULAR     2.00       0          0          0          1
65               CIRCULAR     2.80       0          0          0          1
69               CIRCULAR     7.00       0          0          0          1
73               CIRCULAR     7.00       0          0          0          1
242.1            RECT_OPEN    1.00       10.00      0          0

[LOSSES]
;;Link           Inlet      Outlet     Average    Flap Gate
;;-------------- ---------- ---------- ---------- ----------
4                0          0          0          NO
8                0          0          0          NO
10               0          0          0          NO
12               0          0          0          NO
1-1              0          0          0          NO
2-1              0          0          0          NO
2-2              0          0          0          NO
2-3              0          0          0          NO
2-4              0          0          0          NO
33               0          0          0          NO
4-1              0          0          0          NO
4-3              0          0          0          NO
41               0          0          0          NO
56               0          0          0          NO
60               0          0          0          NO
63               0          0          0          NO
65               0          0          0          NO
69               0          0          0          NO
73               0          0          0          NO

[INFLOWS]
;;Node           Constituent  Time Series      Type     Mfactor  Sfactor  Baseline Pattern
;;-------------- ------------ ---------------- -------- -------- -------- -------- --------
;; SYNTHETIC TEST INFLOWS — the source .xp carried no constant inflows
;; and RUNF hydrology is not converted; 0.03 CMS is applied at each
;; headwater node so the network runs wet for QA. Replace with real
;; hydrology or inflow hydrographs before using results.
22               FLOW         ""               FLOW     1.0      1.0      0.03
24               FLOW         ""               FLOW     1.0      1.0      0.03
26               FLOW         ""               FLOW     1.0      1.0      0.03
28               FLOW         ""               FLOW     1.0      1.0      0.03
30               FLOW         ""               FLOW     1.0      1.0      0.03
36               FLOW         ""               FLOW     1.0      1.0      0.03
38               FLOW         ""               FLOW     1.0      1.0      0.03
62               FLOW         ""               FLOW     1.0      1.0      0.03
64               FLOW         ""               FLOW     1.0      1.0      0.03

[COORDINATES]
;;Node           X-Coord            Y-Coord
;;-------------- ------------------ ------------------
2                25.61              33.80             
3                39.13              44.25             
5                54.47              64.28             
7                65.28              66.70             
9                81.98              108.33            
11               82.93              129.17            
13               83.84              147.51            
16               90.89              202.17            
18               82.89              174.45            
22               19.90              67.83             
24               22.25              88.30             
26               67.54              36.50             
28               24.61              107.85            
30               111.47             105.32            
32               101.40             141.28            
36               21.60              125.74            
38               39.12              177.37            
40               48.07              55.04             
55               126.60             141.00            
62               15.98              48.19             
64               51.70              202.67            
newsub1          92.11              72.46             

[MAP]
DIMENSIONS 15.98 33.80 126.60 202.67
Units      None

[REPORT]
SUBCATCHMENTS ALL
NODES ALL
LINKS ALL
