;; SWMM5 .inp converted from XPSWMM .xp file
;; Generated by XPSWMM Card Reader
;; Source format: XP_CARD | Original title: (none)
;; Links parsed from source: 35 | Routable in this .inp: 35

[TITLE]
;;Project Title/Notes
Converted from XPSWMM .xp file

[OPTIONS]
FLOW_UNITS           CFS
INFILTRATION         HORTON
FLOW_ROUTING         DYNWAVE
LINK_OFFSETS         DEPTH
MIN_SLOPE            0.0
ALLOW_PONDING        NO
SKIP_STEADY_STATE    NO
ROUTING_STEP         00:01:00
VARIABLE_STEP        0.75
INERTIAL_DAMPING     PARTIAL
NORMAL_FLOW_LIMITED  BOTH
START_DATE           01/01/2001
START_TIME           00:00:00
REPORT_START_DATE    01/01/2001
REPORT_START_TIME    00:00:00
END_DATE             01/02/2001
END_TIME             00:00:00
SWEEP_START          01/01
SWEEP_END            12/31
DRY_DAYS             0
REPORT_STEP          00:15:00
WET_STEP             00:05:00
DRY_STEP             01:00:00

[JUNCTIONS]
;;Name           Elev       MaxDepth   InitDepth  SurDepth   Aponded
;;-------------- ---------- ---------- ---------- ---------- ----------
Node0            7.18       0          0          0          0
Node1            80.14      0          0          0          0
Node2            80.36      0          0          0          0
Node3            80.11      0          0          0          0
Node4            81.61      0          0          0          0
Node5            81.00      0          0          0          0
Node6            80.68      0          0          0          0
Node7            80.31      0          0          0          0
Node8            80.24      0          0          0          0
Node9            80.62      0          0          0          0
Node10           80.02      0          0          0          0
Node11           80.22      0          0          0          0
Node12           81.71      0          0          0          0
Node13           82.48      0          0          0          0
Node14           79.74      0          0          0          0
Node15           81.76      0          0          0          0
Node16           81.76      0          0          0          0
Node17           81.37      0          0          0          0
Node18           80.52      0          0          0          0
Node19           76.62      0          0          0          0
Node20           72.73      0          0          0          0
Node21           73.37      0          0          0          0
Node22           72.81      0          0          0          0
Node23           69.97      0          0          0          0
Node24           66.64      0          0          0          0
Node25           66.98      0          0          0          0
Node26           66.85      0          0          0          0
Node27           66.45      0          0          0          0
Node28           65.00      0          0          0          0
Node29           64.41      0          0          0          0
Node30           65.65      0          0          0          0
Node13.1         82.26      0          0          0          0
Node34           85.80      0          0          0          0
Node35           85.24      0          0          0          0
Node36           85.47      0          0          0          0

[OUTFALLS]
;;Name           Elev       Type       Stage      Gated
;;-------------- ---------- ---------- ---------- -----
Node31           61.00      FREE                  NO

[CONDUITS]
;;Name           From             To               Length     Roughness  InOffset   OutOffset  InitFlow   MaxFlow
;;-------------- ---------------- ---------------- ---------- ---------- ---------- ---------- ---------- ----------
201              Node0            Node1            371.00     0.0130     0          72.96      0          0
202              Node1            Node2            371.00     0.0130     72.96      71.47      0          0
203              Node2            Node3            95.00      0.0130     71.47      71.09      0          0
204              Node3            Node4            234.00     0.0130     71.09      72.59      0          0
205              Node4            Node5            175.00     0.0130     72.59      72.17      0          0
206              Node5            Node6            875.00     0.0130     72.17      70.08      0          0
207              Node6            Node7            871.00     0.0130     70.08      69.47      0          0
208              Node7            Node8            105.00     0.0130     69.47      69.40      0          0
209              Node8            Node9            24.00      0.0130     69.40      70.31      0          0
210              Node9            Node10           105.00     0.0130     70.31      70.03      0          0
211              Node10           Node11           494.00     0.0130     70.03      68.74      0          0
212              Node11           Node12           1230.00    0.0130     68.74      68.64      0          0
213              Node12           Node13           617.00     0.0130     68.64      65.81      0          0
214              Node13           Node13.1         834.00     0.0140     65.81      61.46      0          0
215              Node14           Node15           100.00     0.0130     61.02      60.50      0          0
216              Node15           Node16           61.00      0.0130     60.50      60.50      0          0
217              Node16           Node17           102.00     0.0130     60.50      60.11      0          0
218              Node17           Node18           465.00     0.0130     60.11      58.32      0          0
219              Node18           Node19           862.00     0.0130     58.32      54.42      0          0
220              Node19           Node20           108.00     0.0130     54.42      53.93      0          0
221              Node20           Node21           61.00      0.0130     53.93      53.77      0          0
222              Node21           Node22           102.00     0.0130     53.77      53.21      0          0
223              Node22           Node23           124.00     0.0130     53.21      52.54      0          0
224              Node23           Node24           133.00     0.0130     52.54      51.09      0          0
225              Node24           Node25           133.00     0.0130     51.09      49.64      0          0
226              Node25           Node26           133.00     0.0130     49.64      48.20      0          0
227              Node26           Node27           133.00     0.0130     48.20      46.75      0          0
228              Node27           Node28           133.00     0.0130     46.75      45.30      0          0
229              Node28           Node29           126.00     0.0130     45.30      44.96      0          0
230              Node29           Node30           33.00      0.0130     44.96      45.19      0          0
231              Node30           Node31           130.37     0.0130     43.59      40.10      0          0
264              Node13.1         Node14           85.00      0.0130     61.46      61.02      0          0
266              Node34           Node35           372.52     0.0130     65.80      65.24      0          0
267              Node35           Node36           42.73      0.0140     65.24      65.47      0          0
269              Node36           Node13.1         524.06     0.0130     65.47      62.26      0          0

[XSECTIONS]
;;Link           Shape        Geom1      Geom2      Geom3      Geom4      Barrels
;;-------------- ------------ ---------- ---------- ---------- ---------- ----------
201              TRAPEZOIDAL  1.00       10.00      2          2          1
202              TRAPEZOIDAL  1.00       10.00      2          2          1
203              TRAPEZOIDAL  1.00       10.00      2          2          1
204              TRAPEZOIDAL  1.00       10.00      2          2          1
205              TRAPEZOIDAL  1.00       10.00      2          2          1
206              TRAPEZOIDAL  1.00       10.00      2          2          1
207              TRAPEZOIDAL  1.00       10.00      2          2          1
208              TRAPEZOIDAL  1.00       10.00      2          2          1
209              TRAPEZOIDAL  1.00       10.00      2          2          1
210              TRAPEZOIDAL  1.00       10.00      2          2          1
211              TRAPEZOIDAL  1.00       10.00      2          2          1
212              TRAPEZOIDAL  1.00       10.00      2          2          1
213              TRAPEZOIDAL  1.00       10.00      2          2          1
214              TRAPEZOIDAL  1.00       10.00      2          2          1
215              TRAPEZOIDAL  1.00       10.00      2          2          1
216              TRAPEZOIDAL  1.00       10.00      2          2          1
217              TRAPEZOIDAL  1.00       10.00      2          2          1
218              TRAPEZOIDAL  1.00       10.00      2          2          1
219              TRAPEZOIDAL  1.00       10.00      2          2          1
220              TRAPEZOIDAL  1.00       10.00      2          2          1
221              TRAPEZOIDAL  1.00       10.00      2          2          1
222              TRAPEZOIDAL  1.00       10.00      2          2          1
223              TRAPEZOIDAL  1.00       10.00      2          2          1
224              TRAPEZOIDAL  1.00       10.00      2          2          1
225              TRAPEZOIDAL  1.00       10.00      2          2          1
226              TRAPEZOIDAL  1.00       10.00      2          2          1
227              TRAPEZOIDAL  1.00       10.00      2          2          1
228              TRAPEZOIDAL  1.00       10.00      2          2          1
229              TRAPEZOIDAL  1.00       10.00      2          2          1
230              TRAPEZOIDAL  1.00       10.00      2          2          1
231              TRAPEZOIDAL  1.00       10.00      2          2          1
264              TRAPEZOIDAL  1.00       10.00      2          2          1
266              TRAPEZOIDAL  1.00       10.00      2          2          1
267              RECT_CLOSED  5.00       5.00       0          0          1
269              TRAPEZOIDAL  1.00       10.00      2          2          1

[LOSSES]
;;Link           Inlet      Outlet     Average    Flap Gate
;;-------------- ---------- ---------- ---------- ----------
201              0          0          0          NO
202              0          0          0          NO
203              0          0          0          NO
204              0          0          0          NO
205              0          0          0          NO
206              0          0          0          NO
207              0          0          0          NO
208              0          0          0          NO
209              0          0          0          NO
210              0          0          0          NO
211              0          0          0          NO
212              0          0          0          NO
213              0          0          0          NO
214              0          0          0          NO
215              0          0          0          NO
216              0          0          0          NO
217              0          0          0          NO
218              0          0          0          NO
219              0          0          0          NO
220              0          0          0          NO
221              0          0          0          NO
222              0          0          0          NO
223              0          0          0          NO
224              0          0          0          NO
225              0          0          0          NO
226              0          0          0          NO
227              0          0          0          NO
228              0          0          0          NO
229              0          0          0          NO
230              0          0          0          NO
231              0          0          0          NO
264              0          0          0          NO
266              0          0          0          NO
267              0          0          0          NO
269              0          0          0          NO

[INFLOWS]
;;Node           Constituent  Time Series      Type     Mfactor  Sfactor  Baseline Pattern
;;-------------- ------------ ---------------- -------- -------- -------- -------- --------
;; SYNTHETIC TEST INFLOWS — the source .xp carried no constant inflows
;; and RUNF hydrology is not converted; 1.00 CFS is applied at each
;; headwater node so the network runs wet for QA. Replace with real
;; hydrology or inflow hydrographs before using results.
Node0            FLOW         ""               FLOW     1.0      1.0      1.00
Node34           FLOW         ""               FLOW     1.0      1.0      1.00

[COORDINATES]
;;Node           X-Coord            Y-Coord
;;-------------- ------------------ ------------------
Node0            -13869835.01       3100418.83        
Node1            -13869814.34       3100418.88        
Node2            -13869447.09       3100401.11        
Node3            -13869357.13       3100371.53        
Node4            -13869164.24       3100258.51        
Node5            -13869156.14       3100082.77        
Node6            -13869131.97       3099207.88        
Node7            -13869102.43       3098338.48        
Node8            -13869097.22       3098233.18        
Node9            -13869095.34       3098209.18        
Node10           -13869094.34       3098104.42        
Node11           -13869082.81       3097611.97        
Node12           -13869040.29       3096383.63        
Node13           -13869016.19       3095767.47        
Node14           -13868991.60       3094847.94        
Node15           -13868988.91       3094749.11        
Node16           -13868985.93       3094687.54        
Node17           -13868977.87       3094586.41        
Node18           -13868963.50       3094122.23        
Node19           -13868933.76       3093262.84        
Node20           -13868926.53       3093161.62        
Node21           -13868923.87       3093087.74        
Node22           -13868920.31       3092992.36        
Node23           -13868921.38       3092869.29        
Node24           -13868921.55       3092744.61        
Node25           -13868913.86       3092617.91        
Node26           -13868907.22       3092487.34        
Node27           -13868878.88       3092352.30        
Node28           -13868765.10       3092290.76        
Node29           -13868673.48       3092207.38        
Node30           -13868651.08       3092183.38        
Node31           -13868574.90       3092077.60        
Node13.1         -13868992.06       3094939.77        
Node34           -13869912.13       3094908.27        
Node35           -13869545.93       3094918.41        
Node36           -13869503.23       3094920.04        

[MAP]
DIMENSIONS -13869912.13 3092077.60 -13868574.90 3100418.88
Units      None

[REPORT]
SUBCATCHMENTS ALL
NODES ALL
LINKS ALL
