;; SWMM5 .inp converted from XPSWMM .xp file
;; Generated by XPSWMM Card Reader
;; Source format: XP_CARD | Original title: (none)
;; Links parsed from source: 31 | Routable in this .inp: 31

[TITLE]
;;Project Title/Notes
Converted from XPSWMM .xp file

[OPTIONS]
FLOW_UNITS           CMS
INFILTRATION         HORTON
FLOW_ROUTING         DYNWAVE
LINK_OFFSETS         DEPTH
MIN_SLOPE            0.0
ALLOW_PONDING        NO
SKIP_STEADY_STATE    NO
INERTIAL_DAMPING     PARTIAL
NORMAL_FLOW_LIMITED  BOTH
START_DATE           01/01/2001
START_TIME           00:00:00
REPORT_START_DATE    01/01/2001
REPORT_START_TIME    00:00:00
END_DATE             01/02/2001
END_TIME             00:00:00
SWEEP_START          01/01
SWEEP_END            12/31
DRY_DAYS             0
REPORT_STEP          00:15:00
WET_STEP             00:05:00
DRY_STEP             01:00:00

[JUNCTIONS]
;;Name           Elev       MaxDepth   InitDepth  SurDepth   Aponded
;;-------------- ---------- ---------- ---------- ---------- ----------
Node0            7.18       0          0          0          0
Node1            80.14      0          0          0          0
Node2            80.36      0          0          0          0
Node3            80.11      0          0          0          0
Node4            81.61      0          0          0          0
Node5            81.00      0          0          0          0
Node6            80.68      0          0          0          0
Node7            80.31      0          0          0          0
Node8            80.24      0          0          0          0
Node9            80.62      0          0          0          0
Node10           80.02      0          0          0          0
Node11           80.22      0          0          0          0
Node12           81.71      0          0          0          0
Node13           82.48      0          0          0          0
Node14           79.74      0          0          0          0
Node15           81.76      0          0          0          0
Node16           81.76      0          0          0          0
Node17           81.37      0          0          0          0
Node18           80.52      0          0          0          0
Node19           76.62      0          0          0          0
Node20           72.73      0          0          0          0
Node21           73.37      0          0          0          0
Node22           72.81      0          0          0          0
Node23           69.97      0          0          0          0
Node24           66.64      0          0          0          0
Node25           66.98      0          0          0          0
Node26           66.85      0          0          0          0
Node27           66.45      0          0          0          0
Node28           65.00      0          0          0          0
Node29           64.41      0          0          0          0
Node30           65.65      0          0          0          0

[OUTFALLS]
;;Name           Elev       Type       Stage      Gated
;;-------------- ---------- ---------- ---------- -----
Node31           20.46      FREE                  NO

[CONDUITS]
;;Name           From             To               Length     Roughness  InOffset   OutOffset  InitFlow   MaxFlow
;;-------------- ---------------- ---------------- ---------- ---------- ---------- ---------- ---------- ----------
201              Node0            Node1            20.67      0.0130     79.23      79.24      0          0
202              Node1            Node2            371.00     0.0130     72.96      71.47      0          0
203              Node2            Node3            95.00      0.0130     71.47      71.09      0          0
204              Node3            Node4            234.00     0.0130     71.09      72.59      0          0
205              Node4            Node5            175.00     0.0130     72.59      72.17      0          0
206              Node5            Node6            875.00     0.0130     72.17      70.08      0          0
207              Node6            Node7            871.00     0.0130     70.08      69.47      0          0
208              Node7            Node8            105.00     0.0130     69.47      69.40      0          0
209              Node8            Node9            24.00      0.0130     69.40      70.31      0          0
210              Node9            Node10           105.00     0.0130     70.31      70.03      0          0
211              Node10           Node11           494.00     0.0130     70.03      68.74      0          0
212              Node11           Node12           1230.00    0.0130     68.74      68.64      0          0
213              Node12           Node13           617.00     0.0130     68.64      65.81      0          0
214              Node13           Node14           919.00     0.0130     65.81      61.02      0          0
215              Node14           Node15           100.00     0.0130     61.02      60.50      0          0
216              Node15           Node16           61.00      0.0130     60.50      60.50      0          0
217              Node16           Node17           102.00     0.0130     60.50      60.11      0          0
218              Node17           Node18           465.00     0.0130     60.11      58.32      0          0
219              Node18           Node19           862.00     0.0130     58.32      54.42      0          0
220              Node19           Node20           108.00     0.0130     54.42      53.93      0          0
221              Node20           Node21           61.00      0.0130     53.93      53.77      0          0
222              Node21           Node22           102.00     0.0130     53.77      53.21      0          0
223              Node22           Node23           124.00     0.0130     53.21      52.54      0          0
224              Node23           Node24           133.00     0.0130     52.54      51.09      0          0
225              Node24           Node25           133.00     0.0130     51.09      49.64      0          0
226              Node25           Node26           133.00     0.0130     49.64      48.20      0          0
227              Node26           Node27           133.00     0.0130     48.20      46.75      0          0
228              Node27           Node28           133.00     0.0130     46.75      45.30      0          0
229              Node28           Node29           126.00     0.0130     45.30      44.96      0          0
230              Node29           Node30           33.00      0.0130     44.96      45.19      0          0
231              Node30           Node31           130.37     0.0130     50.54      40.34      0          0

[XSECTIONS]
;;Link           Shape        Geom1      Geom2      Geom3      Geom4      Barrels
;;-------------- ------------ ---------- ---------- ---------- ---------- ----------
201              TRAPEZOIDAL  1.00       10.00      2          2          1
202              TRAPEZOIDAL  1.00       10.00      2          2          1
203              TRAPEZOIDAL  1.00       10.00      2          2          1
204              TRAPEZOIDAL  1.00       10.00      2          2          1
205              TRAPEZOIDAL  1.00       10.00      2          2          1
206              TRAPEZOIDAL  1.00       10.00      2          2          1
207              TRAPEZOIDAL  1.00       10.00      2          2          1
208              TRAPEZOIDAL  1.00       10.00      2          2          1
209              TRAPEZOIDAL  1.00       10.00      2          2          1
210              TRAPEZOIDAL  1.00       10.00      2          2          1
211              TRAPEZOIDAL  1.00       10.00      2          2          1
212              TRAPEZOIDAL  1.00       10.00      2          2          1
213              TRAPEZOIDAL  1.00       10.00      2          2          1
214              TRAPEZOIDAL  1.00       10.00      2          2          1
215              TRAPEZOIDAL  1.00       10.00      2          2          1
216              TRAPEZOIDAL  1.00       10.00      2          2          1
217              TRAPEZOIDAL  1.00       10.00      2          2          1
218              TRAPEZOIDAL  1.00       10.00      2          2          1
219              TRAPEZOIDAL  1.00       10.00      2          2          1
220              TRAPEZOIDAL  1.00       10.00      2          2          1
221              TRAPEZOIDAL  1.00       10.00      2          2          1
222              TRAPEZOIDAL  1.00       10.00      2          2          1
223              TRAPEZOIDAL  1.00       10.00      2          2          1
224              TRAPEZOIDAL  1.00       10.00      2          2          1
225              TRAPEZOIDAL  1.00       10.00      2          2          1
226              TRAPEZOIDAL  1.00       10.00      2          2          1
227              TRAPEZOIDAL  1.00       10.00      2          2          1
228              TRAPEZOIDAL  1.00       10.00      2          2          1
229              TRAPEZOIDAL  1.00       10.00      2          2          1
230              TRAPEZOIDAL  1.00       10.00      2          2          1
231              TRAPEZOIDAL  1.00       10.00      2          2          1

[LOSSES]
;;Link           Inlet      Outlet     Average    Flap Gate
;;-------------- ---------- ---------- ---------- ----------
201              0          0          0          NO
202              0          0          0          NO
203              0          0          0          NO
204              0          0          0          NO
205              0          0          0          NO
206              0          0          0          NO
207              0          0          0          NO
208              0          0          0          NO
209              0          0          0          NO
210              0          0          0          NO
211              0          0          0          NO
212              0          0          0          NO
213              0          0          0          NO
214              0          0          0          NO
215              0          0          0          NO
216              0          0          0          NO
217              0          0          0          NO
218              0          0          0          NO
219              0          0          0          NO
220              0          0          0          NO
221              0          0          0          NO
222              0          0          0          NO
223              0          0          0          NO
224              0          0          0          NO
225              0          0          0          NO
226              0          0          0          NO
227              0          0          0          NO
228              0          0          0          NO
229              0          0          0          NO
230              0          0          0          NO
231              0          0          0          NO

[INFLOWS]
;;Node           Constituent  Time Series      Type     Mfactor  Sfactor  Baseline Pattern
;;-------------- ------------ ---------------- -------- -------- -------- -------- --------
;; SYNTHETIC TEST INFLOWS — the source .xp carried no constant inflows
;; and RUNF hydrology is not converted; 0.03 CMS is applied at each
;; headwater node so the network runs wet for QA. Replace with real
;; hydrology or inflow hydrographs before using results.
Node0            FLOW         ""               FLOW     1.0      1.0      0.03

[COORDINATES]
;;Node           X-Coord            Y-Coord
;;-------------- ------------------ ------------------
Node0            -13869835.10       3100418.73        
Node1            -13869814.43       3100418.79        
Node2            -13869447.19       3100401.01        
Node3            -13869357.23       3100371.43        
Node4            -13869164.33       3100258.41        
Node5            -13869156.24       3100082.67        
Node6            -13869132.06       3099207.78        
Node7            -13869102.53       3098338.38        
Node8            -13869097.32       3098233.09        
Node9            -13869095.44       3098209.08        
Node10           -13869094.44       3098104.33        
Node11           -13869082.91       3097611.87        
Node12           -13869040.38       3096383.53        
Node13           -13869016.29       3095767.38        
Node14           -13868991.69       3094847.84        
Node15           -13868989.01       3094749.02        
Node16           -13868986.03       3094687.45        
Node17           -13868977.96       3094586.31        
Node18           -13868963.60       3094122.13        
Node19           -13868933.85       3093262.75        
Node20           -13868926.62       3093161.52        
Node21           -13868923.96       3093087.64        
Node22           -13868920.41       3092992.27        
Node23           -13868921.48       3092869.19        
Node24           -13868921.64       3092744.51        
Node25           -13868913.96       3092617.82        
Node26           -13868907.32       3092487.24        
Node27           -13868878.98       3092352.20        
Node28           -13868765.20       3092290.67        
Node29           -13868673.57       3092207.29        
Node30           -13868651.17       3092183.29        
Node31           -13868575.00       3092077.50        

[MAP]
DIMENSIONS -13869835.10 3092077.50 -13868575.00 3100418.79
Units      None

[REPORT]
SUBCATCHMENTS ALL
NODES ALL
LINKS ALL
