;; SWMM5 .inp converted from XPSWMM .xp file
;; Generated by XPSWMM Card Reader
;; Source format: XP_CARD | Original title: SCS PROJECT FOR HERRING CREST SUBDIVISION

[TITLE]
;;Project Title/Notes
SCS PROJECT FOR HERRING CREST SUBDIVISION

[OPTIONS]
FLOW_UNITS           CFS
INFILTRATION         HORTON
FLOW_ROUTING         DYNWAVE
LINK_OFFSETS         DEPTH
MIN_SLOPE            0.0
ALLOW_PONDING        NO
SKIP_STEADY_STATE    NO
ROUTING_STEP         00:00:04
VARIABLE_STEP        0.75
INERTIAL_DAMPING     PARTIAL
NORMAL_FLOW_LIMITED  BOTH
MAX_TRIALS           50
HEAD_TOLERANCE       0.0033
START_DATE           01/01/2001
START_TIME           00:00:00
REPORT_START_DATE    01/01/2001
REPORT_START_TIME    00:00:00
END_DATE             01/02/2001
END_TIME             00:00:00
SWEEP_START          01/01
SWEEP_END            12/31
DRY_DAYS             0
REPORT_STEP          00:15:00
WET_STEP             00:05:00
DRY_STEP             01:00:00

[JUNCTIONS]
;;Name           Elev       MaxDepth   InitDepth  SurDepth   Aponded
;;-------------- ---------- ---------- ---------- ---------- ----------
I1               14.00      0          0          0          0
I2               14.00      0          0          0          0
M1               13.70      0          0          0          0
M2               14.00      0          0          0          0
I3               13.80      0          0          0          0
POND1            13.75      0          0          0          0
POND2            13.75      0          0          0          0
M4               13.75      0          0          0          0
I7               13.75      0          0          0          0
I8               14.00      0          0          0          0
I4               13.90      0          0          0          0
M6               14.00      0          0          0          0
M3               13.75      0          0          0          0
I5               14.00      0          0          0          0
I6               13.75      0          0          0          0
M5               13.75      0          0          0          0
M8               13.75      0          0          0          0
M7               13.80      0          0          0          0
I9               13.80      0          0          0          0
POND4            14.00      0          0          0          0
M9               14.00      0          0          0          0
I10              14.00      0          0          0          0
M10              12.20      0          0          0          0
80               14.00      0          0          0          0
POND             14.00      0          0          0          0
I24              17.20      0          0          0          0
I25              16.80      0          0          0          0
I29              17.00      0          0          0          0
POND_2           18.20      0          0          0          0
I26              15.00      0          0          0          0
I28              15.00      0          0          0          0
I27              18.00      0          0          0          0
I31              16.00      0          0          0          0
I32              15.60      0          0          0          0
WET              16.50      0          0          0          0
I30              20.40      0          0          0          0
105              14.00      0          0          0          0
storage2         1.00       0          0          0          0
newsub1          1.00       0          0          0          0

[OUTFALLS]
;;Name           Elev       Type       Stage      Gated
;;-------------- ---------- ---------- ---------- -----
OUTFALL          12.40      FREE                  NO

[CONDUITS]
;;Name           From             To               Length     Roughness  InOffset   OutOffset  InitFlow   MaxFlow
;;-------------- ---------------- ---------------- ---------- ---------- ---------- ---------- ---------- ----------
201              I1               I2               250.00     0.0140     10.60      10.00      0          0
202              I2               M1               200.00     0.0140     10.00      9.50       0          0
206              M2               I3               90.00      0.0140     10.60      10.20      0          0
207              I3               M1               250.00     0.0140     10.20      9.50       0          0
204              M1               POND1            109.00     0.0140     9.50       9.25       0          0
210              POND1            POND2            120.00     0.0140     9.25       9.25       0          0
214              M4               M5               216.00     0.0140     6.77       6.23       0          0
216              I7               M8               40.00      0.0140     5.68       5.58       0          0
282              POND             I8               40.00      0.0140     10.00      9.40       0          0
222              I4               M4               340.00     0.0140     8.00       6.77       0          0
280              80               M3               620.00     0.0140     9.25       7.25       0          0
239              M3               M4               150.00     0.0140     7.25       6.99       0          0
242              I5               I6               292.00     0.0140     11.77      11.04      0          0
224              M6               M7               133.00     0.0140     11.67      11.34      0          0
243              I6               I7               240.00     0.0140     10.84      10.24      0          0
255              M5               I7               60.00      0.0140     6.03       5.88       0          0
257              M8               POND             130.00     0.0140     5.38       5.05       0          0
260              M7               I6               40.00      0.0140     11.14      11.04      0          0
220              I8               I9               120.00     0.0140     8.40       8.10       0          0
264              I9               POND4            196.00     0.0140     7.90       7.41       0          0
305              105              M9               25.00      0.0140     9.25       9.00       0          0
268              M9               M10              380.00     0.0350     8.20       7.90       0          0
276              I10              M10              50.00      0.0140     8.00       7.75       0          0
277              M10              OUTFALL          60.00      0.0350     7.60       7.60       0          0
283              I24              I25              800.00     0.0140     14.00      8.70       0          0
284              I25              I29              700.00     0.0140     8.71       6.20       0          0
286              I29              POND             150.00     0.0140     6.20       6.00       0          0
288              POND             POND             220.00     0.0140     12.50      10.30      0          0
291              I26              I28              420.00     0.0140     10.00      9.60       0          0
292              I28              I29              460.00     0.0140     9.60       6.20       0          0
295              I27              I28              500.00     0.0140     13.50      9.60       0          0
297              I31              I32              400.00     0.0140     14.00      13.60      0          0
298              I32              WET              400.00     0.0140     13.60      13.20      0          0
300              WET              POND             270.00     0.0140     12.00      9.30       0          0
303              I30              POND             1290.00    0.0140     18.40      16.20      0          0

[WEIRS]
;;Name           From             To               Type       CrestHt    Qcoeff     Gated    EndCon   EndCoeff   Surcharge
;;-------------- ---------------- ---------------- ---------- ---------- ---------- -------- -------- ---------- ----------
212              POND2            80               TRANSVERSE 10.50      1.840      NO       0        0          YES
266              POND4            105              TRANSVERSE 10.50      1.840      NO       0        0          YES

[XSECTIONS]
;;Link           Shape        Geom1      Geom2      Geom3      Geom4      Barrels
;;-------------- ------------ ---------- ---------- ---------- ---------- ----------
201              CIRCULAR     1.50       0          0          0          1
202              CIRCULAR     1.50       0          0          0          1
206              CIRCULAR     1.50       0          0          0          1
207              CIRCULAR     1.50       0          0          0          1
204              CIRCULAR     2.00       0          0          0          1
210              CIRCULAR     2.00       0          0          0          1
214              CIRCULAR     2.50       0          0          0          1
216              CIRCULAR     3.50       0          0          0          1
282              CIRCULAR     3.00       0          0          0          1
222              CIRCULAR     2.50       0          0          0          1
280              CIRCULAR     2.00       0          0          0          1
239              CIRCULAR     2.50       0          0          0          1
242              CIRCULAR     1.50       0          0          0          1
224              CIRCULAR     1.50       0          0          0          1
243              CIRCULAR     2.00       0          0          0          1
255              CIRCULAR     3.00       0          0          0          1
257              CIRCULAR     3.50       0          0          0          1
260              CIRCULAR     1.50       0          0          0          1
220              CIRCULAR     3.50       0          0          0          1
264              CIRCULAR     3.50       0          0          0          1
305              CIRCULAR     3.50       0          0          0          1
268              TRAPEZOIDAL  4.00       7.80       1          1          1
276              CIRCULAR     3.00       0          0          0          1
277              TRAPEZOIDAL  4.00       5.27       1          1          1
283              CIRCULAR     3.00       0          0          0          1
284              CIRCULAR     3.00       0          0          0          1
286              CIRCULAR     4.00       0          0          0          1
288              CIRCULAR     2.00       0          0          0          1
291              CIRCULAR     2.00       0          0          0          1
292              CIRCULAR     3.00       0          0          0          1
295              CIRCULAR     3.00       0          0          0          1
297              TRAPEZOIDAL  2.00       2.00       1          1          1
298              TRAPEZOIDAL  2.00       2.00       1          1          1
300              CIRCULAR     3.00       0          0          0          1
303              TRAPEZOIDAL  2.00       2.00       1          1          1
212              RECT_OPEN    1.00       2.00       0          0
266              RECT_OPEN    1.00       2.00       0          0

[LOSSES]
;;Link           Inlet      Outlet     Average    Flap Gate
;;-------------- ---------- ---------- ---------- ----------
201              0          0          0          NO
202              0          0          0          NO
206              0          0          0          NO
207              0          0          0          NO
204              0          0          0          NO
210              0          0          0          NO
214              0          0          0          NO
216              0          0          0          NO
282              0          0          0          NO
222              0          0          0          NO
280              0          0          0          NO
239              0          0          0          NO
242              0          0          0          NO
224              0          0          0          NO
243              0          0          0          NO
255              0          0          0          NO
257              0          0          0          NO
260              0          0          0          NO
220              0          0          0          NO
264              0          0          0          NO
305              0          0          0          NO
268              0          0          0          NO
276              0          0          0          NO
277              0          0          0          NO
283              0          0          0          NO
284              0          0          0          NO
286              0          0          0          NO
288              0          0          0          NO
291              0          0          0          NO
292              0          0          0          NO
295              0          0          0          NO
297              0          0          0          NO
298              0          0          0          NO
300              0          0          0          NO
303              0          0          0          NO

[COORDINATES]
;;Node           X-Coord            Y-Coord
;;-------------- ------------------ ------------------
I1               25.15              96.36             
I2               58.84              86.53             
M1               81.13              89.28             
M2               113.86             138.44            
I3               113.39             87.71             
POND1            80.18              55.46             
POND2            77.81              18.49             
M4               152.50             17.61             
I7               152.76             74.73             
I8               207.32             58.60             
I4               143.28             -29.50            
M6               108.17             66.47             
M3               124.30             30.28             
I5               138.06             96.75             
I6               136.64             73.55             
M5               152.91             51.87             
M8               172.23             73.94             
M7               123.84             70.80             
I9               210.65             27.93             
POND4            201.46             -8.67             
M9               228.57             -66.46            
OUTFALL          170.12             -85.91            
I10              170.81             -24.27            
M10              196.66             -75.52            
80               99.01              23.99             
POND             201.37             100.21            
I24              272.20             179.34            
I25              272.20             133.28            
I29              253.01             110.91            
POND_2           225.87             92.47             
I26              251.81             169.15            
I28              225.40             150.03            
I27              225.49             209.56            
I31              262.15             240.39            
I32              206.30             237.28            
WET              198.80             163.20            
I30              273.85             100.51            
105              227.01             -35.79            
storage2         76.73              -71.95            
newsub1          49.36              -74.69            

[MAP]
DIMENSIONS 25.15 -85.91 273.85 240.39
Units      None

[REPORT]
SUBCATCHMENTS ALL
NODES ALL
LINKS ALL
