;; SWMM5 .inp converted from XPSWMM .xp file
;; Generated by XPSWMM Card Reader
;; Source format: XP_CARD | Original title: NEWBERG DRAINAGE MASTER PLAN 1998
;; Links parsed from source: 135 | Routable in this .inp: 135

[TITLE]
;;Project Title/Notes
NEWBERG DRAINAGE MASTER PLAN 1998

[OPTIONS]
FLOW_UNITS           CFS
INFILTRATION         HORTON
FLOW_ROUTING         DYNWAVE
LINK_OFFSETS         DEPTH
MIN_SLOPE            0.0
ALLOW_PONDING        NO
SKIP_STEADY_STATE    NO
ROUTING_STEP         00:05:00
VARIABLE_STEP        0.75
INERTIAL_DAMPING     PARTIAL
NORMAL_FLOW_LIMITED  BOTH
MAX_TRIALS           50
HEAD_TOLERANCE       0.0033
START_DATE           01/01/2001
START_TIME           00:00:00
REPORT_START_DATE    01/01/2001
REPORT_START_TIME    00:00:00
END_DATE             01/02/2001
END_TIME             00:00:00
SWEEP_START          01/01
SWEEP_END            12/31
DRY_DAYS             0
REPORT_STEP          00:15:00
WET_STEP             00:05:00
DRY_STEP             01:00:00

[JUNCTIONS]
;;Name           Elev       MaxDepth   InitDepth  SurDepth   Aponded
;;-------------- ---------- ---------- ---------- ---------- ----------
5750             159.00     0          0          0          0
5805             179.00     0          0          0          0
5810             198.00     0          0          0          0
5820             171.00     0          0          0          0
5830             196.00     0          0          0          0
5840             206.00     0          0          0          0
5845             190.10     0          0          0          0
5865             202.80     0          0          0          0
5880             215.80     0          0          0          0
5890             212.60     0          0          0          0
5895             210.00     0          0          0          0
5925             229.00     0          0          0          0
5935             231.40     0          0          0          0
5960             236.00     0          0          0          0
5965             237.00     0          0          0          0
5980             262.00     0          0          0          0
6025             163.10     0          0          0          0
6100             188.00     0          0          0          0
6110             196.30     0          0          0          0
6120             195.00     0          0          0          0
6130             198.50     0          0          0          0
6140             208.40     0          0          0          0
6040             190.80     0          0          0          0
6200             176.40     0          0          0          0
6220             231.00     0          0          0          0
6225             226.00     0          0          0          0
6254             234.00     0          0          0          0
6255             234.00     0          0          0          0
6270             248.00     0          0          0          0
6275             248.00     0          0          0          0
6320             195.00     0          0          0          0
6325             195.00     0          0          0          0
6360             201.00     0          0          0          0
6010             191.00     0          0          0          0
6605             197.00     0          0          0          0
6510             196.00     0          0          0          0
6545             262.00     0          0          0          0
6555             267.00     0          0          0          0
6580             315.20     0          0          0          0
6620             203.00     0          0          0          0
6630             285.50     0          0          0          0
6745             310.40     0          0          0          0
6760             356.90     0          0          0          0
6765             359.10     0          0          0          0
6780             403.90     0          0          0          0
6790             562.00     0          0          0          0
6720             256.50     0          0          0          0
6730             278.00     0          0          0          0
6815             252.00     0          0          0          0
6825             265.30     0          0          0          0
6830             278.00     0          0          0          0
6840             326.30     0          0          0          0
6855             439.50     0          0          0          0
6900             298.00     0          0          0          0
6901             290.00     0          0          0          0
6920             446.00     0          0          0          0
6930             324.00     0          0          0          0
6945             468.90     0          0          0          0
6950             427.00     0          0          0          0
6965             460.00     0          0          0          0
6980             506.10     0          0          0          0
6300             177.40     0          0          0          0
6370             182.40     0          0          0          0
6500             195.00     0          0          0          0
6600             197.00     0          0          0          0
6705             234.00     0          0          0          0
6800             234.10     0          0          0          0
5809             192.50     0          0          0          0
5829             193.00     0          0          0          0
5835             190.10     0          0          0          0
5838             190.30     0          0          0          0
5839             206.00     0          0          0          0
5855             189.00     0          0          0          0
5860             194.50     0          0          0          0
5875             204.00     0          0          0          0
5879             206.00     0          0          0          0
5885             206.00     0          0          0          0
5888             211.00     0          0          0          0
5889             212.00     0          0          0          0
5909             194.50     0          0          0          0
5910             200.00     0          0          0          0
5930             231.00     0          0          0          0
5945             232.00     0          0          0          0
5955             236.00     0          0          0          0
5964             237.00     0          0          0          0
5975             261.00     0          0          0          0
6097             164.00     0          0          0          0
6098             178.00     0          0          0          0
6099             178.00     0          0          0          0
6109             188.00     0          0          0          0
6118             196.30     0          0          0          0
6119             195.00     0          0          0          0
6123             198.50     0          0          0          0
6124             197.10     0          0          0          0
6125             197.10     0          0          0          0
6129             197.20     0          0          0          0
6139             205.00     0          0          0          0
6035             173.90     0          0          0          0
6039             173.00     0          0          0          0
6208             174.00     0          0          0          0
6209             204.00     0          0          0          0
6210             220.00     0          0          0          0
6215             234.00     0          0          0          0
6219             232.00     0          0          0          0
6239             227.50     0          0          0          0
6240             228.00     0          0          0          0
6245             232.80     0          0          0          0
6310             178.90     0          0          0          0
6350             179.40     0          0          0          0
6355             182.00     0          0          0          0
6000             159.60     0          0          0          0
6004             164.00     0          0          0          0
6005             190.00     0          0          0          0
6530             260.00     0          0          0          0
6540             260.00     0          0          0          0
6550             267.00     0          0          0          0
6575             315.20     0          0          0          0
6625             285.50     0          0          0          0
6739             256.50     0          0          0          0
6740             299.50     0          0          0          0
6755             356.90     0          0          0          0
6764             358.00     0          0          0          0
6775             403.90     0          0          0          0
6729             270.00     0          0          0          0
6850             439.50     0          0          0          0
6915             446.00     0          0          0          0
6940             468.90     0          0          0          0
6960             460.00     0          0          0          0
6975             506.10     0          0          0          0
6020             159.60     0          0          0          0
6400             195.00     0          0          0          0
6700             219.60     0          0          0          0
6810             256.10     0          0          0          0
1064             234.10     0          0          0          0
5740             158.00     0          0          0          0
Node_5805        163.00     0          0          0          0
Node_5809        190.50     0          0          0          0
Node_12951229    177.00     0          0          0          0
L6810_WEIR       195.00     0          0          0          0
Node_12301295    190.50     0          0          0          0
Node_5820        168.00     0          0          0          0
Node_12311229    163.00     0          0          0          0
Node_5829        187.00     0          0          0          0
Node_12961231    168.00     0          0          0          0
Node_5830        191.68     0          0          0          0
Node_12321296    188.00     0          0          0          0
Node_5835        175.60     0          0          0          0
Node_12971231    168.00     0          0          0          0
Node_5838        185.00     0          0          0          0
Node_12981297    176.00     0          0          0          0
Node_5839        201.50     0          0          0          0
Node_12991298    185.60     0          0          0          0
Node_5840        201.60     0          0          0          0
Node_12331299    201.50     0          0          0          0
Node_5845        176.50     0          0          0          0
Node_12341297    175.60     0          0          0          0
Node_5855        185.00     0          0          0          0
Node_13001234    176.50     0          0          0          0
Node_5860        190.00     0          0          0          0
Node_13011300    185.00     0          0          0          0
Node_5865        193.00     0          0          0          0
Node_12351301    190.00     0          0          0          0
Node_5875        197.70     0          0          0          0
Node_13021235    195.50     0          0          0          0
Node_5879        199.00     0          0          0          0
Node_13031302    197.70     0          0          0          0
Node_5880        211.00     0          0          0          0
Node_12361303    199.00     0          0          0          0
Node_5885        197.45     0          0          0          0
Node_13041235    195.50     0          0          0          0
Node_5888        204.80     0          0          0          0
Node_13051304    198.00     0          0          0          0
Node_5889        208.00     0          0          0          0
Node_13061305    205.00     0          0          0          0
Node_5890        209.00     0          0          0          0
Node_12371306    208.00     0          0          0          0
Node_5895        204.00     0          0          0          0
Node_12381304    197.45     0          0          0          0
Node_5909        190.90     0          0          0          0
Node_13071301    190.00     0          0          0          0
Node_5910        194.00     0          0          0          0
Node_13081307    190.90     0          0          0          0
Node_5925        226.00     0          0          0          0
Node_12391308    194.00     0          0          0          0
Node_5930        228.00     0          0          0          0
Node_13091239    226.00     0          0          0          0
L5935_WEIR       228.40     0          0          0          0
Node_12401309    228.00     0          0          0          0
Node_5945        228.80     0          0          0          0
Node_13101240    228.40     0          0          0          0
L5960_WEIR       233.00     0          0          0          0
Node_12411311    231.20     0          0          0          0
L5964            233.50     0          0          0          0
Node_13121241    233.00     0          0          0          0
L5965_WEIR       234.00     0          0          0          0
Node_12421312    233.50     0          0          0          0
Node_5975        259.00     0          0          0          0
Node_13131242    234.00     0          0          0          0
Node_5980        260.00     0          0          0          0
Node_12431313    259.00     0          0          0          0
Node_6097        157.20     0          0          0          0
Node_13141244    154.90     0          0          0          0
Node_6098        169.99     0          0          0          0
Node_13151314    157.20     0          0          0          0
Node_6099        173.83     0          0          0          0
Node_13161315    169.99     0          0          0          0
Node_6100        177.80     0          0          0          0
Node_12451316    174.70     0          0          0          0
Node_6109        178.10     0          0          0          0
Node_13171245    177.90     0          0          0          0
Node_6110        184.56     0          0          0          0
Node_12461317    178.10     0          0          0          0
Node_6118        187.84     0          0          0          0
Node_13181246    184.56     0          0          0          0
Node_6119        188.50     0          0          0          0
Node_13191318    187.84     0          0          0          0
Node_6120        190.00     0          0          0          0
Node_12471319    188.50     0          0          0          0
Node_6123        189.18     0          0          0          0
Node_13201246    185.00     0          0          0          0
Node_6124        189.90     0          0          0          0
Node_13211320    189.28     0          0          0          0
Node_6125        191.80     0          0          0          0
Node_13221321    190.00     0          0          0          0
Node_6129        192.24     0          0          0          0
Node_13231322    192.08     0          0          0          0
Node_6130        193.00     0          0          0          0
Node_12481323    192.24     0          0          0          0
Node_6139        197.40     0          0          0          0
Node_13241248    194.00     0          0          0          0
Node_6140        199.87     0          0          0          0
Node_12491324    197.65     0          0          0          0
Node_6039        163.00     0          0          0          0
Node_13261325    162.00     0          0          0          0
Node_6040        185.07     0          0          0          0
Node_12501326    163.10     0          0          0          0
Node_5208        172.00     0          0          0          0
Node_13271251    164.50     0          0          0          0
Node_6209        202.00     0          0          0          0
Node_13281327    172.00     0          0          0          0
Node_6210        210.00     0          0          0          0
Node_13291328    202.00     0          0          0          0
Node_6215        214.00     0          0          0          0
Node_13301329    212.00     0          0          0          0
Node_6219        219.00     0          0          0          0
Node_13311330    215.00     0          0          0          0
L6220_WEIR       224.00     0          0          0          0
Node_12521331    219.50     0          0          0          0
L6225_WEIR       219.00     0          0          0          0
Node_12531330    214.50     0          0          0          0
L6239_WEIR       222.40     0          0          0          0
Node_13321253    219.00     0          0          0          0
L6240_WEIR       223.00     0          0          0          0
Node_13331332    222.40     0          0          0          0
L6245_WEIR       224.00     0          0          0          0
Node_13341333    223.00     0          0          0          0
L6254_WEIR       226.00     0          0          0          0
Node_12541334    224.50     0          0          0          0
L6255_WEIR       227.50     0          0          0          0
Node_12551254    226.00     0          0          0          0
L6270_WEIR       229.00     0          0          0          0
Node_12561255    228.10     0          0          0          0
L6275_WEIR       230.00     0          0          0          0
Node_12571256    229.00     0          0          0          0
Node_6320        191.10     0          0          0          0
Node_12581335    167.00     0          0          0          0
Node_6325        192.00     0          0          0          0
Node_12591258    191.10     0          0          0          0
Node_6355        176.00     0          0          0          0
Node_13371336    169.00     0          0          0          0
Node_6360        195.22     0          0          0          0
Node_12601337    176.00     0          0          0          0
Node_6005        185.66     0          0          0          0
Node_13401339    157.20     0          0          0          0
Node_6010        186.19     0          0          0          0
Node_12611340    185.66     0          0          0          0
L6605_WEIR       191.00     0          0          0          0
Node_12621292    190.00     0          0          0          0
Node_6630        283.00     0          0          0          0
Node_12681345    281.00     0          0          0          0
L6530_WEIR       256.00     0          0          0          0
Node_13411263    181.00     0          0          0          0
Node_6540        258.00     0          0          0          0
Node_13421341    257.00     0          0          0          0
Node_6545        260.00     0          0          0          0
Node_12641342    258.00     0          0          0          0
Node_6550        264.00     0          0          0          0
Node_13431341    257.00     0          0          0          0
L6555            264.50     0          0          0          0
Node_12651343    264.00     0          0          0          0
Node_6575        310.00     0          0          0          0
Node_13441265    265.00     0          0          0          0
Node_6580        312.00     0          0          0          0
Node_12661344    311.00     0          0          0          0
Node_6625        280.00     0          0          0          0
Node_13451267    196.00     0          0          0          0
Node_6740        294.00     0          0          0          0
Node_13471346    250.00     0          0          0          0
Node_6745        304.90     0          0          0          0
Node_12691347    294.00     0          0          0          0
Node_6755        344.20     0          0          0          0
Node_13481269    304.90     0          0          0          0
Node_6760        348.30     0          0          0          0
Node_12701348    346.20     0          0          0          0
Node_6764        355.60     0          0          0          0
Node_13491347    294.00     0          0          0          0
Node_6765        357.00     0          0          0          0
Node_12711349    355.60     0          0          0          0
Node_6775        388.00     0          0          0          0
Node_13501271    357.00     0          0          0          0
6780_WEIR        398.00     0          0          0          0
Node_12721350    387.00     0          0          0          0
Node_6790        560.00     0          0          0          0
Node_12731272    398.00     0          0          0          0
Node_6729        256.60     0          0          0          0
Node_13511274    255.00     0          0          0          0
Node_6730        273.00     0          0          0          0
Node_12751351    256.60     0          0          0          0
Node_6825        252.00     0          0          0          0
Node_12771276    244.00     0          0          0          0
Node_6830        252.00     0          0          0          0
Node_12781276    244.00     0          0          0          0
Node_6840        313.00     0          0          0          0
Node_12791277    252.00     0          0          0          0
Node_6850        434.00     0          0          0          0
Node_13521279    313.00     0          0          0          0
L6855_WEIR       436.50     0          0          0          0
Node_12801352    434.00     0          0          0          0
Node_6900        286.00     0          0          0          0
Node_12811277    252.00     0          0          0          0
Node_6901        287.00     0          0          0          0
Node_12821281    286.00     0          0          0          0
Node_6915        436.00     0          0          0          0
Node_13531281    286.00     0          0          0          0
L6920_WEIR       441.00     0          0          0          0
Node_12831353    436.00     0          0          0          0
Node_6930        312.00     0          0          0          0
Node_12841281    286.00     0          0          0          0
Node_6940        453.20     0          0          0          0
Node_13541284    312.00     0          0          0          0
L6945_WEIR       462.00     0          0          0          0
Node_12851354    460.00     0          0          0          0
Node_6950        420.00     0          0          0          0
Node_12861284    312.00     0          0          0          0
Node_6960        450.00     0          0          0          0
Node_13551286    420.00     0          0          0          0
Node_6965        458.00     0          0          0          0
Node_12871355    450.00     0          0          0          0
Node_6975        502.10     0          0          0          0
Node_13561287    458.00     0          0          0          0
L6980            503.00     0          0          0          0
Node_12881356    502.10     0          0          0          0
Node_1036        151.80     0          0          0          0
Node_13381057    151.50     0          0          0          0
Node_1038        154.50     0          0          0          0
Node_12441357    153.50     0          0          0          0
Node_1040        162.00     0          0          0          0
Node_13251244    154.50     0          0          0          0
Node_1042        164.50     0          0          0          0
Node_12511325    162.00     0          0          0          0
Node_1044        165.50     0          0          0          0
Node_12891251    164.50     0          0          0          0
Node_1046        167.00     0          0          0          0
Node_13351289    165.50     0          0          0          0
Node_1048        169.00     0          0          0          0
Node_13361335    167.00     0          0          0          0
Node_1050        172.00     0          0          0          0
Node_12901336    169.00     0          0          0          0
Node_1052        177.00     0          0          0          0
Node_13581290    172.00     0          0          0          0
Node_1054        180.50     0          0          0          0
Node_12631291    178.70     0          0          0          0
Node_1056        190.00     0          0          0          0
Node_12921263    180.50     0          0          0          0
Node_1058        196.00     0          0          0          0
Node_12671292    190.00     0          0          0          0
Node_1060        203.50     0          0          0          0
Node_13591267    196.00     0          0          0          0
Node_1062        229.50     0          0          0          0
Node_12931359    203.50     0          0          0          0
Node_1068        252.00     0          0          0          0
Node_13461274    250.00     0          0          0          0
Node_1070        218.00     0          0          0          0
Node_12941359    203.50     0          0          0          0
Node_1072        240.00     0          0          0          0
Node_13601294    218.00     0          0          0          0
L6021            152.40     0          0          0          0
L6020_WEIR       151.80     0          0          0          0
Node_6500        178.70     0          0          0          0
Node_12911358    177.30     0          0          0          0
L6815_WEIR       244.00     0          0          0          0
Node_12761360    240.00     0          0          0          0
Node_6004        157.20     0          0          0          0
Node_13391338    152.00     0          0          0          0
Node_5955        231.20     0          0          0          0
Node_13111310    229.00     0          0          0          0
Node_1066        250.00     0          0          0          0
Node_12741492    229.60     0          0          0          0
Node_1064        229.60     0          0          0          0
Node_14921293    229.50     0          0          0          0
Node_1034        151.50     0          0          0          0
Node_10571495    147.00     0          0          0          0
HW_DIVERSION     228.75     0          0          0          0
Node_12551330    215.50     0          0          0          0

[OUTFALLS]
;;Name           Elev       Type       Stage      Gated
;;-------------- ---------- ---------- ---------- -----
Node_12291057    151.50     FREE                  NO

[CONDUITS]
;;Name           From             To               Length     Roughness  InOffset   OutOffset  InitFlow   MaxFlow
;;-------------- ---------------- ---------------- ---------- ---------- ---------- ---------- ---------- ----------
L5805            Node_5805        Node_12291057    326.00     0.0500     163.00     151.50     0          0
L5809            Node_5809        Node_12951229    106.80     0.0130     190.50     177.00     0          0
L5810_P          L6810_WEIR       Node_12301295    399.00     0.0130     195.00     190.50     0          0
L5820            Node_5820        Node_12311229    292.00     0.0500     168.00     163.00     0          0
L5829            Node_5829        Node_12961231    60.00      0.0130     187.00     168.00     0          0
L5830            Node_5830        Node_12321296    68.20      0.0130     191.68     188.00     0          0
L5835            Node_5835        Node_12971231    289.00     0.0500     175.60     168.00     0          0
L5838            Node_5838        Node_12981297    28.90      0.0130     185.00     176.00     0          0
L5839            Node_5839        Node_12991298    165.10     0.0130     201.50     185.60     0          0
L5840            Node_5840        Node_12331299    35.30      0.0130     201.60     201.50     0          0
1371.1           Node_5845        Node_12341297    76.00      0.0240     176.50     175.60     0          0
L5855            Node_5855        Node_13001234    267.00     0.0500     185.00     176.50     0          0
L5860            Node_5860        Node_13011300    65.60      0.0240     190.00     185.00     0          0
L5865            Node_5865        Node_12351301    158.60     0.0130     193.00     190.00     0          0
L5875            Node_5875        Node_13021235    92.40      0.0130     197.70     195.50     0          0
L5879            Node_5879        Node_13031302    29.00      0.0130     199.00     197.70     0          0
L5880            Node_5880        Node_12361303    258.80     0.0130     211.00     199.00     0          0
L5885            Node_5885        Node_13041235    83.40      0.0130     197.45     195.50     0          0
L5888            Node_5888        Node_13051304    130.00     0.0130     204.80     198.00     0          0
L5889            Node_5889        Node_13061305    50.40      0.0130     208.00     205.00     0          0
L5890            Node_5890        Node_12371306    120.00     0.0130     209.00     208.00     0          0
L5895            Node_5895        Node_12381304    96.60      0.0130     204.00     197.45     0          0
L5909            Node_5909        Node_13071301    31.00      0.0240     190.90     190.00     0          0
L5910            Node_5910        Node_13081307    101.20     0.0240     194.00     190.90     0          0
L5925            Node_5925        Node_12391308    1566.30    0.0250     226.00     194.00     0          0
L5930            Node_5930        Node_13091239    137.90     0.0130     228.00     226.00     0          0
L5935_D          L5935_WEIR       Node_12401309    142.00     0.0250     228.40     228.00     0          0
L5945            Node_5945        Node_13101240    62.00      0.0130     228.80     228.40     0          0
L5960_C          L5960_WEIR       Node_12411311    53.00      0.0130     233.00     231.20     0          0
L5964_P          L5964            Node_13121241    156.60     0.0130     233.50     233.00     0          0
L5965_C          L5965_WEIR       Node_12421312    67.70      0.0130     234.00     233.50     0          0
L5975            Node_5975        Node_13131242    1481.80    0.0250     259.00     234.00     0          0
L5980            Node_5980        Node_12431313    40.10      0.0200     260.00     259.00     0          0
L6097            Node_6097        Node_13141244    67.30      0.0130     157.20     154.90     0          0
L6098            Node_6098        Node_13151314    206.60     0.0130     169.99     157.20     0          0
L6099            Node_6099        Node_13161315    272.20     0.0130     173.83     169.99     0          0
L6100            Node_6100        Node_12451316    149.40     0.0130     177.80     174.70     0          0
L6109            Node_6109        Node_13171245    35.20      0.0130     178.10     177.90     0          0
L6110            Node_6110        Node_12461317    211.80     0.0130     184.56     178.10     0          0
L6118            Node_6118        Node_13181246    18.20      0.0130     187.84     184.56     0          0
L6119            Node_6119        Node_13191318    114.90     0.0130     188.50     187.84     0          0
L6120            Node_6120        Node_12471319    281.50     0.0130     190.00     188.50     0          0
L6123            Node_6123        Node_13201246    301.40     0.0130     189.18     185.00     0          0
L6124            Node_6124        Node_13211320    93.70      0.0130     189.90     189.28     0          0
L6125            Node_6125        Node_13221321    113.60     0.0130     191.80     190.00     0          0
L6129            Node_6129        Node_13231322    17.00      0.0130     192.24     192.08     0          0
L6130            Node_6130        Node_12481323    79.80      0.0130     193.00     192.24     0          0
L6139            Node_6139        Node_13241248    241.10     0.0130     197.40     194.00     0          0
L6140            Node_6140        Node_12491324    395.70     0.0130     199.87     197.65     0          0
L6039            Node_6039        Node_13261325    55.70      0.0130     163.00     162.00     0          0
L6040            Node_6040        Node_12501326    125.60     0.0130     185.07     163.10     0          0
L5208            Node_5208        Node_13271251    282.40     0.0250     172.00     164.50     0          0
L6209            Node_6209        Node_13281327    647.30     0.0250     202.00     172.00     0          0
L6210            Node_6210        Node_13291328    251.40     0.0250     210.00     202.00     0          0
L6215            Node_6215        Node_13301329    44.00      0.0130     214.00     212.00     0          0
L6219            Node_6219        Node_13311330    484.70     0.0130     219.00     215.00     0          0
L6220_P          L6220_WEIR       Node_12521331    447.20     0.0130     224.00     219.50     0          0
L6225_P          L6225_WEIR       Node_12531330    145.90     0.0130     219.00     214.50     0          0
L6239_P          L6239_WEIR       Node_13321253    183.50     0.0130     222.40     219.00     0          0
L6238_P          L6240_WEIR       Node_13331332    46.40      0.0130     223.00     222.40     0          0
L6245_15"        L6245_WEIR       Node_13341333    225.50     0.0130     224.00     223.00     0          0
L6254_15"        L6254_WEIR       Node_12541334    260.90     0.0130     226.00     224.50     0          0
L6255_16"P       L6255_WEIR       Node_12551254    184.20     0.0130     227.50     226.00     0          0
L6270_P          L6270_WEIR       Node_12561255    636.40     0.0130     229.00     228.10     0          0
L6275_P          L6275_WEIR       Node_12571256    191.90     0.0130     230.00     229.00     0          0
L6320            Node_6320        Node_12581335    512.20     0.0250     191.10     167.00     0          0
L6325            Node_6325        Node_12591258    58.40      0.0200     192.00     191.10     0          0
L6355            Node_6355        Node_13371336    68.60      0.0250     176.00     169.00     0          0
L6360            Node_6360        Node_12601337    171.40     0.0130     195.22     176.00     0          0
L6005            Node_6005        Node_13401339    485.40     0.0250     185.66     157.20     0          0
L6010            Node_6010        Node_12611340    36.00      0.0130     186.19     185.66     0          0
L6605_P          L6605_WEIR       Node_12621292    100.00     0.1000     191.00     190.00     0          0
L6630            Node_6630        Node_12681345    56.50      0.0130     283.00     281.00     0          0
L6530_P          L6530_WEIR       Node_13411263    2186.20    0.0130     256.00     181.00     0          0
L6540            Node_6540        Node_13421341    43.40      0.0130     258.00     257.00     0          0
L6545            Node_6545        Node_12641342    521.10     0.0250     260.00     258.00     0          0
L6550            Node_6550        Node_13431341    536.50     0.0250     264.00     257.00     0          0
L6555_C          L6555            Node_12651343    38.90      0.0200     264.50     264.00     0          0
L6575            Node_6575        Node_13441265    935.20     0.0250     310.00     265.00     0          0
L6580            Node_6580        Node_12661344    47.70      0.0130     312.00     311.00     0          0
L6625            Node_6625        Node_13451267    1175.60    0.0250     280.00     196.00     0          0
L6740            Node_6740        Node_13471346    854.90     0.0500     294.00     250.00     0          0
L6745            Node_6745        Node_12691347    430.10     0.0250     304.90     294.00     0          0
L6755            Node_6755        Node_13481269    836.20     0.0500     344.20     304.90     0          0
L6760_18"        Node_6760        Node_12701348    49.10      0.0200     348.30     346.20     0          0
L6764            Node_6764        Node_13491347    760.20     0.0500     355.60     294.00     0          0
L6765            Node_6765        Node_12711349    40.10      0.0250     357.00     355.60     0          0
L6775            Node_6775        Node_13501271    272.80     0.0500     388.00     357.00     0          0
L6780_C          6780_WEIR        Node_12721350    164.30     0.0200     398.00     387.00     0          0
L6790            Node_6790        Node_12731272    837.30     0.0250     560.00     398.00     0          0
L6729            Node_6729        Node_13511274    182.40     0.0130     256.60     255.00     0          0
L6730            Node_6730        Node_12751351    216.50     0.0130     273.00     256.60     0          0
L6825            Node_6825        Node_12771276    218.00     0.0250     252.00     244.00     0          0
L6830            Node_6830        Node_12781276    604.60     0.0250     252.00     244.00     0          0
L6840            Node_6840        Node_12791277    991.00     0.0500     313.00     252.00     0          0
L6850            Node_6850        Node_13521279    935.70     0.0500     434.00     313.00     0          0
L6855_12"        L6855_WEIR       Node_12801352    45.90      0.0200     436.50     434.00     0          0
L6900            Node_6900        Node_12811277    963.00     0.0500     286.00     252.00     0          0
L6901            Node_6901        Node_12821281    100.00     0.1000     287.00     286.00     0          0
L6915            Node_6915        Node_13531281    964.60     0.0500     436.00     286.00     0          0
L6920_15"        L6920_WEIR       Node_12831353    46.00      0.0200     441.00     436.00     0          0
L6930            Node_6930        Node_12841281    599.00     0.0500     312.00     286.00     0          0
L6940            Node_6940        Node_13541284    831.00     0.0500     453.20     312.00     0          0
L6945_C          L6945_WEIR       Node_12851354    61.00      0.0240     462.00     460.00     0          0
L6950            Node_6950        Node_12861284    1109.00    0.0500     420.00     312.00     0          0
L6960            Node_6960        Node_13551286    245.00     0.0500     450.00     420.00     0          0
L6965            Node_6965        Node_12871355    83.70      0.0130     458.00     450.00     0          0
L6975            Node_6975        Node_13561287    412.50     0.0250     502.10     458.00     0          0
L6980_C          L6980            Node_12881356    44.10      0.0200     503.00     502.10     0          0
1470.1           Node_1036        Node_13381057    118.40     0.0500     151.80     151.50     0          0
L1038            Node_1038        Node_12441357    159.10     0.0500     154.50     153.50     0          0
L1040            Node_1040        Node_13251244    857.70     0.0500     162.00     154.50     0          0
L1042            Node_1042        Node_12511325    204.70     0.0500     164.50     162.00     0          0
L1044            Node_1044        Node_12891251    460.80     0.0500     165.50     164.50     0          0
L1046            Node_1046        Node_13351289    277.30     0.0500     167.00     165.50     0          0
L1048            Node_1048        Node_13361335    615.90     0.0500     169.00     167.00     0          0
L1050            Node_1050        Node_12901336    440.10     0.0500     172.00     169.00     0          0
L1052            Node_1052        Node_13581290    299.30     0.0500     177.00     172.00     0          0
L1054            Node_1054        Node_12631291    415.60     0.0500     180.50     178.70     0          0
L1056            Node_1056        Node_12921263    955.50     0.0500     190.00     180.50     0          0
L1058            Node_1058        Node_12671292    483.60     0.0500     196.00     190.00     0          0
L1060            Node_1060        Node_13591267    586.20     0.0500     203.50     196.00     0          0
L1062            Node_1062        Node_12931359    338.10     0.0500     229.50     203.50     0          0
L1068            Node_1068        Node_13461274    54.90      0.0500     252.00     250.00     0          0
L1070            Node_1070        Node_12941359    814.10     0.0500     218.00     203.50     0          0
L1072            Node_1072        Node_13601294    601.70     0.0500     240.00     218.00     0          0
L6020            L6021            L6020_WEIR       55.20      0.0240     152.40     151.80     0          0
L6500_60"        Node_6500        Node_12911358    87.50      0.0240     178.70     177.30     0          0
L6815_36"        L6815_WEIR       Node_12761360    86.80      0.0130     244.00     240.00     0          0
L6004            Node_6004        Node_13391338    125.00     0.0250     157.20     152.00     0          0
L5955            Node_5955        Node_13111310    338.80     0.0250     231.20     229.00     0          0
L1066            Node_1066        Node_12741492    888.70     0.0500     250.00     229.60     0          0
L1064            Node_1064        Node_14921293    822.60     0.0500     229.60     229.50     0          0
L1034            Node_1034        Node_10571495    857.10     0.0500     151.50     147.00     0          0
DIVERSION        HW_DIVERSION     Node_12551330    100.00     0.0140     228.75     215.50     0          0

[XSECTIONS]
;;Link           Shape        Geom1      Geom2      Geom3      Geom4      Barrels
;;-------------- ------------ ---------- ---------- ---------- ---------- ----------
L5805            TRAPEZOIDAL  1.00       10.00      2          2          1
L5809            CIRCULAR     1.00       0          0          0          1
L5810_P          CIRCULAR     1.00       0          0          0          1
L5820            TRAPEZOIDAL  1.00       10.00      2          2          1
L5829            CIRCULAR     1.00       0          0          0          1
L5830            CIRCULAR     1.00       0          0          0          1
L5835            TRAPEZOIDAL  1.00       10.00      2          2          1
L5838            CIRCULAR     1.00       0          0          0          1
L5839            CIRCULAR     1.00       0          0          0          1
L5840            CIRCULAR     1.00       0          0          0          1
1371.1           CIRCULAR     4.00       0          0          0          1
L5855            TRAPEZOIDAL  1.00       10.00      2          2          1
L5860            CIRCULAR     3.00       0          0          0          1
L5865            CIRCULAR     1.25       0          0          0          1
L5875            CIRCULAR     1.25       0          0          0          1
L5879            CIRCULAR     1.00       0          0          0          1
L5880            CIRCULAR     1.00       0          0          0          1
L5885            CIRCULAR     1.25       0          0          0          1
L5888            CIRCULAR     1.00       0          0          0          1
L5889            CIRCULAR     1.00       0          0          0          1
L5890            CIRCULAR     1.00       0          0          0          1
L5895            CIRCULAR     1.00       0          0          0          1
L5909            CIRCULAR     3.00       0          0          0          1
L5910            CIRCULAR     3.00       0          0          0          1
L5925            TRAPEZOIDAL  3.00       1.00       1          1          1
L5930            CIRCULAR     2.00       0          0          0          1
L5935_D          TRAPEZOIDAL  2.00       1.00       1          1          1
L5945            CIRCULAR     2.00       0          0          0          1
L5960_C          CIRCULAR     1.00       0          0          0          1
L5964_P          CIRCULAR     1.00       0          0          0          1
L5965_C          CIRCULAR     1.00       0          0          0          1
L5975            TRAPEZOIDAL  2.00       1.00       1          1          1
L5980            CIRCULAR     1.50       0          0          0          1
L6097            CIRCULAR     1.75       0          0          0          1
L6098            CIRCULAR     1.75       0          0          0          1
L6099            CIRCULAR     2.00       0          0          0          1
L6100            CIRCULAR     1.75       0          0          0          1
L6109            CIRCULAR     2.00       0          0          0          1
L6110            CIRCULAR     1.75       0          0          0          1
L6118            CIRCULAR     1.75       0          0          0          1
L6119            CIRCULAR     1.75       0          0          0          1
L6120            CIRCULAR     1.50       0          0          0          1
L6123            CIRCULAR     1.50       0          0          0          1
L6124            CIRCULAR     1.75       0          0          0          1
L6125            CIRCULAR     1.75       0          0          0          1
L6129            CIRCULAR     1.25       0          0          0          1
L6130            CIRCULAR     1.25       0          0          0          1
L6139            CIRCULAR     1.25       0          0          0          1
L6140            CIRCULAR     1.25       0          0          0          1
L6039            CIRCULAR     1.00       0          0          0          1
L6040            CIRCULAR     1.00       0          0          0          1
L5208            TRAPEZOIDAL  2.00       1.00       1          1          1
L6209            TRAPEZOIDAL  2.00       1.00       1          1          1
L6210            TRAPEZOIDAL  2.00       1.00       1          1          1
L6215            CIRCULAR     1.50       0          0          0          1
L6219            CIRCULAR     1.25       0          0          0          1
L6220_P          CIRCULAR     1.25       0          0          0          1
L6225_P          CIRCULAR     1.50       0          0          0          1
L6239_P          CIRCULAR     1.50       0          0          0          1
L6238_P          CIRCULAR     1.50       0          0          0          1
L6245_15"        CIRCULAR     1.25       0          0          0          1
L6254_15"        CIRCULAR     1.25       0          0          0          1
L6255_16"P       CIRCULAR     1.25       0          0          0          1
L6270_P          CIRCULAR     1.25       0          0          0          1
L6275_P          CIRCULAR     1.50       0          0          0          1
L6320            TRAPEZOIDAL  1.00       1.00       2          2          1
L6325            CIRCULAR     1.50       0          0          0          1
L6355            TRAPEZOIDAL  2.00       1.00       1          1          1
L6360            CIRCULAR     1.00       0          0          0          1
L6005            TRAPEZOIDAL  2.00       1.00       1          1          1
L6010            CIRCULAR     1.00       0          0          0          1
L6605_P          TRAPEZOIDAL  3.00       100.00     1          1          1
L6630            CIRCULAR     1.00       0          0          0          1
L6530_P          CIRCULAR     1.50       0          0          0          1
L6540            CIRCULAR     1.50       0          0          0          1
L6545            TRAPEZOIDAL  2.00       1.00       1          1          1
L6550            TRAPEZOIDAL  3.00       1.00       1          1          1
L6555_C          CIRCULAR     1.00       0          0          0          1
L6575            TRAPEZOIDAL  2.00       1.00       1          1          1
L6580            CIRCULAR     1.25       0          0          0          1
L6625            TRAPEZOIDAL  2.00       1.00       1          1          1
L6740            TRAPEZOIDAL  1.00       1.00       2          2          1
L6745            TRAPEZOIDAL  1.00       1.00       2          2          1
L6755            TRAPEZOIDAL  1.00       1.00       2          2          1
L6760_18"        CIRCULAR     1.50       0          0          0          1
L6764            TRAPEZOIDAL  1.00       1.00       2          2          1
L6765            TRAPEZOIDAL  2.00       1.00       2          2          1
L6775            TRAPEZOIDAL  1.00       1.00       2          2          1
L6780_C          CIRCULAR     1.50       0          0          0          1
L6790            TRAPEZOIDAL  2.00       1.00       1          1          1
L6729            CIRCULAR     1.25       0          0          0          1
L6730            CIRCULAR     1.25       0          0          0          1
L6825            TRAPEZOIDAL  3.00       1.00       1          1          1
L6830            TRAPEZOIDAL  2.00       1.00       1          1          1
L6840            TRAPEZOIDAL  1.00       1.00       2          2          1
L6850            TRAPEZOIDAL  1.00       1.00       2          2          1
L6855_12"        CIRCULAR     1.00       0          0          0          1
L6900            TRAPEZOIDAL  1.00       1.00       2          2          1
L6901            TRAPEZOIDAL  3.00       5.00       1          1          1
L6915            TRAPEZOIDAL  1.00       1.00       2          2          1
L6920_15"        CIRCULAR     2.00       0          0          0          1
L6930            TRAPEZOIDAL  1.00       1.00       2          2          1
L6940            TRAPEZOIDAL  1.00       1.00       2          2          1
L6945_C          CIRCULAR     1.50       0          0          0          1
L6950            TRAPEZOIDAL  1.00       1.00       2          2          1
L6960            TRAPEZOIDAL  1.00       1.00       2          2          1
L6965            CIRCULAR     2.00       0          0          0          1
L6975            TRAPEZOIDAL  2.00       1.00       1          1          1
L6980_C          CIRCULAR     1.00       0          0          0          1
1470.1           TRAPEZOIDAL  1.00       10.00      2          2          1
L1038            TRAPEZOIDAL  1.00       10.00      2          2          1
L1040            TRAPEZOIDAL  1.00       10.00      2          2          1
L1042            TRAPEZOIDAL  1.00       10.00      2          2          1
L1044            TRAPEZOIDAL  1.00       10.00      2          2          1
L1046            TRAPEZOIDAL  1.00       10.00      2          2          1
L1048            TRAPEZOIDAL  1.00       10.00      2          2          1
L1050            TRAPEZOIDAL  1.00       10.00      2          2          1
L1052            TRAPEZOIDAL  1.00       10.00      2          2          1
L1054            TRAPEZOIDAL  1.00       10.00      2          2          1
L1056            TRAPEZOIDAL  1.00       10.00      2          2          1
L1058            TRAPEZOIDAL  1.00       10.00      2          2          1
L1060            TRAPEZOIDAL  1.00       10.00      2          2          1
L1062            TRAPEZOIDAL  1.00       10.00      2          2          1
L1068            TRAPEZOIDAL  1.00       10.00      2          2          1
L1070            TRAPEZOIDAL  1.00       10.00      2          2          1
L1072            TRAPEZOIDAL  1.00       10.00      2          2          1
L6020            CIRCULAR     5.00       0          0          0          1
L6500_60"        CIRCULAR     5.00       0          0          0          1
L6815_36"        CIRCULAR     3.00       0          0          0          1
L6004            TRAPEZOIDAL  2.00       1.00       1          1          1
L5955            TRAPEZOIDAL  3.00       1.00       1          1          1
L1066            TRAPEZOIDAL  1.00       10.00      2          2          1
L1064            TRAPEZOIDAL  1.00       10.00      2          2          1
L1034            TRAPEZOIDAL  1.00       10.00      2          2          1
DIVERSION        CIRCULAR     2.00       0          0          0          1

[LOSSES]
;;Link           Inlet      Outlet     Average    Flap Gate
;;-------------- ---------- ---------- ---------- ----------
L5805            0          0          0          NO
L5809            0          0          0          NO
L5810_P          0          0          0          NO
L5820            0          0          0          NO
L5829            0          0          0          NO
L5830            0          0          0          NO
L5835            0          0          0          NO
L5838            0          0          0          NO
L5839            0          0          0          NO
L5840            0          0          0          NO
1371.1           0          0          0          NO
L5855            0          0          0          NO
L5860            0          0          0          NO
L5865            0          0          0          NO
L5875            0          0          0          NO
L5879            0          0          0          NO
L5880            0          0          0          NO
L5885            0          0          0          NO
L5888            0          0          0          NO
L5889            0          0          0          NO
L5890            0          0          0          NO
L5895            0          0          0          NO
L5909            0          0          0          NO
L5910            0          0          0          NO
L5925            0          0          0          NO
L5930            0          0          0          NO
L5935_D          0          0          0          NO
L5945            0          0          0          NO
L5960_C          0          0          0          NO
L5964_P          0          0          0          NO
L5965_C          0          0          0          NO
L5975            0          0          0          NO
L5980            0          0          0          NO
L6097            0          0          0          NO
L6098            0          0          0          NO
L6099            0          0          0          NO
L6100            0          0          0          NO
L6109            0          0          0          NO
L6110            0          0          0          NO
L6118            0          0          0          NO
L6119            0          0          0          NO
L6120            0          0          0          NO
L6123            0          0          0          NO
L6124            0          0          0          NO
L6125            0          0          0          NO
L6129            0          0          0          NO
L6130            0          0          0          NO
L6139            0          0          0          NO
L6140            0          0          0          NO
L6039            0          0          0          NO
L6040            0          0          0          NO
L5208            0          0          0          NO
L6209            0          0          0          NO
L6210            0          0          0          NO
L6215            0          0          0          NO
L6219            0          0          0          NO
L6220_P          0          0          0          NO
L6225_P          0          0          0          NO
L6239_P          0          0          0          NO
L6238_P          0          0          0          NO
L6245_15"        0          0          0          NO
L6254_15"        0          0          0          NO
L6255_16"P       0          0          0          NO
L6270_P          0          0          0          NO
L6275_P          0          0          0          NO
L6320            0          0          0          NO
L6325            0          0          0          NO
L6355            0          0          0          NO
L6360            0          0          0          NO
L6005            0          0          0          NO
L6010            0          0          0          NO
L6605_P          0          0          0          NO
L6630            0          0          0          NO
L6530_P          0          0          0          NO
L6540            0          0          0          NO
L6545            0          0          0          NO
L6550            0          0          0          NO
L6555_C          0          0          0          NO
L6575            0          0          0          NO
L6580            0          0          0          NO
L6625            0          0          0          NO
L6740            0          0          0          NO
L6745            0          0          0          NO
L6755            0          0          0          NO
L6760_18"        0          0          0          NO
L6764            0          0          0          NO
L6765            0          0          0          NO
L6775            0          0          0          NO
L6780_C          0          0          0          NO
L6790            0          0          0          NO
L6729            0          0          0          NO
L6730            0          0          0          NO
L6825            0          0          0          NO
L6830            0          0          0          NO
L6840            0          0          0          NO
L6850            0          0          0          NO
L6855_12"        0          0          0          NO
L6900            0          0          0          NO
L6901            0          0          0          NO
L6915            0          0          0          NO
L6920_15"        0          0          0          NO
L6930            0          0          0          NO
L6940            0          0          0          NO
L6945_C          0          0          0          NO
L6950            0          0          0          NO
L6960            0          0          0          NO
L6965            0          0          0          NO
L6975            0          0          0          NO
L6980_C          0          0          0          NO
1470.1           0          0          0          NO
L1038            0          0          0          NO
L1040            0          0          0          NO
L1042            0          0          0          NO
L1044            0          0          0          NO
L1046            0          0          0          NO
L1048            0          0          0          NO
L1050            0          0          0          NO
L1052            0          0          0          NO
L1054            0          0          0          NO
L1056            0          0          0          NO
L1058            0          0          0          NO
L1060            0          0          0          NO
L1062            0          0          0          NO
L1068            0          0          0          NO
L1070            0          0          0          NO
L1072            0          0          0          NO
L6020            0          0          0          NO
L6500_60"        0          0          0          NO
L6815_36"        0          0          0          NO
L6004            0          0          0          NO
L5955            0          0          0          NO
L1066            0          0          0          NO
L1064            0          0          0          NO
L1034            0          0          0          NO
DIVERSION        0          0          0          NO

[INFLOWS]
;;Node           Constituent  Time Series      Type     Mfactor  Sfactor  Baseline Pattern
;;-------------- ------------ ---------------- -------- -------- -------- -------- --------
;; SYNTHETIC TEST INFLOWS — the source .xp carried no constant inflows
;; and RUNF hydrology is not converted; 1.00 CFS is applied at each
;; headwater node so the network runs wet for QA. Replace with real
;; hydrology or inflow hydrographs before using results.
Node_5805        FLOW         ""               FLOW     1.0      1.0      1.00
Node_5809        FLOW         ""               FLOW     1.0      1.0      1.00
L6810_WEIR       FLOW         ""               FLOW     1.0      1.0      1.00
Node_5820        FLOW         ""               FLOW     1.0      1.0      1.00
Node_5829        FLOW         ""               FLOW     1.0      1.0      1.00
Node_5830        FLOW         ""               FLOW     1.0      1.0      1.00
Node_5835        FLOW         ""               FLOW     1.0      1.0      1.00
Node_5838        FLOW         ""               FLOW     1.0      1.0      1.00
Node_5839        FLOW         ""               FLOW     1.0      1.0      1.00
Node_5840        FLOW         ""               FLOW     1.0      1.0      1.00
Node_5845        FLOW         ""               FLOW     1.0      1.0      1.00
Node_5855        FLOW         ""               FLOW     1.0      1.0      1.00
Node_5860        FLOW         ""               FLOW     1.0      1.0      1.00
Node_5865        FLOW         ""               FLOW     1.0      1.0      1.00
Node_5875        FLOW         ""               FLOW     1.0      1.0      1.00
Node_5879        FLOW         ""               FLOW     1.0      1.0      1.00
Node_5880        FLOW         ""               FLOW     1.0      1.0      1.00
Node_5885        FLOW         ""               FLOW     1.0      1.0      1.00
Node_5888        FLOW         ""               FLOW     1.0      1.0      1.00
Node_5889        FLOW         ""               FLOW     1.0      1.0      1.00
Node_5890        FLOW         ""               FLOW     1.0      1.0      1.00
Node_5895        FLOW         ""               FLOW     1.0      1.0      1.00
Node_5909        FLOW         ""               FLOW     1.0      1.0      1.00
Node_5910        FLOW         ""               FLOW     1.0      1.0      1.00
Node_5925        FLOW         ""               FLOW     1.0      1.0      1.00
Node_5930        FLOW         ""               FLOW     1.0      1.0      1.00
L5935_WEIR       FLOW         ""               FLOW     1.0      1.0      1.00
Node_5945        FLOW         ""               FLOW     1.0      1.0      1.00
L5960_WEIR       FLOW         ""               FLOW     1.0      1.0      1.00
L5964            FLOW         ""               FLOW     1.0      1.0      1.00
L5965_WEIR       FLOW         ""               FLOW     1.0      1.0      1.00
Node_5975        FLOW         ""               FLOW     1.0      1.0      1.00
Node_5980        FLOW         ""               FLOW     1.0      1.0      1.00
Node_6097        FLOW         ""               FLOW     1.0      1.0      1.00
Node_6098        FLOW         ""               FLOW     1.0      1.0      1.00
Node_6099        FLOW         ""               FLOW     1.0      1.0      1.00
Node_6100        FLOW         ""               FLOW     1.0      1.0      1.00
Node_6109        FLOW         ""               FLOW     1.0      1.0      1.00
Node_6110        FLOW         ""               FLOW     1.0      1.0      1.00
Node_6118        FLOW         ""               FLOW     1.0      1.0      1.00
Node_6119        FLOW         ""               FLOW     1.0      1.0      1.00
Node_6120        FLOW         ""               FLOW     1.0      1.0      1.00
Node_6123        FLOW         ""               FLOW     1.0      1.0      1.00
Node_6124        FLOW         ""               FLOW     1.0      1.0      1.00
Node_6125        FLOW         ""               FLOW     1.0      1.0      1.00
Node_6129        FLOW         ""               FLOW     1.0      1.0      1.00
Node_6130        FLOW         ""               FLOW     1.0      1.0      1.00
Node_6139        FLOW         ""               FLOW     1.0      1.0      1.00
Node_6140        FLOW         ""               FLOW     1.0      1.0      1.00
Node_6039        FLOW         ""               FLOW     1.0      1.0      1.00
Node_6040        FLOW         ""               FLOW     1.0      1.0      1.00
Node_5208        FLOW         ""               FLOW     1.0      1.0      1.00
Node_6209        FLOW         ""               FLOW     1.0      1.0      1.00
Node_6210        FLOW         ""               FLOW     1.0      1.0      1.00
Node_6215        FLOW         ""               FLOW     1.0      1.0      1.00
Node_6219        FLOW         ""               FLOW     1.0      1.0      1.00
L6220_WEIR       FLOW         ""               FLOW     1.0      1.0      1.00
L6225_WEIR       FLOW         ""               FLOW     1.0      1.0      1.00
L6239_WEIR       FLOW         ""               FLOW     1.0      1.0      1.00
L6240_WEIR       FLOW         ""               FLOW     1.0      1.0      1.00
L6245_WEIR       FLOW         ""               FLOW     1.0      1.0      1.00
L6254_WEIR       FLOW         ""               FLOW     1.0      1.0      1.00
L6255_WEIR       FLOW         ""               FLOW     1.0      1.0      1.00
L6270_WEIR       FLOW         ""               FLOW     1.0      1.0      1.00
L6275_WEIR       FLOW         ""               FLOW     1.0      1.0      1.00
Node_6320        FLOW         ""               FLOW     1.0      1.0      1.00
Node_6325        FLOW         ""               FLOW     1.0      1.0      1.00
Node_6355        FLOW         ""               FLOW     1.0      1.0      1.00
Node_6360        FLOW         ""               FLOW     1.0      1.0      1.00
Node_6005        FLOW         ""               FLOW     1.0      1.0      1.00
Node_6010        FLOW         ""               FLOW     1.0      1.0      1.00
L6605_WEIR       FLOW         ""               FLOW     1.0      1.0      1.00
Node_6630        FLOW         ""               FLOW     1.0      1.0      1.00
L6530_WEIR       FLOW         ""               FLOW     1.0      1.0      1.00
Node_6540        FLOW         ""               FLOW     1.0      1.0      1.00
Node_6545        FLOW         ""               FLOW     1.0      1.0      1.00
Node_6550        FLOW         ""               FLOW     1.0      1.0      1.00
L6555            FLOW         ""               FLOW     1.0      1.0      1.00
Node_6575        FLOW         ""               FLOW     1.0      1.0      1.00
Node_6580        FLOW         ""               FLOW     1.0      1.0      1.00
Node_6625        FLOW         ""               FLOW     1.0      1.0      1.00
Node_6740        FLOW         ""               FLOW     1.0      1.0      1.00
Node_6745        FLOW         ""               FLOW     1.0      1.0      1.00
Node_6755        FLOW         ""               FLOW     1.0      1.0      1.00
Node_6760        FLOW         ""               FLOW     1.0      1.0      1.00
Node_6764        FLOW         ""               FLOW     1.0      1.0      1.00
Node_6765        FLOW         ""               FLOW     1.0      1.0      1.00
Node_6775        FLOW         ""               FLOW     1.0      1.0      1.00
6780_WEIR        FLOW         ""               FLOW     1.0      1.0      1.00
Node_6790        FLOW         ""               FLOW     1.0      1.0      1.00
Node_6729        FLOW         ""               FLOW     1.0      1.0      1.00
Node_6730        FLOW         ""               FLOW     1.0      1.0      1.00
Node_6825        FLOW         ""               FLOW     1.0      1.0      1.00
Node_6830        FLOW         ""               FLOW     1.0      1.0      1.00
Node_6840        FLOW         ""               FLOW     1.0      1.0      1.00
Node_6850        FLOW         ""               FLOW     1.0      1.0      1.00
L6855_WEIR       FLOW         ""               FLOW     1.0      1.0      1.00
Node_6900        FLOW         ""               FLOW     1.0      1.0      1.00
Node_6901        FLOW         ""               FLOW     1.0      1.0      1.00
Node_6915        FLOW         ""               FLOW     1.0      1.0      1.00
L6920_WEIR       FLOW         ""               FLOW     1.0      1.0      1.00
Node_6930        FLOW         ""               FLOW     1.0      1.0      1.00
Node_6940        FLOW         ""               FLOW     1.0      1.0      1.00
L6945_WEIR       FLOW         ""               FLOW     1.0      1.0      1.00
Node_6950        FLOW         ""               FLOW     1.0      1.0      1.00
Node_6960        FLOW         ""               FLOW     1.0      1.0      1.00
Node_6965        FLOW         ""               FLOW     1.0      1.0      1.00
Node_6975        FLOW         ""               FLOW     1.0      1.0      1.00
L6980            FLOW         ""               FLOW     1.0      1.0      1.00
Node_1036        FLOW         ""               FLOW     1.0      1.0      1.00
Node_1038        FLOW         ""               FLOW     1.0      1.0      1.00
Node_1040        FLOW         ""               FLOW     1.0      1.0      1.00
Node_1042        FLOW         ""               FLOW     1.0      1.0      1.00
Node_1044        FLOW         ""               FLOW     1.0      1.0      1.00
Node_1046        FLOW         ""               FLOW     1.0      1.0      1.00
Node_1048        FLOW         ""               FLOW     1.0      1.0      1.00
Node_1050        FLOW         ""               FLOW     1.0      1.0      1.00
Node_1052        FLOW         ""               FLOW     1.0      1.0      1.00
Node_1054        FLOW         ""               FLOW     1.0      1.0      1.00
Node_1056        FLOW         ""               FLOW     1.0      1.0      1.00
Node_1058        FLOW         ""               FLOW     1.0      1.0      1.00
Node_1060        FLOW         ""               FLOW     1.0      1.0      1.00
Node_1062        FLOW         ""               FLOW     1.0      1.0      1.00
Node_1068        FLOW         ""               FLOW     1.0      1.0      1.00
Node_1070        FLOW         ""               FLOW     1.0      1.0      1.00
Node_1072        FLOW         ""               FLOW     1.0      1.0      1.00
L6021            FLOW         ""               FLOW     1.0      1.0      1.00
Node_6500        FLOW         ""               FLOW     1.0      1.0      1.00
L6815_WEIR       FLOW         ""               FLOW     1.0      1.0      1.00
Node_6004        FLOW         ""               FLOW     1.0      1.0      1.00
Node_5955        FLOW         ""               FLOW     1.0      1.0      1.00
Node_1066        FLOW         ""               FLOW     1.0      1.0      1.00
Node_1064        FLOW         ""               FLOW     1.0      1.0      1.00
Node_1034        FLOW         ""               FLOW     1.0      1.0      1.00
HW_DIVERSION     FLOW         ""               FLOW     1.0      1.0      1.00

[COORDINATES]
;;Node           X-Coord            Y-Coord
;;-------------- ------------------ ------------------
5750             -608070.17         1366605.04        
5805             -608048.64         1366888.67        
5810             -607489.43         1366859.77        
5820             -608100.53         1367172.43        
5830             -608207.47         1367230.14        
5840             -608273.83         1367523.43        
5845             -608087.01         1367531.28        
5865             -608138.61         1367907.70        
5880             -607836.75         1367924.12        
5890             -607996.24         1368133.56        
5895             -608260.63         1368039.36        
5925             -609465.82         1368913.53        
5935             -609669.55         1369104.68        
5960             -609982.56         1369430.54        
5965             -610174.24         1369496.93        
5980             -611305.23         1370427.09        
6025             -608348.60         1366638.61        
6100             -608096.20         1365985.25        
6110             -608327.73         1365997.38        
6120             -608189.10         1365624.52        
6130             -608914.81         1366055.54        
6140             -609550.99         1366084.44        
6040             -609052.73         1366973.59        
6200             -609103.76         1367232.52        
6220             -610365.77         1367677.57        
6225             -609873.74         1368221.33        
6254             -610204.85         1368690.17        
6255             -610380.40         1368695.88        
6270             -611023.52         1368712.30        
6275             -611013.17         1368905.33        
6320             -609908.71         1366627.65        
6325             -609910.13         1366570.92        
6360             -610392.17         1366923.64        
6010             -608846.25         1366552.92        
6605             -612225.38         1367828.35        
6510             -611373.84         1367257.61        
6545             -611314.87         1370023.19        
6555             -611883.05         1369503.68        
6580             -612560.82         1370257.61        
6620             -612588.65         1367650.81        
6630             -612574.03         1368877.85        
6745             -615511.23         1366445.52        
6760             -616370.41         1366080.52        
6765             -615872.85         1366870.48        
6780             -616359.25         1367004.28        
6790             -617166.44         1367270.81        
6720             -614309.16         1366716.34        
6730             -614381.95         1367112.03        
6815             -614317.72         1368209.56        
6825             -614531.78         1368170.67        
6830             -614330.57         1367591.93        
6840             -615385.18         1367738.22        
6855             -616225.31         1367901.28        
6900             -615157.64         1368837.18        
6901             -614937.13         1369082.30        
6920             -616199.15         1368817.55        
6930             -615469.28         1369356.68        
6945             -616257.46         1369659.05        
6950             -615521.22         1370343.60        
6965             -615727.81         1370614.77        
6980             -616211.28         1370718.24        
6300             -609480.88         1367172.82        
6370             -610700.78         1367211.94        
6500             -611063.68         1367265.46        
6600             -612183.98         1367402.11        
6705             -613298.98         1367228.37        
6800             -613855.28         1367822.07        
5809             -607888.34         1366868.23        
5829             -608171.79         1367172.33        
5835             -608078.31         1367467.05        
5838             -608110.77         1367484.54        
5839             -608275.97         1367488.82        
5855             -608196.67         1367745.36        
5860             -608253.72         1367797.81        
5875             -608093.29         1367827.07        
5879             -608069.39         1367810.65        
5885             -608191.77         1367971.93        
5888             -608076.52         1368032.23        
5889             -608101.50         1368076.12        
5909             -608276.28         1367819.22        
5910             -608381.09         1367866.67        
5930             -609538.25         1369058.65        
5945             -609730.30         1369116.81        
5955             -609910.13         1369422.94        
5964             -610134.28         1369429.49        
5975             -611249.93         1370421.03        
6097             -608297.61         1366538.46        
6098             -608198.06         1366357.20        
6099             -608050.53         1366127.26        
6109             -608123.28         1365958.85        
6118             -608326.51         1365979.54        
6119             -608333.64         1365864.65        
6123             -608627.23         1365989.17        
6124             -608704.65         1366047.33        
6125             -608815.62         1366055.90        
6129             -608834.89         1366055.54        
6139             -609155.30         1366072.31        
6035             -608941.10         1367143.16        
6039             -608977.09         1367073.50        
6208             -609299.05         1367402.35        
6209             -609550.83         1367940.64        
6210             -609784.73         1368050.43        
6215             -609808.63         1368091.10        
6219             -609891.58         1367661.87        
6239             -609960.80         1368380.47        
6240             -609981.49         1368419.36        
6245             -610205.92         1368422.21        
6310             -609751.71         1367108.26        
6350             -610371.84         1367153.42        
6355             -610368.63         1367086.70        
6000             -608180.75         1366580.42        
6004             -608318.18         1366536.51        
6005             -608820.92         1366552.92        
6530             -611321.75         1369448.74        
6540             -611326.64         1369491.55        
6550             -611850.94         1369471.57        
6575             -612499.81         1370225.50        
6625             -612540.50         1368840.03        
6739             -614364.45         1366659.25        
6740             -615147.65         1366617.15        
6755             -616315.11         1366089.44        
6764             -615827.54         1366870.83        
6775             -616190.48         1366931.85        
6729             -614323.07         1366898.66        
6850             -616133.61         1367901.28        
6915             -616138.49         1368829.68        
6940             -616189.67         1369662.62        
6960             -615700.69         1370536.63        
6975             -616160.25         1370716.46        
6020             -608195.98         1366654.47        
6400             -610990.18         1367259.39        
6700             -613141.28         1367495.24        
6810             -614230.28         1368174.42        
1064             -613600.88         1367079.22        
5740             -607489.14         1366171.58        

[MAP]
DIMENSIONS -617166.44 1365624.52 -607489.14 1370718.24
Units      None

[REPORT]
SUBCATCHMENTS ALL
NODES ALL
LINKS ALL
