;; SWMM5 .inp converted from XPSWMM .xp file
;; Generated by XPSWMM Card Reader
;; Source format: XP_CARD | Original title: Haller Lake Drainage analysis - existing conditions - HLAKE.DAT
;; Links parsed from source: 16 | Routable in this .inp: 16

[TITLE]
;;Project Title/Notes
Haller Lake Drainage analysis - existing conditions - HLAKE.DAT

[OPTIONS]
FLOW_UNITS           CFS
INFILTRATION         HORTON
FLOW_ROUTING         DYNWAVE
LINK_OFFSETS         DEPTH
MIN_SLOPE            0.0
ALLOW_PONDING        NO
SKIP_STEADY_STATE    NO
INERTIAL_DAMPING     PARTIAL
NORMAL_FLOW_LIMITED  BOTH
START_DATE           01/01/2001
START_TIME           00:00:00
REPORT_START_DATE    01/01/2001
REPORT_START_TIME    00:00:00
END_DATE             01/02/2001
END_TIME             00:00:00
SWEEP_START          01/01
SWEEP_END            12/31
DRY_DAYS             0
REPORT_STEP          00:15:00
WET_STEP             00:05:00
DRY_STEP             01:00:00

[JUNCTIONS]
;;Name           Elev       MaxDepth   InitDepth  SurDepth   Aponded
;;-------------- ---------- ---------- ---------- ---------- ----------
205              0          0          0          0          0
215              0          0          0          0          0
225              0          0          0          0          0
230              0          0          0          0          0
235              0          0          0          0          0
245              0          0          0          0          0
276              0          0          0          0          0
285              0          0          0          0          0
286              0          0          0          0          0
305              0          0          0          0          0
324              0          0          0          0          0
330              0          0          0          0          0
351              0          0          0          0          0
355              0          0          0          0          0
395              0          0          0          0          0
405              0          0          0          0          0

[OUTFALLS]
;;Name           Elev       Type       Stage      Gated
;;-------------- ---------- ---------- ---------- -----
195              0          FREE                  NO

[CONDUITS]
;;Name           From             To               Length     Roughness  InOffset   OutOffset  InitFlow   MaxFlow
;;-------------- ---------------- ---------------- ---------- ---------- ---------- ---------- ---------- ----------
200              205              195              420.00     0.0130     3.99       0          0          0
210              215              205              170.00     0.0130     3.30       0          0          0
220              225              215              620.00     0.0130     12.03      0          0          0
240              245              235              200.00     0.0200     3.88       0          0          0
275              276              245              900.00     0.0130     5.04       0          0          0
284              285              276              400.00     0.0350     2.00       0          0          0
300              305              286              940.00     0.0130     34.97      0          0          0
325              330              324              700.00     0.0250     30.03      0          0          0
350              351              285              875.00     0.0200     23.80      0          0          0
352              355              351              300.00     0.0130     7.20       0          0          0
390              395              355              530.00     0.0130     12.72      0          0          0
400              405              395              1250.00    0.0250     5.50       0          0          0
Dumlak1          286              324              33.00      0.0140     0          0          0          0
Dumlak2          225              230              33.00      0.0140     0          0          0          0
Dumlak3          230              235              33.00      0.0140     0          0          0          0
234              225              305              100.00     0.0130     0          0          0          0

[XSECTIONS]
;;Link           Shape        Geom1      Geom2      Geom3      Geom4      Barrels
;;-------------- ------------ ---------- ---------- ---------- ---------- ----------
200              CIRCULAR     4.00       0          0          0          1
210              CIRCULAR     2.00       0          0          0          1
220              CIRCULAR     2.00       0          0          0          1
240              TRAPEZOIDAL  3.00       3.00       1          1          1
275              CIRCULAR     2.00       0          0          0          1
284              TRAPEZOIDAL  5.00       30.00      1          1          1
300              CIRCULAR     1.50       0          0          0          1
325              TRAPEZOIDAL  2.00       3.00       1          1          1
350              TRAPEZOIDAL  2.00       2.00       1          1          1
352              CIRCULAR     2.00       0          0          0          1
390              CIRCULAR     2.00       0          0          0          1
400              TRAPEZOIDAL  3.00       2.00       1          1          1
Dumlak1          CIRCULAR     99.99      0          0          0          1
Dumlak2          CIRCULAR     99.99      0          0          0          1
Dumlak3          CIRCULAR     99.99      0          0          0          1
234              CIRCULAR     1.00       0          0          0          1

[LOSSES]
;;Link           Inlet      Outlet     Average    Flap Gate
;;-------------- ---------- ---------- ---------- ----------
200              0          0          0          NO
210              0          0          0          NO
220              0          0          0          NO
240              0          0          0          NO
275              0          0          0          NO
284              0          0          0          NO
300              0          0          0          NO
325              0          0          0          NO
350              0          0          0          NO
352              0          0          0          NO
390              0          0          0          NO
400              0          0          0          NO
Dumlak1          0          0          0          NO
Dumlak2          0          0          0          NO
Dumlak3          0          0          0          NO
234              0          0          0          NO

[INFLOWS]
;;Node           Constituent  Time Series      Type     Mfactor  Sfactor  Baseline Pattern
;;-------------- ------------ ---------------- -------- -------- -------- -------- --------
;; SYNTHETIC TEST INFLOWS — the source .xp carried no constant inflows
;; and RUNF hydrology is not converted; 1.00 CFS is applied at each
;; headwater node so the network runs wet for QA. Replace with real
;; hydrology or inflow hydrographs before using results.
225              FLOW         ""               FLOW     1.0      1.0      1.00
330              FLOW         ""               FLOW     1.0      1.0      1.00
405              FLOW         ""               FLOW     1.0      1.0      1.00

[COORDINATES]
;;Node           X-Coord            Y-Coord
;;-------------- ------------------ ------------------
195              456.85             -31.70            
205              424.03             -35.36            
215              399.58             -36.94            
225              374.50             -27.45            
230              400.42             -0.63             
235              432.49             -2.34             
245              456.83             8.80              
276              483.58             -1.40             
285              494.88             34.31             
286              391.81             37.04             
305              379.38             15.55             
324              413.84             41.06             
330              436.57             31.44             
351              447.93             64.57             
355              376.00             86.78             
395              329.18             70.52             
405              328.33             41.60             

[MAP]
DIMENSIONS 328.33 -36.94 494.88 86.78
Units      None

[REPORT]
SUBCATCHMENTS ALL
NODES ALL
LINKS ALL
