;; SWMM5 .inp converted from XPSWMM .xp file
;; Generated by XPSWMM Card Reader
;; Source format: XP_CARD | Original title: Dry Weather
;; NOTE: 264 link(s) dropped (missing endpoint): 49347-346, 1725-328, 18317-318, 1392-552, 8374-376, 71782-230, 1389-387, 21390-392, 9282-280, 9561-560, 20320-318, 20318-426, 20426-427, 8163-238, 9404-387, 20750-768, 20768-769, 20749-750, 21331-330, 26224-222, 26222-221, 20332-333, 4585-357, 24586-585, 20754-683, 20683-750, 0358-194, 24590-586, 49232-492, 8492-490, 5405-407, 21398-399, 21399-407, 49407-374, 9374-726, 24570-395, 49395-399, 18311-318, 18372-374, 20322-323, 20323-325, 20325-318, 18316-317, 20684-683, 73570-585, 21043-330, 20330-323, 9595-731, 20675-674, 20674-671, 24589-586, 49233-234, 49234-492, 49373-331, 49372-373, 18305-302, 48895T-894, 48894-299, 18299-658, 49658-684, 18306-307, 18307-302, 49569-567, 49567-671, 8168-238, 73571-594, 73594-543, 73543-367, 49367-365, 49365-346, 24569-395, 21703-407, 49568-567, 20364-361, 20361-222, 73577-594, 21337-373, 21336-331, 21711-710, 21710-708, 21708-707, 21707-374, 21706-708, 20326-325, 18314-307, 31154-768, 71733-256, 49256-732, 24659-368, 49368-543, 49570-661, 20661-615, 49615-657, 71031-605, 49605-601, 49601-769, 26262-615, 21731-666, 24666-668, 24668-669, 32030-370, 49370-368, 49375-712, 21712-710, 24658-664, 20328-330, 32452-769, 20327-424, 20424-426, 49596-452, 24663-664, 24582-668, 21734-902, 84902-666, 20365-367, 20367-361, 20667-662, 20662-661, 65753-731, 71731-256, 20677-674, 18309-307, 20375-374, 20374-372, 20372-395, 20395-397, 20397-367, 20376-377, 20377-374, 49409-707, 49378-712, 21713-409, 20359-361, 49414-378, 21735-902, 65751-221, 24581-735, 24571-572, 24572-735, 32454-452, 20665-662, 18297T-298, 18298-299, 18300-302, 73606-370, 73605-606, 73607-606, 21715-408, 49408-409, 67751-657, 20423B-424, 48893-892, 48892-561, 72561-672, 18298T-298, 49602-601, 73616-580, 73580-669, 79432-433, 79433-367, 20368-397, 49622-620, 49620-619, 49619-365, 71736-734, 26261-605, 73609-606, 26259-261, 66254-657, 71735-734, 73610-609, 49630-620, 20385-395, 24575-572, 73582-580, 49251-253, 49253-234, 73619-575, 24576-575, 73641-378, 73549-545, 73545-408, 79434-433, 49252-253, 66195-372, 49259-433, 49433-431, 49431-427, 49427-438, 49438-437, 49437-436, 49436-680, 49680-678, 49678-676, 49676-561, 20380-377, 73583-582, 73585-582, 69098-422, 49422-419, 49419-417, 49417-436, 51835-838, 51838-261, 73584-585, 51834-882, 51882-879, 51879-838, 18079-230, 65757-669, 49629-622, 73586-585, 73598-599, 73599-757, 73588-586, 73612-609, 73613-612, 18064-419, 18065-422, 73547-545, 51880-879, 49625-622, 18068-234, 73615-612, 51881-882, 49633-619, 18070-892, 73590-586, 73600-599, 73596-757, 73591-590, 73593-590, 18061-731, 73604-600, 18080-431, 73601-600, 49669-676, 49262-433, 49492-494, 18058-732, 18054-678, 18059-417, 49493-494, 45694-680, 46266-654, 1654-269, 46271-654, 46232-231, 6231-229, 46166-205, 6205-659, 01674-675, 46157-231, 46150-675, 6226-222, 01666-205, 18081-427, 49489-438, 49442-489, 18045-489, 6234-229, GS-P4, HGS-SSO, 18318W-731

[TITLE]
;;Project Title/Notes
Dry Weather

[OPTIONS]
FLOW_UNITS           CFS
INFILTRATION         HORTON
FLOW_ROUTING         DYNWAVE
LINK_OFFSETS         DEPTH
MIN_SLOPE            0.0
ALLOW_PONDING        NO
SKIP_STEADY_STATE    NO
ROUTING_STEP         00:00:15
VARIABLE_STEP        0.75
INERTIAL_DAMPING     PARTIAL
NORMAL_FLOW_LIMITED  BOTH
START_DATE           01/01/2001
START_TIME           00:00:00
REPORT_START_DATE    01/01/2001
REPORT_START_TIME    00:00:00
END_DATE             01/02/2001
END_TIME             00:00:00
SWEEP_START          01/01
SWEEP_END            12/31
DRY_DAYS             0
REPORT_STEP          00:15:00
WET_STEP             00:05:00
DRY_STEP             01:00:00

[JUNCTIONS]
;;Name           Elev       MaxDepth   InitDepth  SurDepth   Aponded
;;-------------- ---------- ---------- ---------- ---------- ----------
18889            516.98     0          0          0          0
18907            513.78     0          0          0          0
18908            514.75     0          0          0          0
47949            517.10     0          0          0          0
18888            517.82     0          0          0          0
18909            514.58     0          0          0          0
18904            514.26     0          0          0          0
18890            519.84     0          0          0          0
18886            514.28     0          0          0          0
18891            519.16     0          0          0          0
18910            515.25     0          0          0          0
18900            510.56     0          0          0          0
18892            516.61     0          0          0          0
18884            510.76     0          0          0          0
18878            510.21     0          0          0          0
18883            509.51     0          0          0          0
18882            507.10     0          0          0          0
18896            513.70     0          0          0          0
48705            667.69     0          0          0          0
49058CO          532.24     0          0          0          0
18881            507.18     0          0          0          0
71594BS          583.14     0          0          0          0
71594            580.03     0          0          0          0
71594AS          583.13     0          0          0          0
02249            668.31     0          0          0          0
49071            531.50     0          0          0          0
47957            506.66     0          0          0          0
18552            507.70     0          0          0          0
49066            535.89     0          0          0          0
47963            505.71     0          0          0          0
72043            532.26     0          0          0          0
18899            509.57     0          0          0          0
47956            506.26     0          0          0          0
49068            533.57     0          0          0          0
02246            656.63     0          0          0          0
18912            513.53     0          0          0          0
02238            666.56     0          0          0          0
32596            538.00     0          0          0          0
02247            654.63     0          0          0          0
49074            528.44     0          0          0          0
18550            503.56     0          0          0          0
18551            504.07     0          0          0          0
18870            503.76     0          0          0          0
22034            520.33     0          0          0          0
26798            579.07     0          0          0          0
26797            580.64     0          0          0          0
67757            528.74     0          0          0          0
47970            502.53     0          0          0          0
18558            505.45     0          0          0          0
02245            659.76     0          0          0          0
18559            502.60     0          0          0          0
18538            503.55     0          0          0          0
18560            501.47     0          0          0          0
46275            660.93     0          0          0          0
18519            503.25     0          0          0          0
18868            501.08     0          0          0          0
48703            651.92     0          0          0          0
48702            649.34     0          0          0          0
22033            524.15     0          0          0          0
22019            534.58     0          0          0          0
72058BH          567.29     0          0          0          0
02240            661.15     0          0          0          0
18825            505.30     0          0          0          0
49079            531.83     0          0          0          0
18814            509.78     0          0          0          0
49112            562.69     0          0          0          0
47955            500.20     0          0          0          0
18866            500.14     0          0          0          0
22018            535.24     0          0          0          0
18867            499.75     0          0          0          0
49082            545.26     0          0          0          0
48701            651.00     0          0          0          0
18834            501.70     0          0          0          0
02447            578.90     0          0          0          0
02446            580.20     0          0          0          0
18568            498.68     0          0          0          0
18567            498.68     0          0          0          0
46273            658.58     0          0          0          0
18823            507.94     0          0          0          0
22036            521.92     0          0          0          0
22014            526.97     0          0          0          0
18864            498.84     0          0          0          0
46269            661.46     0          0          0          0
49086            548.24     0          0          0          0
22012            537.39     0          0          0          0
49112T           562.75     0          0          0          0
47972            499.48     0          0          0          0
46274            656.62     0          0          0          0
02231            653.00     0          0          0          0
48695            650.60     0          0          0          0
48699            654.00     0          0          0          0
21827            573.40     0          0          0          0
02485            579.74     0          0          0          0
18836            503.36     0          0          0          0
02224            657.98     0          0          0          0
46270            657.61     0          0          0          0
18830            515.00     0          0          0          0
18556            499.65     0          0          0          0
18557            500.00     0          0          0          0
02448            577.58     0          0          0          0
48692            648.97     0          0          0          0
47986            505.26     0          0          0          0
22024            521.42     0          0          0          0
02230            651.97     0          0          0          0
18862            498.44     0          0          0          0
18863            498.07     0          0          0          0
48690            650.86     0          0          0          0
18831            515.54     0          0          0          0
49108            555.21     0          0          0          0
18571            498.14     0          0          0          0
48689            652.15     0          0          0          0
22017            538.37     0          0          0          0
18541            499.37     0          0          0          0
22026            519.08     0          0          0          0
22037            519.36     0          0          0          0
02511            581.94     0          0          0          0
32560            628.52     0          0          0          0
22009            539.50     0          0          0          0
02229            655.08     0          0          0          0
18816            511.35     0          0          0          0
32559            632.35     0          0          0          0
47973            497.20     0          0          0          0
47973BD          494.68     0          0          0          0
47974            497.14     0          0          0          0
02225            653.16     0          0          0          0
18838            505.53     0          0          0          0
18521            501.21     0          0          0          0
02221            649.57     0          0          0          0
02478            577.60     0          0          0          0
02479            576.66     0          0          0          0
22022            525.98     0          0          0          0
21850            531.85     0          0          0          0
02226            654.24     0          0          0          0
22016            539.38     0          0          0          0
02481            569.67     0          0          0          0
18821            508.67     0          0          0          0
45738            571.57     0          0          0          0
32561            632.82     0          0          0          0
49111            572.25     0          0          0          0
02487            573.67     0          0          0          0
18534            499.67     0          0          0          0
49159            513.99     0          0          0          0
18832            515.59     0          0          0          0
18522            498.61     0          0          0          0
47959            499.87     0          0          0          0
18542            498.93     0          0          0          0
02510            582.07     0          0          0          0
02480            575.23     0          0          0          0
02517            581.59     0          0          0          0
18574            496.91     0          0          0          0
18564            497.05     0          0          0          0
72050            559.19     0          0          0          0
46229            659.21     0          0          0          0
21823            569.59     0          0          0          0
02493            574.72     0          0          0          0
18809            510.79     0          0          0          0
18817            512.39     0          0          0          0
18533            498.18     0          0          0          0
22039            521.42     0          0          0          0
71305            647.30     0          0          0          0
18839            504.65     0          0          0          0
18595            495.41     0          0          0          0
22006            523.99     0          0          0          0
22021            526.46     0          0          0          0
22047            517.00     0          0          0          0
48653            618.85     0          0          0          0
02453            569.64     0          0          0          0
02452            570.11     0          0          0          0
71319            634.42     0          0          0          0
49089            550.28     0          0          0          0
18820            509.10     0          0          0          0
18810            508.74     0          0          0          0
32573            631.07     0          0          0          0
32572            634.43     0          0          0          0
18811            507.80     0          0          0          0
49110            552.33     0          0          0          0
18859            502.47     0          0          0          0
02483            564.12     0          0          0          0
02494            577.33     0          0          0          0
49101            567.49     0          0          0          0
18850            498.49     0          0          0          0
18851            498.31     0          0          0          0
18583            496.42     0          0          0          0
02474            568.68     0          0          0          0
49091            550.74     0          0          0          0
47960            495.12     0          0          0          0
02508            578.54     0          0          0          0
48652            602.38     0          0          0          0
48654            613.15     0          0          0          0
32583            625.80     0          0          0          0
48676            653.60     0          0          0          0
02218            639.63     0          0          0          0
32589            631.57     0          0          0          0
02520            583.29     0          0          0          0
02521            581.15     0          0          0          0
22040            519.50     0          0          0          0
18594            494.88     0          0          0          0
73001            637.14     0          0          0          0
18844            502.16     0          0          0          0
02507            581.51     0          0          0          0
18843            502.05     0          0          0          0
48616            643.75     0          0          0          0
18531            495.64     0          0          0          0
32579            618.25     0          0          0          0
02489            570.94     0          0          0          0
47978            500.03     0          0          0          0
49100            565.68     0          0          0          0
02473            566.95     0          0          0          0
18576            494.48     0          0          0          0
18819            509.18     0          0          0          0
18818            509.74     0          0          0          0
21822            561.23     0          0          0          0
02506            584.44     0          0          0          0
18852            499.79     0          0          0          0
32585            619.90     0          0          0          0
02472            563.62     0          0          0          0
18846            501.80     0          0          0          0
18858            503.28     0          0          0          0
02522            576.24     0          0          0          0
32580            597.13     0          0          0          0
46222            660.34     0          0          0          0
18845            501.54     0          0          0          0
02523            569.81     0          0          0          0
18588            493.60     0          0          0          0
49088            532.97     0          0          0          0
48655            618.33     0          0          0          0
22004            514.99     0          0          0          0
49099            560.70     0          0          0          0
18589            492.92     0          0          0          0
48637            591.94     0          0          0          0
18586            493.11     0          0          0          0
72012            535.71     0          0          0          0
01657            657.47     0          0          0          0
02462            556.59     0          0          0          0
48661            591.49     0          0          0          0
72052            549.74     0          0          0          0
48635            597.69     0          0          0          0
48662            590.85     0          0          0          0
72075            494.11     0          0          0          0
18848            499.37     0          0          0          0
78932            500.50     0          0          0          0
18849            498.56     0          0          0          0
18847            499.18     0          0          0          0
02460            562.79     0          0          0          0
22043            507.63     0          0          0          0
22044            507.94     0          0          0          0
21849            533.13     0          0          0          0
48638            587.58     0          0          0          0
01656            653.65     0          0          0          0
01658            655.16     0          0          0          0
71320            617.22     0          0          0          0
32569            606.43     0          0          0          0
48679            644.60     0          0          0          0
48632            611.20     0          0          0          0
48663            585.04     0          0          0          0
49095            554.92     0          0          0          0
66153            549.47     0          0          0          0
22050            518.56     0          0          0          0
48656            621.54     0          0          0          0
18877            496.72     0          0          0          0
48665            608.80     0          0          0          0
21839            533.07     0          0          0          0
02217            652.06     0          0          0          0
21835            548.35     0          0          0          0
02524            581.04     0          0          0          0
48667            630.70     0          0          0          0
72011            538.50     0          0          0          0
21848            535.53     0          0          0          0
18806            498.17     0          0          0          0
18853            500.95     0          0          0          0
48639            582.72     0          0          0          0
18807            498.75     0          0          0          0
18229            499.86     0          0          0          0
18527            491.72     0          0          0          0
18582            494.82     0          0          0          0
21821            553.14     0          0          0          0
48657            624.00     0          0          0          0
02215            652.39     0          0          0          0
46219            659.14     0          0          0          0
21833            544.46     0          0          0          0
02463            566.61     0          0          0          0
02214            651.31     0          0          0          0
18585            493.72     0          0          0          0
49096            559.51     0          0          0          0
72010            540.00     0          0          0          0
21847            535.97     0          0          0          0
72073            509.25     0          0          0          0
22002            508.19     0          0          0          0
02464            565.29     0          0          0          0
02469            555.90     0          0          0          0
02525            580.26     0          0          0          0
02468            556.55     0          0          0          0
49098            552.14     0          0          0          0
48640            580.30     0          0          0          0
47979            500.94     0          0          0          0
18841            506.04     0          0          0          0
21846            535.75     0          0          0          0
02496            569.49     0          0          0          0
21840            527.15     0          0          0          0
22051            516.80     0          0          0          0
22001            508.78     0          0          0          0
66152            549.79     0          0          0          0
72051            548.51     0          0          0          0
18231            495.98     0          0          0          0
21836            547.01     0          0          0          0
28922            540.12     0          0          0          0
48642            615.50     0          0          0          0
02466            561.80     0          0          0          0
02465            565.07     0          0          0          0
21831            538.95     0          0          0          0
18802            497.03     0          0          0          0
18579            492.39     0          0          0          0
18801            497.53     0          0          0          0
26836            553.45     0          0          0          0
18592            490.43     0          0          0          0
02467            565.34     0          0          0          0
21837            547.38     0          0          0          0
18581            493.64     0          0          0          0
26838            555.00     0          0          0          0
18856            504.48     0          0          0          0
18230            498.99     0          0          0          0
45735            557.63     0          0          0          0
18549            490.67     0          0          0          0
18854            499.53     0          0          0          0
49160            510.00     0          0          0          0
49097            560.12     0          0          0          0
48217            653.59     0          0          0          0
21832            541.40     0          0          0          0
18504            490.27     0          0          0          0
89075            547.17     0          0          0          0
73114            497.78     0          0          0          0
22055            510.75     0          0          0          0
21829            537.68     0          0          0          0
18516            495.09     0          0          0          0
48648            623.81     0          0          0          0
72076            507.86     0          0          0          0
21828            536.56     0          0          0          0
21842BH          523.24     0          0          0          0
49219            493.32     0          0          0          0
48644            574.72     0          0          0          0
18481            490.02     0          0          0          0
89074            534.50     0          0          0          0
89076            542.33     0          0          0          0
18505            489.97     0          0          0          0
48645            573.76     0          0          0          0
02498            570.19     0          0          0          0
49161            533.02     0          0          0          0
24703            650.37     0          0          0          0
02499            571.12     0          0          0          0
20635            525.94     0          0          0          0
01659            660.55     0          0          0          0
02501            564.25     0          0          0          0
18452            502.34     0          0          0          0
48671            634.89     0          0          0          0
02529            557.13     0          0          0          0
65813            507.65     0          0          0          0
18480            490.96     0          0          0          0
18506            491.30     0          0          0          0
49164            528.01     0          0          0          0
18437            489.83     0          0          0          0
73659            572.75     0          0          0          0
20631            509.14     0          0          0          0
27208T           519.55     0          0          0          0
73626            629.57     0          0          0          0
20639            518.92     0          0          0          0
18417            499.81     0          0          0          0
49163            534.12     0          0          0          0
18509            493.66     0          0          0          0
18508            492.53     0          0          0          0
18447            495.67     0          0          0          0
26479            532.14     0          0          0          0
73665            584.00     0          0          0          0
49513            516.60     0          0          0          0
67748            533.13     0          0          0          0
73657            567.50     0          0          0          0
29065            661.78     0          0          0          0
71762            504.23     0          0          0          0
66231            541.79     0          0          0          0
29064            661.06     0          0          0          0
26659T           503.65     0          0          0          0
73624            616.90     0          0          0          0
49316            514.22     0          0          0          0
18457            492.97     0          0          0          0
18456            492.26     0          0          0          0
26655            503.09     0          0          0          0
24655            624.70     0          0          0          0
18371            499.07     0          0          0          0
26477            537.12     0          0          0          0
26475            537.40     0          0          0          0
20638            502.92     0          0          0          0
45026            663.78     0          0          0          0
71759BS          502.14     0          0          0          0
71759            500.58     0          0          0          0
20782            546.93     0          0          0          0
18449            501.83     0          0          0          0
71061            514.95     0          0          0          0
20640            501.29     0          0          0          0
73629            634.75     0          0          0          0
18436            491.17     0          0          0          0
71757BH          490.83     0          0          0          0
27134            509.76     0          0          0          0
20293            520.16     0          0          0          0
66230            529.20     0          0          0          0
71759AS          502.58     0          0          0          0
20651            542.59     0          0          0          0
20655            515.70     0          0          0          0
18448            495.30     0          0          0          0
66232            515.09     0          0          0          0
18479            491.32     0          0          0          0
66160            500.56     0          0          0          0
71756            496.48     0          0          0          0
26657T           503.36     0          0          0          0
24066            502.05     0          0          0          0
26657            504.48     0          0          0          0
24702            644.70     0          0          0          0
20294            511.50     0          0          0          0
18483            489.02     0          0          0          0
24698            639.90     0          0          0          0
18500            487.71     0          0          0          0
24591            624.80     0          0          0          0
66229            519.74     0          0          0          0
20290            503.17     0          0          0          0
20648            529.81     0          0          0          0
24691            652.35     0          0          0          0
20786            554.12     0          0          0          0
26653            497.51     0          0          0          0
18502            488.87     0          0          0          0
71764            499.00     0          0          0          0
20288            504.57     0          0          0          0
20785            554.83     0          0          0          0
71751            496.29     0          0          0          0
49517            521.59     0          0          0          0
20642            499.76     0          0          0          0
20649            527.13     0          0          0          0
18425T           490.09     0          0          0          0
20783            576.05     0          0          0          0
27201            528.29     0          0          0          0
20643            500.50     0          0          0          0
18435            492.39     0          0          0          0
29067            666.38     0          0          0          0
25675            510.18     0          0          0          0
66206T           506.33     0          0          0          0
49520            522.74     0          0          0          0
20286            502.81     0          0          0          0
18485BH          485.86     0          0          0          0
18498            490.04     0          0          0          0
25422            512.54     0          0          0          0
66202T           501.87     0          0          0          0
46908            494.45     0          0          0          0
29056            670.83     0          0          0          0
18515            495.51     0          0          0          0
18476            489.46     0          0          0          0
24652            604.00     0          0          0          0
25418            509.96     0          0          0          0
24701            636.00     0          0          0          0
49327            559.32     0          0          0          0
18441            491.71     0          0          0          0
66203            507.43     0          0          0          0
21356            644.39     0          0          0          0
20289            505.61     0          0          0          0
29057            668.09     0          0          0          0
20283            512.99     0          0          0          0
24593            614.70     0          0          0          0
51745            494.06     0          0          0          0
18445            493.00     0          0          0          0
25417            514.46     0          0          0          0
73562            625.29     0          0          0          0
18454            492.91     0          0          0          0
18453            492.22     0          0          0          0
20780            557.21     0          0          0          0
29058            666.97     0          0          0          0
24596            604.20     0          0          0          0
20280            506.93     0          0          0          0
49326            557.77     0          0          0          0
24700            637.03     0          0          0          0
49323            555.76     0          0          0          0
49324            553.39     0          0          0          0
18451            497.11     0          0          0          0
71768            496.86     0          0          0          0
71770            496.74     0          0          0          0
21362            649.21     0          0          0          0
24594            616.34     0          0          0          0
21357            646.76     0          0          0          0
49416            664.50     0          0          0          0
45032            670.70     0          0          0          0
18434            488.33     0          0          0          0
18475            489.09     0          0          0          0
18413            494.96     0          0          0          0
24598            614.36     0          0          0          0
47989            525.81     0          0          0          0
18427            491.38     0          0          0          0
18428            490.60     0          0          0          0
20279            521.16     0          0          0          0
18429            491.42     0          0          0          0
18430            490.84     0          0          0          0
71032            533.84     0          0          0          0
18431T           484.30     0          0          0          0
26651            496.34     0          0          0          0
18432BD          485.84     0          0          0          0
18432            488.60     0          0          0          0
49325            574.40     0          0          0          0
18431            489.64     0          0          0          0
51746            489.42     0          0          0          0
49222T           487.32     0          0          0          0
18433            489.57     0          0          0          0
24595            622.40     0          0          0          0
24600            605.15     0          0          0          0
49528            524.16     0          0          0          0
71765            497.05     0          0          0          0
20263            531.98     0          0          0          0
20442            544.16     0          0          0          0
26246            555.21     0          0          0          0
71775            494.21     0          0          0          0
71776            492.80     0          0          0          0
20282            518.79     0          0          0          0
21353            639.02     0          0          0          0
71056            539.71     0          0          0          0
71783            495.01     0          0          0          0
73537            656.02     0          0          0          0
73532            654.08     0          0          0          0
26258            542.77     0          0          0          0
49222            486.69     0          0          0          0
71037            543.00     0          0          0          0
71055            527.01     0          0          0          0
49524            565.41     0          0          0          0
47995            538.35     0          0          0          0
73531            658.20     0          0          0          0
20262            532.26     0          0          0          0
21365            640.64     0          0          0          0
18474            489.78     0          0          0          0
18473            488.66     0          0          0          0
UA0012P          490.56     0          0          0          0
18386            495.44     0          0          0          0
18405            494.19     0          0          0          0
71774            494.41     0          0          0          0
73561            570.21     0          0          0          0
21354            639.74     0          0          0          0
78851            579.40     0          0          0          0
20602            553.90     0          0          0          0
26644            493.00     0          0          0          0
26643            492.63     0          0          0          0
18406            493.41     0          0          0          0
26645            493.37     0          0          0          0
26244            558.10     0          0          0          0
20267            525.44     0          0          0          0
26642            488.62     0          0          0          0
71058            552.17     0          0          0          0
49530            527.08     0          0          0          0
26241            536.16     0          0          0          0
21364            642.67     0          0          0          0
49265            492.95     0          0          0          0
71040            570.12     0          0          0          0
26650T           493.90     0          0          0          0
20296            532.47     0          0          0          0
26647            490.35     0          0          0          0
73650            620.43     0          0          0          0
26238            573.17     0          0          0          0
24565            625.37     0          0          0          0
26648            492.45     0          0          0          0
18471            488.44     0          0          0          0
66161            544.10     0          0          0          0
20603            552.13     0          0          0          0
26640T           481.68     0          0          0          0
49531            551.20     0          0          0          0
26249            570.22     0          0          0          0
71740            494.34     0          0          0          0
20610            558.39     0          0          0          0
26649            490.36     0          0          0          0
73529            658.97     0          0          0          0
49264            499.76     0          0          0          0
20297            533.48     0          0          0          0
73648            616.50     0          0          0          0
73634            632.75     0          0          0          0
21351            631.28     0          0          0          0
20278            526.03     0          0          0          0
18470            486.76     0          0          0          0
73644            609.52     0          0          0          0
20441            541.80     0          0          0          0
26237            572.29     0          0          0          0
20696            584.10     0          0          0          0
73533            653.94     0          0          0          0
66226            561.87     0          0          0          0
26240            537.61     0          0          0          0
73649            616.90     0          0          0          0
20440            541.10     0          0          0          0
26227            556.18     0          0          0          0
20746            586.07     0          0          0          0
18385            496.52     0          0          0          0
73530            658.22     0          0          0          0
49245T           481.06     0          0          0          0
20697            580.69     0          0          0          0
71780            494.37     0          0          0          0
71738            494.03     0          0          0          0
21368            635.01     0          0          0          0
18469            487.40     0          0          0          0
18342            489.23     0          0          0          0
73647            595.50     0          0          0          0
26228            560.99     0          0          0          0
18407            497.89     0          0          0          0
18382            490.42     0          0          0          0
26252            570.66     0          0          0          0
20540            556.66     0          0          0          0
71077            561.26     0          0          0          0
63809            491.06     0          0          0          0
73554            613.86     0          0          0          0
71777            493.96     0          0          0          0
49525            565.50     0          0          0          0
21377            645.22     0          0          0          0
21719            618.23     0          0          0          0
73538            649.13     0          0          0          0
73640            630.96     0          0          0          0
21367            639.24     0          0          0          0
20606            544.52     0          0          0          0
26243            551.28     0          0          0          0
18414            509.38     0          0          0          0
20698            586.85     0          0          0          0
18398            488.76     0          0          0          0
26230            569.09     0          0          0          0
71043            597.34     0          0          0          0
66223            504.19     0          0          0          0
71069            612.40     0          0          0          0
21380            656.50     0          0          0          0
18381            491.53     0          0          0          0
49287            544.55     0          0          0          0
20336            542.99     0          0          0          0
20695            595.77     0          0          0          0
20605            546.32     0          0          0          0
49244T           479.60     0          0          0          0
26254            568.46     0          0          0          0
26251            570.94     0          0          0          0
18397            488.17     0          0          0          0
18177            500.17     0          0          0          0
26235            537.33     0          0          0          0
18380            491.14     0          0          0          0
26219            544.16     0          0          0          0
21373            642.32     0          0          0          0
20444            554.95     0          0          0          0
71046            599.45     0          0          0          0
20614            549.67     0          0          0          0
49224            480.52     0          0          0          0
20745            589.46     0          0          0          0
49405            618.19     0          0          0          0
20694            594.39     0          0          0          0
71050            609.83     0          0          0          0
26231            571.77     0          0          0          0
66223T           499.65     0          0          0          0
18331            489.54     0          0          0          0
73637            617.33     0          0          0          0
73636            609.24     0          0          0          0
49526            549.96     0          0          0          0
21348            633.23     0          0          0          0
18196            507.21     0          0          0          0
18379            491.15     0          0          0          0
20716            568.83     0          0          0          0
21722            629.00     0          0          0          0
18388            490.45     0          0          0          0
20617            557.74     0          0          0          0
49543            545.43     0          0          0          0
49303            549.00     0          0          0          0
20313            536.07     0          0          0          0
21721            624.96     0          0          0          0
26253            572.63     0          0          0          0
73639            598.46     0          0          0          0
71047            601.40     0          0          0          0
49226BT          478.43     0          0          0          0
21341            621.17     0          0          0          0
73664            488.81     0          0          0          0
20765            613.50     0          0          0          0
18605            489.24     0          0          0          0
18467            484.66     0          0          0          0
20352            511.35     0          0          0          0
26218            560.15     0          0          0          0
20618            556.58     0          0          0          0
26639            485.42     0          0          0          0
32101            506.42     0          0          0          0
20338            539.77     0          0          0          0
18389            489.39     0          0          0          0
20272            508.00     0          0          0          0
20350            540.88     0          0          0          0
21371            639.70     0          0          0          0
20702            550.94     0          0          0          0
18378            491.55     0          0          0          0
49226AT          477.88     0          0          0          0
20737            570.13     0          0          0          0
21347            633.94     0          0          0          0
20273            507.96     0          0          0          0
49343            596.94     0          0          0          0
20310            526.60     0          0          0          0
18329            491.11     0          0          0          0
21311            626.09     0          0          0          0
20619            554.88     0          0          0          0
26255            567.41     0          0          0          0
20693            584.41     0          0          0          0
49546            547.16     0          0          0          0
21372            639.86     0          0          0          0
20718            551.27     0          0          0          0
21375            644.19     0          0          0          0
21345            633.20     0          0          0          0
24558            619.93     0          0          0          0
18603            491.25     0          0          0          0
66162            554.28     0          0          0          0
20302            513.50     0          0          0          0
20762            596.75     0          0          0          0
20344            535.81     0          0          0          0
20767            617.79     0          0          0          0
20340            536.96     0          0          0          0
49277            507.98     0          0          0          0
21382            645.96     0          0          0          0
18330            492.35     0          0          0          0
18328            489.62     0          0          0          0
18194            513.47     0          0          0          0
49288            554.00     0          0          0          0
25392            546.20     0          0          0          0
20720            557.00     0          0          0          0
20742            590.18     0          0          0          0
18602            490.86     0          0          0          0
24568            634.96     0          0          0          0
20303            512.39     0          0          0          0
20723            571.30     0          0          0          0
20309            522.94     0          0          0          0
49345            620.98     0          0          0          0
20348            538.85     0          0          0          0
20735            555.83     0          0          0          0
18391            483.87     0          0          0          0
20349            542.98     0          0          0          0
49281            512.51     0          0          0          0
21315            613.05     0          0          0          0
20354            513.66     0          0          0          0
49238            498.39     0          0          0          0
20741            591.39     0          0          0          0
71030            545.01     0          0          0          0
49278            514.14     0          0          0          0
73556            637.58     0          0          0          0
20739            565.44     0          0          0          0
18465T           475.89     0          0          0          0
20760            550.19     0          0          0          0
21314            609.73     0          0          0          0
21723            632.72     0          0          0          0
20681            612.32     0          0          0          0
18494            492.92     0          0          0          0
24567            633.99     0          0          0          0
25391AS          544.68     0          0          0          0
25391            545.08     0          0          0          0
25410            530.80     0          0          0          0
20721            560.24     0          0          0          0
18495            495.16     0          0          0          0
20692            596.59     0          0          0          0
18601            489.04     0          0          0          0
20705            575.02     0          0          0          0
18606            492.22     0          0          0          0
24556            616.46     0          0          0          0
21396            639.25     0          0          0          0
49558            578.50     0          0          0          0
49280            519.28     0          0          0          0
20307            516.69     0          0          0          0
18200            506.42     0          0          0          0
71035            553.63     0          0          0          0
73553            649.52     0          0          0          0
25409            533.28     0          0          0          0
21383            639.25     0          0          0          0
20687            594.29     0          0          0          0
18326            486.21     0          0          0          0
25391BS          545.70     0          0          0          0
18182            503.83     0          0          0          0
18376            490.80     0          0          0          0
18488            489.86     0          0          0          0
49235            493.79     0          0          0          0
49553            568.29     0          0          0          0
20314            527.28     0          0          0          0
20315            526.05     0          0          0          0
21317            591.49     0          0          0          0
20680            602.23     0          0          0          0
18607            492.59     0          0          0          0
20757            589.77     0          0          0          0
21386            648.19     0          0          0          0
49560            583.31     0          0          0          0
21329            624.70     0          0          0          0
18377            493.59     0          0          0          0
18489            489.52     0          0          0          0
20346            535.38     0          0          0          0
25408            531.29     0          0          0          0
20316            526.80     0          0          0          0
21327            618.65     0          0          0          0
20733            563.07     0          0          0          0
20728            579.30     0          0          0          0
21387            651.34     0          0          0          0
20686            590.83     0          0          0          0
49356            586.40     0          0          0          0
21328            615.76     0          0          0          0
18322            489.58     0          0          0          0
18490            490.50     0          0          0          0
20731            557.49     0          0          0          0
49357            588.33     0          0          0          0
73552            621.51     0          0          0          0
71750            489.69     0          0          0          0
20305            519.71     0          0          0          0
25407            529.19     0          0          0          0
21726            624.51     0          0          0          0
18174T           500.91     0          0          0          0
49230            494.65     0          0          0          0
18184            507.48     0          0          0          0
21725            622.68     0          0          0          0
21392            626.36     0          0          0          0
71782            495.40     0          0          0          0
20732            559.10     0          0          0          0
21389            653.63     0          0          0          0
21390            651.58     0          0          0          0
71081            491.32     0          0          0          0
18374            492.42     0          0          0          0
21330            608.24     0          0          0          0
49282            518.51     0          0          0          0
18185            506.81     0          0          0          0
20755            602.54     0          0          0          0
49561            590.20     0          0          0          0
20320            528.90     0          0          0          0
20685            596.94     0          0          0          0
18163            500.38     0          0          0          0
49404            657.62     0          0          0          0
20750            572.70     0          0          0          0
20749            578.40     0          0          0          0
20333            539.48     0          0          0          0
49346            560.96     0          0          0          0
21331            612.75     0          0          0          0
49347            564.67     0          0          0          0
18317            480.15     0          0          0          0
26224            518.47     0          0          0          0
20332            539.16     0          0          0          0
24585            620.32     0          0          0          0
24586            620.84     0          0          0          0
20754            602.18     0          0          0          0
20358            515.73     0          0          0          0
24590            625.10     0          0          0          0
49232            493.11     0          0          0          0
20671            605.64     0          0          0          0
25405            537.50     0          0          0          0
21398            646.73     0          0          0          0
24570            655.76     0          0          0          0
18311            489.28     0          0          0          0
46898            512.19     0          0          0          0
18372            492.38     0          0          0          0
20427            518.78     0          0          0          0
20322            531.22     0          0          0          0
20323            534.34     0          0          0          0
18316            481.54     0          0          0          0
20768            567.99     0          0          0          0
18318            483.25     0          0          0          0
20684            599.39     0          0          0          0
20318            524.97     0          0          0          0
49407            637.57     0          0          0          0
73570            625.35     0          0          0          0
20331            539.38     0          0          0          0
21043            539.43     0          0          0          0
18492            491.94     0          0          0          0
49595            575.23     0          0          0          0
49395            656.96     0          0          0          0
48897T           473.68     0          0          0          0
49374            629.11     0          0          0          0
20675            609.69     0          0          0          0
21399            648.59     0          0          0          0
24589            626.50     0          0          0          0
49233            495.08     0          0          0          0
49234            493.33     0          0          0          0
20683            596.40     0          0          0          0
49373            632.10     0          0          0          0
18318W           483.40     0          0          0          0
73112BA          475.32     0          0          0          0
73113BA          482.67     0          0          0          0
49372            633.75     0          0          0          0
73113AA          473.33     0          0          0          0
20769            564.00     0          0          0          0
73113T           473.30     0          0          0          0
73112AA          473.31     0          0          0          0
18305            481.24     0          0          0          0
18306            483.33     0          0          0          0
49569            611.08     0          0          0          0
73112T           473.30     0          0          0          0
18401            511.27     0          0          0          0
20674            611.40     0          0          0          0
26221            511.67     0          0          0          0
18168            504.66     0          0          0          0
73571            625.28     0          0          0          0
49567            609.53     0          0          0          0
24569            657.64     0          0          0          0
18134            481.20     0          0          0          0
20426            521.76     0          0          0          0
18307            482.24     0          0          0          0
26222            512.42     0          0          0          0
20330            537.01     0          0          0          0
21703            643.39     0          0          0          0
18188            511.91     0          0          0          0
20325            526.20     0          0          0          0
25404BH          538.12     0          0          0          0
49568            608.38     0          0          0          0
20364            517.72     0          0          0          0
18138            488.21     0          0          0          0
73577            621.99     0          0          0          0
21337            634.55     0          0          0          0
21336            632.66     0          0          0          0
21711            653.07     0          0          0          0
21706            646.20     0          0          0          0
20326            528.41     0          0          0          0
18314            493.06     0          0          0          0
18132            489.83     0          0          0          0
31154            601.49     0          0          0          0
71733            493.95     0          0          0          0
21710            652.08     0          0          0          0
24659            623.80     0          0          0          0
49247            507.62     0          0          0          0
49570            614.27     0          0          0          0
18133            487.89     0          0          0          0
49607            606.52     0          0          0          0
26262            607.25     0          0          0          0
21731            627.50     0          0          0          0
49375            655.33     0          0          0          0
24658            627.00     0          0          0          0
20361            512.40     0          0          0          0
21707            637.48     0          0          0          0
18302            476.39     0          0          0          0
20328            535.01     0          0          0          0
21708            644.59     0          0          0          0
32452            574.38     0          0          0          0
73594            605.91     0          0          0          0
49256            493.54     0          0          0          0
20327            533.86     0          0          0          0
49596            574.96     0          0          0          0
24663            622.00     0          0          0          0
49365            572.63     0          0          0          0
24582            622.67     0          0          0          0
21734            635.75     0          0          0          0
20365            522.30     0          0          0          0
20667            612.68     0          0          0          0
48895T           471.76     0          0          0          0
24664            616.77     0          0          0          0
65753            494.74     0          0          0          0
71731            495.61     0          0          0          0
21712            651.07     0          0          0          0
20677            616.92     0          0          0          0
71031            598.02     0          0          0          0
49367            585.00     0          0          0          0
48894            478.44     0          0          0          0
18309            487.99     0          0          0          0
20375            528.48     0          0          0          0
24666            614.29     0          0          0          0
73543            586.00     0          0          0          0
20661            610.58     0          0          0          0
71732            494.05     0          0          0          0
20424            528.00     0          0          0          0
20662            609.78     0          0          0          0
49605            586.73     0          0          0          0
49601            570.61     0          0          0          0
49615            606.59     0          0          0          0
49368            593.90     0          0          0          0
20367            514.04     0          0          0          0
20376            527.12     0          0          0          0
49409            642.09     0          0          0          0
49370            595.33     0          0          0          0
49378            658.06     0          0          0          0
32030            600.11     0          0          0          0
21713            652.52     0          0          0          0
84902            615.25     0          0          0          0
20359            515.90     0          0          0          0
49414            658.37     0          0          0          0
21735            620.47     0          0          0          0
24668            608.25     0          0          0          0
65751            514.24     0          0          0          0
24581            619.74     0          0          0          0
20374            519.30     0          0          0          0
24571            641.20     0          0          0          0
20657            602.68     0          0          0          0
32454            586.33     0          0          0          0
20665            618.19     0          0          0          0
20377            524.63     0          0          0          0
18296            476.39     0          0          0          0
24669            604.50     0          0          0          0
18300            484.74     0          0          0          0
73606            613.11     0          0          0          0
73605            615.00     0          0          0          0
73607            615.77     0          0          0          0
21715            653.80     0          0          0          0
67751            606.47     0          0          0          0
20423BH          529.15     0          0          0          0
49408            644.63     0          0          0          0
48893            491.83     0          0          0          0
24572            633.00     0          0          0          0
20397            515.30     0          0          0          0
49602            580.11     0          0          0          0
73616            614.97     0          0          0          0
20372            518.74     0          0          0          0
79432            627.37     0          0          0          0
79433            624.60     0          0          0          0
73580            613.50     0          0          0          0
18297T           474.00     0          0          0          0
18297AG          475.88     0          0          0          0
18156            512.17     0          0          0          0
20368            516.09     0          0          0          0
48892            490.38     0          0          0          0
49622            612.38     0          0          0          0
49620            605.00     0          0          0          0
49619            597.96     0          0          0          0
18164            513.95     0          0          0          0
71736            511.52     0          0          0          0
26261            604.43     0          0          0          0
73609            629.50     0          0          0          0
26259            613.01     0          0          0          0
66254            621.08     0          0          0          0
71734            511.08     0          0          0          0
71735            511.18     0          0          0          0
73610            632.16     0          0          0          0
20395            516.57     0          0          0          0
49630            614.60     0          0          0          0
18299            477.17     0          0          0          0
20385            525.32     0          0          0          0
24575            638.55     0          0          0          0
73582            620.90     0          0          0          0
49251            506.31     0          0          0          0
49253            506.91     0          0          0          0
73619            642.00     0          0          0          0
24576            638.40     0          0          0          0
18298            475.54     0          0          0          0
73641            659.20     0          0          0          0
73549            654.30     0          0          0          0
79434            631.20     0          0          0          0
49252            507.40     0          0          0          0
66195            520.67     0          0          0          0
49259            513.62     0          0          0          0
20380            528.52     0          0          0          0
18298T           469.03     0          0          0          0
73545            650.15     0          0          0          0
73583            635.25     0          0          0          0
73110            476.70     0          0          0          0
73585            628.00     0          0          0          0
49430            510.38     0          0          0          0
51835            622.76     0          0          0          0
73584            630.40     0          0          0          0
51834            623.56     0          0          0          0
18079            508.01     0          0          0          0
65757            644.10     0          0          0          0
49629            622.85     0          0          0          0
73586            635.62     0          0          0          0
73598            647.00     0          0          0          0
73588            639.00     0          0          0          0
51838            613.42     0          0          0          0
73612            634.16     0          0          0          0
73613            632.87     0          0          0          0
18064            503.15     0          0          0          0
18065            504.07     0          0          0          0
49672            477.68     0          0          0          0
73547            654.01     0          0          0          0
51880            615.95     0          0          0          0
73599            647.61     0          0          0          0
49625            625.30     0          0          0          0
18068            503.12     0          0          0          0
73615            638.00     0          0          0          0
51881            622.16     0          0          0          0
49633            622.40     0          0          0          0
18070            493.49     0          0          0          0
51879            615.45     0          0          0          0
49433            512.31     0          0          0          0
51882            620.65     0          0          0          0
73590            640.04     0          0          0          0
72561            479.16     0          0          0          0
69098            506.69     0          0          0          0
73600            651.00     0          0          0          0
73596            647.20     0          0          0          0
73591            638.45     0          0          0          0
73593            644.70     0          0          0          0
18061            502.48     0          0          0          0
73604            654.00     0          0          0          0
18080            507.84     0          0          0          0
73601            651.45     0          0          0          0
49658            471.42     0          0          0          0
49669            492.13     0          0          0          0
49422            505.12     0          0          0          0
49262            513.91     0          0          0          0
49431            508.11     0          0          0          0
69107            513.00     0          0          0          0
49492            512.08     0          0          0          0
18058            498.91     0          0          0          0
18054            493.82     0          0          0          0
18096            514.15     0          0          0          0
69106            513.60     0          0          0          0
18059            497.62     0          0          0          0
49494            507.22     0          0          0          0
49676            485.78     0          0          0          0
18097            512.11     0          0          0          0
49493            507.99     0          0          0          0
49419            496.86     0          0          0          0
49427            504.99     0          0          0          0
49678            489.16     0          0          0          0
18085            507.06     0          0          0          0
18086            508.19     0          0          0          0
49417            497.80     0          0          0          0
18099            512.50     0          0          0          0
45694            487.56     0          0          0          0
49680            491.56     0          0          0          0
18100            514.62     0          0          0          0
18088            506.21     0          0          0          0
18090            509.11     0          0          0          0
18089            509.26     0          0          0          0
18102            511.86     0          0          0          0
49436            498.03     0          0          0          0
18093            511.55     0          0          0          0
49437            495.80     0          0          0          0
69104            510.40     0          0          0          0
18092            510.27     0          0          0          0
49438            500.99     0          0          0          0
30684            468.04     0          0          0          0
46266            665.46     0          0          0          0
01654            665.94     0          0          0          0
46271            665.33     0          0          0          0
46232            668.97     0          0          0          0
01675            678.24     0          0          0          0
01674            676.48     0          0          0          0
46158            677.41     0          0          0          0
46231            662.43     0          0          0          0
46157            667.02     0          0          0          0
46161            685.02     0          0          0          0
46150            684.30     0          0          0          0
46166            667.12     0          0          0          0
46171            685.28     0          0          0          0
46226            661.68     0          0          0          0
46205            665.03     0          0          0          0
01666            686.53     0          0          0          0
01672            679.91     0          0          0          0
01673            681.89     0          0          0          0
29055            675.24     0          0          0          0
18081            509.34     0          0          0          0
49489            507.15     0          0          0          0
49442            504.60     0          0          0          0
18045            504.82     0          0          0          0
46234            660.01     0          0          0          0
HGS-O1           492.00     0          0          0          0
HGS-O2           490.00     0          0          0          0
Node_48897       468.68     0          0          0          0
Node_10571073    468.33     0          0          0          0
Node_9346        554.96     0          0          0          0
Node_1023958     547.63     0          0          0          0
Node_18318       471.25     0          0          0          0
Node_10471067    470.40     0          0          0          0
Node_177         495.91     0          0          0          0
Node_1000833     491.17     0          0          0          0
Node_9230        485.65     0          0          0          0
Node_1001884     472.88     0          0          0          0
Node_74          497.48     0          0          0          0
Node_10021000    495.91     0          0          0          0
Node_184         500.81     0          0          0          0
Node_10131002    500.54     0          0          0          0
Node_10811002    497.48     0          0          0          0
Node_10401000    495.91     0          0          0          0
Node_20331       533.38     0          0          0          0
Node_10521053    531.43     0          0          0          0
Node_73113       468.31     0          0          0          0
Node_10731078    468.30     0          0          0          0
Node_95          469.39     0          0          0          0
Node_11201134    467.80     0          0          0          0
Node_10781134    466.76     0          0          0          0
Node_185         505.27     0          0          0          0
Node_10791013    500.81     0          0          0          0
Node_97          473.20     0          0          0          0
Node_10861057    469.72     0          0          0          0
Node_10921013    500.81     0          0          0          0
Node_25404       533.12     0          0          0          0
Node_10941053    531.43     0          0          0          0
Node_134         481.21     0          0          0          0
Node_10971086    474.48     0          0          0          0
Node_133         482.83     0          0          0          0
Node_11051112    480.89     0          0          0          0
Node_11121086    473.20     0          0          0          0
Node_11481112    480.89     0          0          0          0
Node_168         500.62     0          0          0          0
Node_11101082    497.66     0          0          0          0
Node_20657       596.68     0          0          0          0
Node_11711140    590.02     0          0          0          0
Node_49607       601.52     0          0          0          0
Node_11131140    590.02     0          0          0          0
Node_24669       599.50     0          0          0          0
Node_11761160    592.11     0          0          0          0
Node_24664       610.77     0          0          0          0
Node_11351160    592.11     0          0          0          0
Node_11751194    469.00     0          0          0          0
Node_98          468.68     0          0          0          0
Node_12491229    464.03     0          0          0          0
Node_11951194    470.00     0          0          0          0
Node_163         504.17     0          0          0          0
Node_11961018    491.38     0          0          0          0
Node_12021082    497.66     0          0          0          0
Node_12081018    491.38     0          0          0          0
Node_12321229    464.03     0          0          0          0
Node_12341264    498.85     0          0          0          0
Node_12781287    506.11     0          0          0          0
Node_99          506.11     0          0          0          0
Node_12871295    504.50     0          0          0          0
Node_93          504.50     0          0          0          0
Node_12951304    503.72     0          0          0          0
Node_102         503.55     0          0          0          0
Node_13041302    502.86     0          0          0          0
Node_90          502.86     0          0          0          0
Node_13021300    502.11     0          0          0          0
Node_86          502.11     0          0          0          0
Node_13001293    501.19     0          0          0          0
Node_85          501.19     0          0          0          0
Node_12931292    501.06     0          0          0          0
Node_12921264    498.69     0          0          0          0
Node_12851292    501.06     0          0          0          0
Node_12821304    503.72     0          0          0          0
Node_12831287    506.11     0          0          0          0
Node_12981295    504.80     0          0          0          0
Node_12991293    501.36     0          0          0          0
Node_13011300    502.28     0          0          0          0
Node_13061304    503.72     0          0          0          0
Node_13071302    503.03     0          0          0          0
Node_158         670.24     0          0          0          0
Node_13141316    669.47     0          0          0          0
Node_166         669.41     0          0          0          0
Node_13161321    660.12     0          0          0          0
Node_13191316    669.58     0          0          0          0
Node_13221321    660.12     0          0          0          0
Node_1672        674.91     0          0          0          0
Node_1326592     654.78     0          0          0          0
Node_56          673.89     0          0          0          0
Node_1327651     659.83     0          0          0          0
Node_1328651     663.38     0          0          0          0
hgs2             0          0          0          0          0
hgs3             0          0          0          0          0
Node_10672489    0          0          0          0          0
tl2              0          0          0          0          0
Node_24891069    0          0          0          0          0
Node_73          477.67     0          0          0          0
Node_10691071    468.33     0          0          0          0
Node_10711073    468.33     0          0          0          0
Node_10681074    470.32     0          0          0          0
Node_10741078    468.31     0          0          0          0

[OUTFALLS]
;;Name           Elev       Type       Stage      Gated
;;-------------- ---------- ---------- ---------- -----
18823BD          503.53     FREE                  NO

[STORAGE]
;;Name           Elev       MaxDepth   InitDepth  Shape      Curve/Params
;;-------------- ---------- ---------- ---------- ---------- ----------
HGS-WW           492.00     10.00      0          FUNCTIONAL 1000.00 0          0
UA0013P          483.50     10.00      0          FUNCTIONAL 1000.00 0          0

[CONDUITS]
;;Name           From             To               Length     Roughness  InOffset   OutOffset  InitFlow   MaxFlow
;;-------------- ---------------- ---------------- ---------- ---------- ---------- ---------- ---------- ----------
8889-888         18889            18888            422.23     0.0150     507.98     506.87     0          0
8888-886         18888            18886            508.85     0.0150     506.82     503.28     0          0
8886-884         18886            18884            450.20     0.0150     503.28     500.20     0          0
8884-899         18884            18899            797.20     0.0150     499.76     498.57     0          0
8899-963         18899            47963            964.70     0.0150     498.57     495.72     0          0
7963-870         47963            18870            320.80     0.0160     495.71     494.76     0          0
8870-868         18870            18868            217.70     0.0160     494.76     494.08     0          0
8868-866         18868            18866            154.90     0.0170     494.08     493.45     0          0
8866-867         18866            18867            9.10       0.0170     493.14     492.94     0          0
8867-863         18867            18863            496.90     0.0170     492.75     490.59     0          0
8863-973         18863            47973            344.94     0.0160     490.07     488.54     0          0
7973B-437        47973BD          18437            2249.30    0.0170     489.68     483.08     0          0
8437-436         18437            18436            300.93     0.0170     482.83     482.17     0          0
8436-435         18436            18435            357.90     0.0160     482.17     481.39     0          0
8435-434         18435            18434            479.24     0.0170     481.39     480.33     0          0
8434-432         18434            18432            155.64     0.0170     480.33     479.99     0          0
8432-433         18432            18433            9.20       0.0170     479.60     479.57     0          0
8433-431         18433            18431            102.10     0.0160     479.57     479.08     0          0
8431-12P         18431            UA0012P          126.70     0.0160     478.64     478.56     0          0
A0012-643        UA0012P          26643            43.94      0.0170     478.56     477.63     0          0
6643-642         26643            26642            166.60     0.0170     477.63     477.62     0          0
6642-40T         26642            26640T           367.70     0.0170     477.62     476.68     0          0
6640T-45T        26640T           49245T           361.20     0.0160     476.68     476.06     0          0
9245T-44T        49245T           49244T           437.10     0.0160     476.06     474.60     0          0
9244T-6BT        49244T           49226BT          423.40     0.0160     474.60     473.43     0          0
9226B-6AT        49226BT          49226AT          248.30     0.0160     473.43     472.88     0          0
9226A-639        49226AT          26639            124.10     0.0160     472.88     472.42     0          0
6639-65T         26639            18465T           525.70     0.0160     472.42     470.89     0          0
18465T-97T       18465T           48897T           1383.00    0.0160     470.89     468.68     0          0
48897T-13T       Node_48897       Node_10571073    149.80     0.0160     468.68     468.33     0          0
8907-908         18907            18908            200.50     0.0150     505.78     504.75     0          0
8908-886         18908            18886            340.61     0.0150     504.75     503.40     0          0
7949-888         47949            18888            226.80     0.0170     508.10     506.97     0          0
8909-908         18909            18908            149.20     0.0150     505.58     504.75     0          0
8904-884         18904            18884            502.70     0.0150     503.26     500.20     0          0
8890-888         18890            18888            143.92     0.0150     509.84     506.87     0          0
8891-892         18891            18892            243.00     0.0150     511.16     509.24     0          0
8892-896         18892            18896            478.80     0.0150     506.61     503.70     0          0
8896-899         18896            18899            521.70     0.0150     503.70     498.62     0          0
8910-896         18910            18896            483.42     0.0150     507.25     503.77     0          0
8900-882         18900            18882            586.40     0.0150     502.56     500.10     0          0
8882-881         18882            18881            397.30     0.0150     500.10     498.18     0          0
8881-963         18881            47963            259.70     0.0150     498.18     495.97     0          0
8878-881         18878            18881            591.80     0.0150     502.21     498.18     0          0
8883-882         18883            18882            78.00      0.0150     500.51     500.10     0          0
8705-231         48705            02231            1447.02    0.0130     663.69     646.00     0          0
2231-230         02231            02230            318.19     0.0150     646.00     643.97     0          0
2230-221         02230            02221            338.86     0.0150     643.97     642.77     0          0
2221-218         02221            02218            950.03     0.0150     642.57     631.63     0          0
2218-001         02218            73001            71.65      0.0150     631.63     628.24     0          0
3001-632         73001            48632            1592.00    0.0150     628.14     603.20     0          0
8632-569         48632            32569            184.60     0.0150     603.20     599.45     0          0
2569-635         32569            48635            382.30     0.0130     599.43     592.69     0          0
8635-637         48635            48637            284.10     0.0150     592.69     586.94     0          0
8637-638         48637            48638            258.43     0.0150     586.94     581.58     0          0
8638-639         48638            48639            194.74     0.0150     581.58     577.72     0          0
8639-640         48639            48640            169.90     0.0150     577.72     575.30     0          0
8640-644         48640            48644            375.10     0.0150     575.30     569.03     0          0
8644-645         48644            48645            71.20      0.0150     568.72     567.76     0          0
8645-657         48645            73657            433.70     0.0170     567.76     561.50     0          0
3657-327         73657            49327            619.23     0.0150     561.50     553.32     0          0
9327-326         49327            49326            173.73     0.0130     553.32     551.77     0          0
9326-323         49326            49323            262.80     0.0170     551.77     549.76     0          0
9323-324         49323            49324            199.00     0.0170     549.76     547.39     0          0
9324-037         49324            71037            1421.20    0.0160     547.39     533.00     0          0
1037-995         71037            47995            169.30     0.0170     533.00     531.99     0          0
7995-032         47995            71032            345.42     0.0170     531.35     527.84     0          0
1032-989         71032            47989            1774.00    0.0160     527.84     518.09     0          0
7989-520         47989            49520            599.80     0.0150     517.81     512.76     0          0
9520-517         49520            49517            245.20     0.0160     512.74     511.59     0          0
9517-513         49517            49513            589.90     0.0160     511.59     508.60     0          0
9513-232         49513            66232            328.21     0.0160     508.60     507.09     0          0
6232-418         66232            25418            392.60     0.0160     507.09     504.96     0          0
5418-422         25418            25422            305.60     0.0160     504.96     503.54     0          0
5422-675         25422            25675            280.04     0.0160     503.54     502.18     0          0
5675-06T         25675            66206T           168.40     0.0160     502.18     501.33     0          0
6206T-203        66206T           66203            993.60     0.0160     501.33     497.43     0          0
6203-02T         66203            66202T           201.00     0.0160     497.43     496.87     0          0
6202T-657        66202T           26657            536.20     0.0160     496.87     495.48     0          0
6657-57T         26657            26657T           23.80      0.0160     495.48     495.36     0          0
6657T-59T        26657T           26659T           243.94     0.0160     495.36     494.65     0          0
6659T-655        26659T           26655            837.40     0.0160     494.65     492.09     0          0
6655-653         26655            26653            555.70     0.0170     492.09     490.51     0          0
6653-643         26653            20643            659.40     0.0170     490.51     489.50     0          0
0643-765         20643            71765            1111.80    0.0170     489.50     486.05     0          0
1765-651         71765            26651            114.22     0.0170     486.05     485.34     0          0
6651-265         26651            49265            365.60     0.0170     485.34     483.95     0          0
9265-50T         49265            26650T           18.64      0.0170     483.95     483.90     0          0
6650T-649        26650T           26649            368.40     0.0170     483.90     482.36     0          0
6649-648         26649            26648            227.70     0.0170     482.36     481.45     0          0
6648-647         26648            26647            56.40      0.0160     481.45     481.35     0          0
6647-645         26647            26645            311.90     0.0160     481.35     479.37     0          0
6645-644         26645            26644            330.90     0.0160     479.37     478.63     0          0
6644-643         26644            26643            10.32      0.0160     478.00     477.63     0          0
9058C-043        49058CO          72043            817.70     0.0150     529.24     523.62     0          0
2043-074         72043            49074            204.72     0.0150     523.26     522.44     0          0
9074-892         49074            18892            1776.60    0.0150     522.44     506.70     0          0
1594B-594        71594BS          71594            25.70      0.0150     578.14     578.03     0          0
1594-797         71594            26797            836.60     0.0150     578.03     574.64     0          0
6797-446         26797            02446            450.37     0.0170     574.64     572.20     0          0
2446-460         02446            02460            1602.88    0.0170     572.20     556.37     0          0
2460-462         02460            02462            184.15     0.0170     554.79     552.00     0          0
2462-469         02462            02469            401.49     0.0170     551.59     547.90     0          0
2469-468         02469            02468            17.00      0.0170     547.90     547.55     0          0
2468-836         02468            26836            159.82     0.0170     547.55     546.45     0          0
6836-479         26836            26479            643.90     0.0170     546.45     522.48     0          0
6479-520         26479            49520            655.40     0.0160     522.14     513.35     0          0
1594A-594        71594AS          71594            24.20      0.0150     578.13     578.03     0          0
2249-246         02249            02246            719.52     0.0150     659.31     649.63     0          0
2246-245         02246            02245            331.28     0.0150     649.63     648.76     0          0
2245-229         02245            02229            1027.41    0.0150     648.76     645.08     0          0
2229-230         02229            02230            320.91     0.0150     645.08     643.97     0          0
9071-043         49071            72043            205.90     0.0150     524.50     523.26     0          0
7957-970         47957            47970            1011.40    0.0170     502.66     496.53     0          0
7970-972         47970            47972            519.80     0.0170     496.53     491.64     0          0
7972-973         47972            47973            505.60     0.0170     491.48     490.00     0          0
8552-556         18552            18556            1259.70    0.0170     499.70     494.68     0          0
8556-557         18556            18557            23.00      0.0170     494.65     495.00     0          0
8557-972         18557            47972            350.32     0.0170     495.00     491.64     0          0
9066-068         49066            49068            270.20     0.0150     526.89     524.07     0          0
9068-074         49068            49074            169.30     0.0150     523.57     522.90     0          0
7956-550         47956            18550            666.00     0.0170     500.26     497.56     0          0
8550-541         18550            18541            1054.20    0.0170     497.56     493.37     0          0
8541-521         18541            18521            311.80     0.0170     493.37     492.21     0          0
8521-534         18521            18534            311.44     0.0170     492.21     490.76     0          0
8534-595         18534            18595            459.10     0.0170     490.67     489.44     0          0
8595-960         18595            47960            404.20     0.0170     489.41     488.12     0          0
7960-576         47960            18576            323.31     0.0170     488.12     487.48     0          0
8576-588         18576            18588            110.20     0.0170     487.48     486.60     0          0
8588-579         18588            18579            559.60     0.0170     486.60     484.39     0          0
8579-505         18579            18505            456.40     0.0170     484.39     482.07     0          0
8505-504         18505            18504            276.90     0.0170     481.97     481.27     0          0
8504-592         18504            18592            283.20     0.0170     481.27     480.57     0          0
8592-481         18592            18481            300.60     0.0160     480.43     480.02     0          0
8481-483         18481            18483            640.40     0.0170     480.02     479.02     0          0
8483-476         18483            18476            347.40     0.0170     479.02     478.46     0          0
8476-475         18476            18475            308.70     0.0170     478.46     478.09     0          0
8475-471         18475            18471            364.10     0.0170     478.09     477.44     0          0
8471-45T         18471            49245T           173.80     0.0170     477.44     476.48     0          0
8912-896         18912            18896            568.20     0.0150     506.53     503.79     0          0
2238-245         02238            02245            487.16     0.0150     657.56     651.85     0          0
2596-068         32596            49068            387.65     0.0130     530.00     523.57     0          0
2247-246         02247            02246            140.32     0.0150     650.63     649.67     0          0
8551-550         18551            18550            99.40      0.0170     498.07     497.56     0          0
2034-814         22034            18814            1678.80    0.0170     512.33     499.78     0          0
8814-823         18814            18823            310.60     0.0170     499.78     498.53     0          0
8823-3BD         18823            18823BD          4.80       0.0170     498.53     498.53     0          0
8825-868         18825            18868            701.20     0.0170     497.30     494.08     0          0
6798-797         26798            26797            199.92     0.0150     576.07     574.94     0          0
7757-034         67757            22034            737.60     0.0170     520.74     512.33     0          0
8558-970         18558            47970            483.60     0.0170     499.45     496.84     0          0
8559-560         18559            18560            39.74      0.0170     495.60     495.47     0          0
8560-564         18560            18564            1365.70    0.0170     495.47     490.05     0          0
8564-595         18564            18595            143.45     0.0170     490.05     489.44     0          0
8538-534         18538            18534            1198.80    0.0170     495.55     490.76     0          0
6275-231         46275            02231            954.62     0.0130     654.93     646.00     0          0
8519-521         18519            18521            992.73     0.0170     496.25     492.24     0          0
8703-702         48703            48702            145.02     0.0130     645.92     645.34     0          0
8702-695         48702            48695            366.20     0.0130     645.34     643.60     0          0
8695-690         48695            48690            232.70     0.0130     643.60     642.86     0          0
8690-218         48690            02218            1058.21    0.0130     642.86     631.88     0          0
2033-830         22033            18830            1266.00    0.0170     517.15     508.00     0          0
8830-814         18830            18814            909.90     0.0170     508.00     501.88     0          0
2019-018         22019            22018            91.00      0.0170     527.58     527.26     0          0
2018-012         22018            22012            156.70     0.0170     527.24     526.39     0          0
2012-014         22012            22014            475.60     0.0170     526.39     518.97     0          0
2014-024         22014            22024            486.50     0.0170     518.97     513.44     0          0
2024-026         22024            22026            281.30     0.0170     513.42     511.08     0          0
2026-159         22026            49159            553.30     0.0170     511.08     503.99     0          0
9159-809         49159            18809            310.71     0.0170     503.99     501.79     0          0
8809-811         18809            18811            310.70     0.0170     501.79     499.50     0          0
8811-810         18811            18810            11.30      0.0170     495.80     495.74     0          0
8810-844         18810            18844            322.31     0.0170     495.74     494.16     0          0
8844-846         18844            18846            312.64     0.0170     494.16     492.80     0          0
8846-848         18846            18848            313.92     0.0170     492.80     491.87     0          0
8848-849         18848            18849            11.80      0.0160     491.37     491.08     0          0
8849-806         18849            18806            297.32     0.0160     486.56     486.17     0          0
8806-801         18806            18801            386.90     0.0160     486.17     485.53     0          0
8801-456         18801            18456            765.00     0.0160     485.53     484.26     0          0
8456-454         18456            18454            646.10     0.0160     484.26     480.91     0          0
8454-428         18454            18428            262.45     0.0160     480.91     479.69     0          0
8428-429         18428            18429            10.81      0.0170     479.60     479.42     0          0
8429-31T         18429            18431T           127.54     0.0160     479.42     479.30     0          0
8431T-431        18431T           18431            27.50      0.0160     479.30     478.64     0          0
2058B-112        72058BH          49112            292.10     0.0170     562.29     556.69     0          0
9112-108         49112            49108            838.20     0.0170     556.69     545.21     0          0
9108-050         49108            22050            2322.90    0.0170     545.21     507.56     0          0
2050-004         22050            22004            280.32     0.0170     507.56     506.16     0          0
2004-073         22004            72073            753.00     0.0170     505.99     500.25     0          0
2073-043         72073            22043            312.10     0.0170     500.25     498.63     0          0
2043-819         22043            18819            300.30     0.0170     498.63     497.38     0          0
8819-811         18819            18811            303.60     0.0170     497.18     495.96     0          0
2240-230         02240            02230            941.58     0.0150     656.15     646.46     0          0
9079-014         49079            22014            471.90     0.0170     521.83     518.97     0          0
7955-560         47955            18560            468.90     0.0170     497.20     495.47     0          0
8866-864         18866            18864            141.43     0.0170     493.45     492.84     0          0
8864-862         18864            18862            351.94     0.0170     492.84     491.44     0          0
8862-863         18862            18863            6.13       0.0170     491.44     490.64     0          0
9082-018         49082            22018            709.10     0.0170     536.26     527.24     0          0
8701-702         48701            48702            172.00     0.0130     646.00     645.34     0          0
2447-446         02447            02446            147.68     0.0170     572.90     572.20     0          0
8568-960         18568            47960            1353.40    0.0170     493.68     488.20     0          0
8567-564         18567            18564            1140.70    0.0170     494.68     490.05     0          0
6273-224         46273            02224            399.88     0.0150     648.58     646.98     0          0
2224-221         02224            02221            637.30     0.0150     646.98     642.81     0          0
8823-836         18823            18836            372.20     0.0170     497.94     495.36     0          0
8834-866         18834            18866            389.17     0.0170     495.70     493.61     0          0
2036-034         22036            22034            482.40     0.0170     514.92     512.33     0          0
6269-273         46269            46273            432.10     0.0150     651.46     648.58     0          0
9086-009         49086            22009            772.40     0.0170     538.24     529.50     0          0
2009-006         22009            22006            717.60     0.0170     529.50     518.30     0          0
2006-004         22006            22004            734.10     0.0170     515.99     508.10     0          0
9112T-112        49112T           49112            208.62     0.0170     557.75     556.69     0          0
6274-273         46274            46273            177.80     0.0150     653.62     652.71     0          0
8699-695         48699            48695            452.40     0.0130     648.00     643.60     0          0
1827-12T         21827            49112T           466.70     0.0170     566.40     557.75     0          0
2485-487         02485            02487            527.28     0.0170     573.74     566.67     0          0
2487-483         02487            02483            489.99     0.0170     566.67     557.12     0          0
2483-472         02483            02472            354.46     0.0170     557.12     554.62     0          0
2472-469         02472            02469            472.39     0.0170     554.62     547.90     0          0
8836-986         18836            47986            155.60     0.0160     495.36     494.26     0          0
7986-863         47986            18863            250.50     0.0160     494.26     490.55     0          0
6270-269         46270            46269            230.00     0.0150     652.61     651.46     0          0
8556-541         18556            18541            307.21     0.0170     494.68     493.37     0          0
2448-463         02448            02463            1506.53    0.0170     570.58     556.61     0          0
2463-460         02463            02460            367.61     0.0170     556.61     554.79     0          0
8692-695         48692            48695            320.00     0.0130     645.97     643.60     0          0
8831-830         18831            18830            99.70      0.0170     508.54     508.00     0          0
8571-574         18571            18574            806.50     0.0170     492.14     488.91     0          0
8574-576         18574            18576            560.02     0.0170     488.91     487.48     0          0
8689-690         48689            48690            140.04     0.0130     646.15     642.86     0          0
2017-012         22017            22012            403.34     0.0170     528.37     526.39     0          0
2037-026         22037            22026            160.80     0.0170     512.36     511.08     0          0
2511-499         02511            02499            1847.43    0.0170     576.94     566.12     0          0
2499-501         02499            02501            242.90     0.0170     566.12     559.85     0          0
2501-782         02501            20782            334.26     0.0170     558.25     535.12     0          0
0782-475         20782            26475            361.00     0.0160     534.93     530.40     0          0
6475-477         26475            26477            96.60      0.0160     530.40     529.12     0          0
6477-748         26477            67748            263.10     0.0160     529.12     524.13     0          0
7748-479         67748            26479            100.40     0.0160     524.13     522.14     0          0
2560-652         32560            48652            1121.10    0.0130     622.52     593.38     0          0
8652-661         48652            48661            341.30     0.0130     593.38     587.49     0          0
8661-662         48661            48662            29.00      0.0170     587.49     586.85     0          0
8662-663         48662            48663            156.83     0.0130     586.85     581.04     0          0
8663-639         48663            48639            102.70     0.0170     581.04     577.72     0          0
8816-814         18816            18814            788.73     0.0170     506.35     499.96     0          0
2559-560         32559            32560            182.63     0.0130     627.35     622.52     0          0
7973-974         47973            47974            16.85      0.0160     488.20     488.14     0          0
7974-849         47974            18849            1231.70    0.0160     488.14     486.56     0          0
2225-224         02225            02224            387.68     0.0150     649.16     646.98     0          0
8838-836         18838            18836            430.10     0.0170     499.53     497.29     0          0
2478-479         02478            02479            100.71     0.0170     570.60     567.66     0          0
2479-481         02479            02481            347.96     0.0170     567.66     562.67     0          0
2481-483         02481            02483            406.58     0.0170     562.67     557.12     0          0
2022-024         22022            22024            436.80     0.0170     516.98     513.42     0          0
1850-014         21850            22014            748.11     0.0170     523.85     518.97     0          0
2226-229         02226            02229            548.77     0.0150     648.24     645.08     0          0
2016-009         22016            22009            200.90     0.0170     530.38     529.50     0          0
8821-823         18821            18823            789.40     0.0170     502.67     498.59     0          0
5738-481         45738            02481            92.08      0.0170     563.57     562.67     0          0
2561-560         32561            32560            220.60     0.0130     626.82     622.52     0          0
9111-12T         49111            49112T           759.80     0.0170     566.25     557.80     0          0
8832-159         18832            49159            320.13     0.0170     505.59     503.99     0          0
8522-527         18522            18527            1183.30    0.0170     490.61     485.88     0          0
8527-549         18527            18549            350.02     0.0170     485.72     484.67     0          0
8549-437         18549            18437            475.03     0.0170     484.67     483.24     0          0
7959-574         47959            18574            165.02     0.0170     489.87     488.91     0          0
8542-549         18542            18549            1799.00    0.0170     492.93     484.83     0          0
2510-508         02510            02508            356.22     0.0170     576.07     573.54     0          0
2508-521         02508            02521            344.09     0.0170     573.54     572.15     0          0
2521-522         02521            02522            221.93     0.0170     572.15     570.24     0          0
2522-523         02522            02523            158.40     0.0170     570.24     565.83     0          0
2523-529         02523            02529            997.34     0.0170     565.81     551.13     0          0
2529-782         02529            20782            639.50     0.0170     551.13     537.38     0          0
2480-479         02480            02479            144.88     0.0170     568.23     567.66     0          0
2517-523         02517            02523            646.25     0.0170     575.59     565.81     0          0
2050-108         72050            49108            518.30     0.0150     553.19     547.90     0          0
6229-222         46229            46222            1100.70    0.0130     653.21     649.34     0          0
1823-453         21823            02453            414.45     0.0170     563.59     561.64     0          0
2453-100         02453            49100            384.17     0.0170     561.64     555.68     0          0
9100-099         49100            49099            163.60     0.0170     555.68     554.42     0          0
9099-095         49099            49095            286.61     0.0170     551.70     547.92     0          0
9095-821         49095            21821            153.30     0.0170     547.92     547.14     0          0
1821-164         21821            49164            903.90     0.0170     547.14     518.85     0          0
9164-316         49164            49316            303.00     0.0170     517.01     509.22     0          0
9316-655         49316            20655            159.71     0.0170     509.22     507.70     0          0
0655-06T         20655            66206T           325.60     0.0170     507.70     502.07     0          0
2493-487         02493            02487            335.63     0.0170     568.72     566.67     0          0
8817-809         18817            18809            319.20     0.0170     503.39     501.79     0          0
8533-531         18533            18531            508.50     0.0170     491.18     488.64     0          0
8531-527         18531            18527            552.10     0.0170     488.64     485.72     0          0
2039-026         22039            22026            565.80     0.0170     514.42     511.08     0          0
1305-616         71305            48616            449.10     0.0170     641.30     632.49     0          0
8616-001         48616            73001            520.70     0.0150     629.75     628.14     0          0
8839-844         18839            18844            671.10     0.0170     498.65     495.27     0          0
2021-006         22021            22006            260.52     0.0170     517.46     516.16     0          0
2047-819         22047            18819            995.20     0.0170     509.00     500.90     0          0
8653-654         48653            48654            217.50     0.0130     611.85     606.28     0          0
8654-652         48654            48652            132.80     0.0130     597.15     593.38     0          0
2452-453         02452            02453            67.65      0.0170     564.11     563.71     0          0
1319-652         71319            48652            555.50     0.0130     629.42     598.20     0          0
9089-091         49089            49091            335.50     0.0150     545.28     543.74     0          0
9091-153         49091            66153            581.50     0.0150     543.74     541.54     0          0
6153-835         66153            21835            28.00      0.0130     541.47     541.35     0          0
1835-833         21835            21833            165.00     0.0150     541.35     538.46     0          0
1833-831         21833            21831            294.84     0.0170     538.46     531.95     0          0
1831-829         21831            21829            384.60     0.0170     531.95     529.68     0          0
1829-631         21829            20631            619.50     0.0170     529.68     502.14     0          0
0631-59T         20631            26659T           223.00     0.0170     502.14     494.65     0          0
8820-810         18820            18810            308.32     0.0170     500.10     498.54     0          0
2572-573         32572            32573            253.23     0.0130     630.43     623.07     0          0
2572-569         32572            32569            660.80     0.0130     630.45     599.45     0          0
8811-843         18811            18843            322.70     0.0170     496.54     495.05     0          0
8843-844         18843            18844            12.84      0.0170     495.05     494.61     0          0
9110-091         49110            49091            539.10     0.0150     546.33     543.74     0          0
8859-862         18859            18862            855.40     0.0170     496.47     491.60     0          0
2494-496         02494            02496            800.22     0.0170     571.33     564.10     0          0
2496-748         02496            67748            678.10     0.0170     562.49     524.16     0          0
9101-100         49101            49100            212.34     0.0170     560.49     559.43     0          0
8850-851         18850            18851            236.41     0.0170     493.49     492.31     0          0
8851-436         18851            18436            1914.90    0.0170     492.31     482.75     0          0
8583-075         18583            72075            655.50     0.0170     491.42     488.11     0          0
8586-588         18586            18588            462.00     0.0170     488.11     486.74     0          0
2474-462         02474            02462            344.75     0.0170     562.68     551.59     0          0
2583-580         32583            32580            301.90     0.0130     620.80     591.13     0          0
2580-637         32580            48637            45.00      0.0130     591.13     586.94     0          0
8676-679         48676            48679            818.80     0.0170     646.60     638.60     0          0
8679-616         48679            48616            551.40     0.0150     638.60     632.38     0          0
2589-635         32589            48635            351.00     0.0130     627.57     592.69     0          0
2520-521         02520            02521            151.49     0.0170     577.29     573.75     0          0
2040-043         22040            22043            1110.70    0.0170     511.50     498.63     0          0
8594-531         18594            18531            315.10     0.0170     489.88     488.64     0          0
2507-508         02507            02508            75.92      0.0170     574.51     573.54     0          0
8843-845         18843            18845            312.21     0.0170     495.05     493.62     0          0
8845-846         18845            18846            10.42      0.0170     493.54     493.31     0          0
2579-662         32579            48662            344.00     0.0130     612.25     586.85     0          0
2489-496         02489            02496            680.06     0.0170     565.94     562.49     0          0
7978-973         47978            47973            883.80     0.0170     495.03     490.17     0          0
2473-472         02473            02472            89.01      0.0170     560.95     558.47     0          0
8818-819         18818            18819            10.20      0.0170     497.74     497.40     0          0
8818-811         18818            18811            299.94     0.0170     497.74     496.54     0          0
1822-099         21822            49099            129.60     0.0170     554.23     551.70     0          0
2506-501         02506            02501            1002.43    0.0170     578.44     558.25     0          0
8852-851         18852            18851            300.60     0.0170     493.79     492.31     0          0
2585-580         32585            32580            109.30     0.0130     611.90     591.13     0          0
8858-846         18858            18846            290.10     0.0170     495.28     493.78     0          0
8845-847         18845            18847            313.60     0.0170     493.62     492.18     0          0
8847-848         18847            18848            8.90       0.0170     492.39     492.26     0          0
9088-849         49088            21849            379.10     0.0170     527.97     526.13     0          0
1849-848         21849            21848            160.20     0.0170     526.13     525.53     0          0
1848-847         21848            21847            148.32     0.0170     525.53     524.97     0          0
1847-846         21847            21846            69.00      0.0170     524.97     524.75     0          0
1846-08T         21846            27208T           876.50     0.0170     524.75     514.40     0          0
7208T-638        27208T           20638            517.40     0.0170     513.55     494.92     0          0
0638-640         20638            20640            95.04      0.0170     494.92     493.29     0          0
0640-653         20640            26653            190.12     0.0170     493.29     491.45     0          0
8655-654         48655            48654            400.01     0.0130     611.33     606.19     0          0
8589-592         18589            18592            841.60     0.0170     486.92     482.96     0          0
2012-849         72012            21849            429.50     0.0170     529.71     526.13     0          0
1657-222         01657            46222            125.30     0.0150     649.47     649.34     0          0
1657-656         01657            01656            240.59     0.0150     649.47     649.47     0          0
1656-215         01656            02215            442.26     0.0150     644.65     643.39     0          0
2215-214         02215            02214            52.84      0.0150     643.39     643.31     0          0
2214-679         02214            48679            361.83     0.0150     643.31     638.60     0          0
2052-153         72052            66153            295.30     0.0130     544.74     541.47     0          0
2075-582         72075            18582            269.64     0.0170     488.11     486.82     0          0
8582-581         18582            18581            295.10     0.0170     486.82     485.64     0          0
8581-579         18581            18579            249.20     0.0170     485.64     484.47     0          0
8932-848         78932            18848            268.52     0.0170     495.50     492.34     0          0
8847-807         18847            18807            309.50     0.0170     492.18     490.76     0          0
8807-806         18807            18806            8.10       0.0170     490.75     490.42     0          0
2044-043         22044            22043            9.91       0.0170     498.94     498.63     0          0
2044-818         22044            18818            300.33     0.0170     498.94     497.74     0          0
1658-656         01658            01656            330.16     0.0150     648.16     646.42     0          0
1320-655         71320            48655            398.20     0.0130     613.22     611.33     0          0
8656-655         48656            48655            249.74     0.0130     612.54     611.33     0          0
8877-435         18877            18435            1664.70    0.0170     491.72     485.10     0          0
8665-663         48665            48663            114.10     0.0170     604.80     581.04     0          0
1839-840         21839            21840            379.73     0.0170     527.07     520.95     0          0
1840-050         21840            22050            505.90     0.0170     516.15     512.60     0          0
2217-215         02217            02215            256.06     0.0150     645.06     643.65     0          0
2524-522         02524            02522            305.38     0.0170     576.04     570.24     0          0
8667-635         48667            48635            190.70     0.0130     620.70     592.69     0          0
2011-848         72011            21848            82.90      0.0170     530.50     528.70     0          0
8853-806         18853            18806            313.10     0.0170     493.95     490.75     0          0
8807-802         18807            18802            372.80     0.0170     490.76     489.03     0          0
8802-801         18802            18801            13.62      0.0170     489.03     486.93     0          0
8229-075         18229            72075            431.63     0.0170     492.86     488.16     0          0
8657-661         48657            48661            355.80     0.0170     618.00     587.49     0          0
6219-217         46219            48217            509.70     0.0130     650.14     647.75     0          0
8217-214         48217            02214            547.39     0.0150     647.59     643.31     0          0
8585-504         18585            18504            600.40     0.0170     487.72     481.67     0          0
9096-095         49096            49095            192.84     0.0170     552.51     547.94     0          0
2010-847         72010            21847            191.10     0.0170     530.00     529.24     0          0
2002-073         22002            72073            10.11      0.0170     500.19     500.25     0          0
2002-044         22002            22044            313.20     0.0170     500.19     498.94     0          0
2464-463         02464            02463            119.94     0.0170     560.29     559.67     0          0
2525-529         02525            02529            561.42     0.0170     574.26     551.13     0          0
9098-821         49098            21821            112.40     0.0170     547.14     547.14     0          0
7979-847         47979            18847            400.00     0.0170     493.94     492.34     0          0
8841-843         18841            18843            763.84     0.0170     500.04     495.22     0          0
2051-160         22051            49160            586.64     0.0170     508.80     502.14     0          0
9160-002         49160            22002            304.20     0.0170     502.00     500.48     0          0
2001-002         22001            22002            116.10     0.0170     501.78     500.35     0          0
6152-835         66152            21835            273.65     0.0130     543.79     541.35     0          0
2051-02T         72051            66202T           1572.30    0.0150     540.51     497.87     0          0
8231-582         18231            18582            311.92     0.0170     488.98     486.82     0          0
1836-833         21836            21833            171.61     0.0170     542.01     538.46     0          0
8922-846         28922            21846            328.20     0.0170     532.12     528.16     0          0
8642-640         48642            48640            150.80     0.0170     609.50     575.65     0          0
2466-468         02466            02468            170.57     0.0170     555.80     549.75     0          0
2465-466         02465            02466            146.02     0.0170     560.07     555.80     0          0
8802-457         18802            18457            760.60     0.0170     489.03     485.58     0          0
8457-456         18457            18456            18.30      0.0170     484.97     484.26     0          0
2467-466         02467            02466            93.60      0.0170     556.34     555.80     0          0
1837-631         21837            20631            531.60     0.0170     542.38     502.14     0          0
6838-836         26838            26836            77.40      0.0170     549.00     546.62     0          0
8856-845         18856            18845            771.60     0.0170     497.48     493.78     0          0
8230-756         18230            71756            869.50     0.0170     489.99     485.48     0          0
1756-515         71756            18515            342.53     0.0150     485.48     483.51     0          0
8515-22T         18515            49222T           457.50     0.0150     483.51     481.32     0          0
9222T-222        49222T           49222            68.70      0.0170     481.32     479.80     0          0
9222-224         49222            49224            755.20     0.0170     477.69     475.52     0          0
9224-467         49224            18467            196.60     0.0170     475.52     474.66     0          0
8467-639         18467            26639            32.50      0.0170     474.66     473.53     0          0
5735-163         45735            49163            1242.30    0.0170     554.63     528.12     0          0
9163-164         49163            49164            84.64      0.0170     528.12     522.61     0          0
8854-807         18854            18807            406.43     0.0170     492.53     490.91     0          0
9097-163         49097            49163            887.70     0.0170     555.12     528.12     0          0
1832-831         21832            21831            195.44     0.0170     535.40     531.95     0          0
9075-074         89075            89074            116.40     0.0170     541.17     527.50     0          0
9074-061         89074            71061            591.50     0.0170     527.50     509.95     0          0
1061-232         71061            66232            82.02      0.0130     509.95     509.71     0          0
3114-802         73114            18802            311.00     0.0170     492.78     489.20     0          0
2055-160         22055            49160            150.24     0.0170     502.75     502.00     0          0
8516-581         18516            18581            312.34     0.0170     489.09     487.04     0          0
8648-645         48648            48645            461.50     0.0170     617.81     568.18     0          0
2076-452         72076            18452            616.62     0.0170     501.86     497.34     0          0
1828-829         21828            21829            56.63      0.0170     531.56     529.68     0          0
1842B-840        21842BH          21840            437.30     0.0170     518.24     516.15     0          0
9219-506         49219            18506            242.90     0.0170     487.32     483.56     0          0
8506-505         18506            18505            275.40     0.0170     483.30     482.27     0          0
9076-074         89076            89074            167.90     0.0170     537.33     527.50     0          0
2498-499         02498            02499            92.21      0.0170     566.19     566.12     0          0
9161-203         49161            66203            1032.50    0.0150     529.02     498.34     0          0
4703-671         24703            48671            1479.50    0.0130     641.37     628.89     0          0
8671-632         48671            48632            1189.30    0.0130     628.89     603.20     0          0
0635-08T         20635            27208T           297.10     0.0170     520.94     513.55     0          0
1659-217         01659            48217            366.71     0.0150     651.55     647.75     0          0
8452-417         18452            18417            238.20     0.0170     497.34     495.81     0          0
8417-25T         18417            18425T           1684.90    0.0170     495.81     485.09     0          0
8425T-453        18425T           18453            377.40     0.0170     485.09     482.71     0          0
8453-454         18453            18454            11.70      0.0170     482.22     480.91     0          0
5813-762         65813            71762            614.20     0.0170     500.65     499.23     0          0
1762-452         71762            18452            285.50     0.0170     499.23     497.44     0          0
8480-481         18480            18481            316.30     0.0170     485.96     484.39     0          0
3659-327         73659            49327            750.30     0.0130     560.75     553.65     0          0
3626-624         73626            73624            214.90     0.0130     624.57     610.90     0          0
3624-644         73624            48644            580.50     0.0130     610.90     568.72     0          0
0639-638         20639            20638            207.80     0.0170     511.92     494.92     0          0
8509-508         18509            18508            267.02     0.0170     487.66     486.66     0          0
8508-506         18508            18506            283.50     0.0170     484.53     483.30     0          0
8447-448         18447            18448            280.80     0.0170     488.67     487.30     0          0
8448-25T         18448            18425T           331.80     0.0170     487.30     485.09     0          0
3665-657         73665            73657            110.25     0.0130     579.00     561.50     0          0
9065-659         29065            01659            397.97     0.0150     653.78     651.72     0          0
6231-061         66231            71061            142.41     0.0130     534.79     509.95     0          0
9064-065         29064            29065            59.95      0.0150     654.06     653.78     0          0
8457-453         18457            18453            646.30     0.0170     485.58     482.54     0          0
4655-652         24655            24652            538.70     0.0130     616.70     595.00     0          0
4652-327         24652            49327            370.20     0.0130     595.00     553.70     0          0
8371-756         18371            71756            944.70     0.0150     491.07     485.48     0          0
5026-659         45026            01659            401.35     0.0150     654.78     651.71     0          0
1759B-759        71759BS          71759            142.50     0.0170     497.14     496.58     0          0
1759-417         71759            18417            190.30     0.0170     496.58     495.81     0          0
8449-448         18449            18448            153.71     0.0170     493.83     487.30     0          0
3629-624         73629            73624            717.20     0.0130     626.75     610.90     0          0
1757B-508        71757BH          18508            317.00     0.0150     485.83     484.53     0          0
7134-290         27134            20290            325.90     0.0170     501.76     495.17     0          0
0290-655         20290            26655            204.50     0.0170     495.17     493.01     0          0
0293-134         20293            27134            162.81     0.0170     513.16     501.76     0          0
6230-655         66230            20655            226.70     0.0170     523.20     511.01     0          0
1759A-759        71759AS          71759            117.22     0.0170     497.58     496.59     0          0
0651-649         20651            20649            274.20     0.0130     536.59     517.13     0          0
0649-422         20649            25422            140.80     0.0130     517.13     504.34     0          0
8479-483         18479            18483            445.70     0.0170     484.32     482.00     0          0
6160-640         66160            20640            291.80     0.0170     494.56     493.29     0          0
4066-448         24066            18448            394.10     0.0170     491.05     487.30     0          0
4702-671         24702            48671            589.50     0.0130     639.70     628.89     0          0
0294-57T         20294            26657T           303.50     0.0170     502.50     496.25     0          0
4698-700         24698            24700            572.00     0.0170     634.90     629.03     0          0
4700-565         24700            24565            404.71     0.0130     629.03     619.37     0          0
4565-719         24565            21719            437.00     0.0150     619.37     610.23     0          0
1719-554         21719            73554            109.81     0.0150     610.23     608.86     0          0
3554-639         73554            73639            584.90     0.0150     608.86     594.46     0          0
3639-343         73639            49343            216.90     0.0150     594.46     587.94     0          0
9343-317         49343            21317            507.30     0.0150     587.94     579.90     0          0
1317-356         21317            49356            134.60     0.0150     579.49     576.17     0          0
49356-347        49356            49347            1480.10    0.0150     574.40     558.04     0          0
9346-035         Node_9346        Node_1023958     854.30     0.0170     554.96     547.63     0          0
1035-760         71035            20760            195.30     0.0170     547.63     545.19     0          0
0760-546         20760            49546            391.80     0.0170     545.19     540.16     0          0
9546-543         49546            49543            248.30     0.0170     540.16     538.43     0          0
9543-995         49543            47995            744.40     0.0170     538.43     531.99     0          0
8500-502         18500            18502            173.40     0.0170     482.71     481.87     0          0
8502-476         18502            18476            250.90     0.0170     481.87     478.74     0          0
4591-593         24591            24593            356.70     0.0130     618.80     601.70     0          0
4593-594         24593            24594            96.03      0.0130     601.70     601.34     0          0
4594-596         24594            24596            208.10     0.0130     601.34     596.20     0          0
4596-652         24596            24652            158.40     0.0130     596.20     595.00     0          0
6229-316         66229            49316            280.00     0.0170     513.74     509.22     0          0
0648-649         20648            20649            160.40     0.0130     522.81     520.33     0          0
4691-671         24691            48671            1608.90    0.0130     647.35     628.89     0          0
0786-785         20786            20785            245.60     0.0170     549.12     547.83     0          0
0785-475         20785            26475            227.50     0.0170     547.83     530.46     0          0
1764-50T         71764            26650T           1036.00    0.0170     493.00     484.61     0          0
0288-290         20288            20290            119.85     0.0170     495.57     495.17     0          0
1751-908         71751            46908            190.53     0.0170     486.29     485.45     0          0
6908-222         46908            49222            475.27     0.0170     485.45     477.86     0          0
0642-643         20642            20643            70.83      0.0170     491.76     489.50     0          0
0783-785         20783            20785            784.90     0.0170     571.05     547.83     0          0
7201-134         27201            27134            236.72     0.0170     522.29     501.76     0          0
9067-065         29067            29065            492.20     0.0150     657.38     654.39     0          0
0286-288         20286            20288            368.60     0.0170     496.81     495.57     0          0
8485B-483        18485BH          18483            253.10     0.0170     480.86     479.31     0          0
8498-502         18498            18502            233.30     0.0170     483.04     481.87     0          0
9056-026         29056            45026            502.30     0.0150     659.83     654.78     0          0
4701-700         24701            24700            193.12     0.0130     630.00     629.03     0          0
8441-473         18441            18473            500.20     0.0170     485.71     481.66     0          0
8473-471         18473            18471            288.40     0.0170     481.66     480.32     0          0
1356-353         21356            21353            510.00     0.0150     638.39     631.02     0          0
1353-351         21353            21351            428.30     0.0150     631.02     624.35     0          0
1351-565         21351            24565            164.11     0.0150     624.28     619.37     0          0
0289-288         20289            20288            282.13     0.0170     499.61     495.57     0          0
9057-056         29057            29056            170.10     0.0150     661.09     659.83     0          0
0283-286         20283            20286            323.50     0.0170     505.99     496.81     0          0
1745-908         51745            46908            124.94     0.0170     486.06     485.45     0          0
8445-430         18445            18430            599.70     0.0170     488.00     481.12     0          0
8430-31T         18430            18431T           10.11      0.0170     480.84     479.30     0          0
5417-418         25417            25418            103.31     0.0170     508.46     507.84     0          0
3562-593         73562            24593            125.72     0.0130     614.29     607.80     0          0
8453-427         18453            18427            250.10     0.0170     482.54     481.38     0          0
8427-428         18427            18428            24.22      0.0170     481.38     481.22     0          0
0780-232         20780            66232            597.00     0.0170     552.21     509.60     0          0
9058-057         29058            29057            107.60     0.0150     661.97     661.09     0          0
0280-286         20280            20286            260.15     0.0170     499.93     496.81     0          0
8451-768         18451            71768            175.72     0.0150     491.11     490.09     0          0
1768-651         71768            26651            173.10     0.0170     487.86     485.44     0          0
1770-768         71770            71768            166.80     0.0170     488.74     487.86     0          0
1362-364         21362            21364            521.50     0.0150     644.21     634.74     0          0
1364-367         21364            21367            518.70     0.0150     634.67     631.81     0          0
1367-348         21367            21348            399.34     0.0150     629.24     627.23     0          0
1348-351         21348            21351            475.40     0.0150     627.23     624.28     0          0
1357-356         21357            21356            155.40     0.0150     641.76     638.40     0          0
9416-356         49416            21356            1570.80    0.0150     656.50     638.39     0          0
5032-057         45032            29057            172.62     0.0150     664.70     661.09     0          0
8413-406         18413            18406            332.40     0.0170     488.96     487.49     0          0
8406-649         18406            26649            135.80     0.0170     487.41     486.88     0          0
4598-596         24598            24596            268.60     0.0130     603.36     596.20     0          0
8428-430         18428            18430            128.12     0.0170     481.22     480.84     0          0
0279-280         20279            20280            147.42     0.0170     515.16     499.93     0          0
8430-2BD         18430            18432BD          120.40     0.0170     480.84     480.84     0          0
8432B-432        18432BD          18432            15.00      0.0170     480.84     479.99     0          0
9325-326         49325            49326            242.30     0.0130     570.40     552.19     0          0
1746-22T         51746            49222T           143.11     0.0170     484.42     481.32     0          0
4595-594         24595            24594            147.70     0.0130     615.40     609.40     0          0
4600-325         24600            49325            269.70     0.0130     597.15     570.40     0          0
9528-989         49528            47989            89.50      0.0150     518.16     517.98     0          0
0263-267         20263            20267            993.80     0.0170     524.98     516.44     0          0
0267-272         20267            20272            1282.20    0.0170     516.44     500.00     0          0
0272-273         20272            20273            102.41     0.0170     500.00     498.29     0          0
0273-101         20273            32101            427.40     0.0170     497.96     495.42     0          0
2101-23T         32101            66223T           154.60     0.0170     495.42     494.65     0          0
6223T-223        66223T           66223            220.30     0.0170     494.65     493.19     0          0
6223-264         66223            49264            334.62     0.0170     493.19     490.76     0          0
9264-765         49264            71765            349.30     0.0170     490.76     487.29     0          0
0442-675         20442            25675            501.70     0.0170     533.16     502.95     0          0
6246-258         26246            26258            202.70     0.0130     548.21     535.77     0          0
6258-056         26258            71056            500.60     0.0130     535.77     531.71     0          0
1056-055         71056            71055            162.00     0.0130     531.71     523.12     0          0
1055-528         71055            49528            93.00      0.0130     519.01     518.16     0          0
1775-776         71775            71776            367.61     0.0170     489.21     487.80     0          0
1776-453         71776            18453            285.80     0.0170     487.80     482.71     0          0
0282-280         20282            20280            320.30     0.0170     511.79     499.93     0          0
1783-776         71783            71776            377.70     0.0170     490.01     487.80     0          0
3537-532         73537            73532            121.31     0.0130     648.02     647.08     0          0
3532-538         73532            73538            925.50     0.0130     647.08     643.13     0          0
3538-377         73538            21377            45.53      0.0150     643.13     642.51     0          0
1377-373         21377            21373            461.00     0.0150     639.22     637.32     0          0
1373-371         21373            21371            409.31     0.0150     637.32     633.70     0          0
1371-567         21371            24567            520.30     0.0150     633.70     629.41     0          0
4567-726         24567            21726            481.10     0.0150     626.99     617.56     0          0
21726-725        21726            21725            93.70      0.0150     611.51     610.68     0          0
21328-330        21328            21330            135.55     0.0150     608.76     601.26     0          0
1330-357         49489            18809            545.80     0.0150     601.24     579.33     0          0
9357-356         49357            49356            142.60     0.0150     579.33     576.17     0          0
9524-513         49524            49513            1009.60    0.0170     560.41     509.35     0          0
3531-532         73531            73532            294.45     0.0130     650.20     647.08     0          0
0262-272         20262            20272            2025.90    0.0170     526.26     500.00     0          0
1365-364         21365            21364            134.90     0.0150     635.64     634.72     0          0
8474-473         18474            18473            183.20     0.0170     482.78     481.66     0          0
8386-515         18386            18515            933.24     0.0150     487.44     483.51     0          0
8405-406         18405            18406            176.11     0.0170     488.19     487.41     0          0
1774-776         71774            71776            170.40     0.0170     488.41     487.80     0          0
3561-323         73561            49323            309.20     0.0130     565.21     550.08     0          0
1354-353         21354            21353            135.21     0.0150     633.74     631.09     0          0
8851-325         78851            49325            161.00     0.0130     576.40     570.40     0          0
0602-422         20602            25422            568.60     0.0170     548.90     504.34     0          0
6244-056         26244            71056            243.80     0.0130     551.10     531.71     0          0
1058-241         71058            26241            136.50     0.0130     543.17     523.16     0          0
6241-530         26241            49530            95.90      0.0130     523.16     522.08     0          0
9530-528         49530            49528            256.61     0.0150     522.08     518.42     0          0
1040-037         71040            71037            303.62     0.0130     562.12     533.74     0          0
0296-297         20296            20297            148.53     0.0150     525.47     524.48     0          0
0297-302         20297            20302            1699.30    0.0170     524.48     505.50     0          0
0302-303         20302            20303            159.72     0.0170     505.50     504.71     0          0
0303-281         20303            49281            414.70     0.0170     504.39     502.51     0          0
9281-273         49281            20273            300.62     0.0170     502.51     497.96     0          0
3650-648         73650            73648            191.10     0.0130     612.43     610.50     0          0
3648-647         73648            73647            382.80     0.0130     610.50     586.50     0          0
3647-561         73647            73561            286.60     0.0130     586.50     565.21     0          0
6238-058         26238            71058            466.00     0.0130     558.17     543.17     0          0
6161-442         66161            20442            483.70     0.0170     535.10     533.16     0          0
0603-605         20603            20605            456.00     0.0170     547.13     540.32     0          0
0605-606         20605            20606            164.24     0.0170     540.32     536.52     0          0
0606-417         20606            25417            858.60     0.0170     536.52     508.46     0          0
9531-058         49531            71058            74.90      0.0130     547.20     543.17     0          0
6249-228         26249            26228            269.70     0.0130     561.22     553.99     0          0
6228-227         26228            26227            50.50      0.0130     553.99     547.18     0          0
6227-258         26227            26258            414.00     0.0130     547.18     535.77     0          0
1740-265         71740            49265            92.90      0.0170     486.34     485.43     0          0
0610-417         20610            25417            595.50     0.0130     552.39     508.46     0          0
3529-531         73529            73531            370.10     0.0130     652.97     650.20     0          0
3634-554         73634            73554            392.60     0.0170     626.75     609.51     0          0
0278-267         20278            20267            179.60     0.0170     520.03     518.53     0          0
8470-471         18470            18471            105.80     0.0170     480.76     480.18     0          0
3644-561         73644            73561            688.00     0.0130     603.52     565.21     0          0
0441-161         20441            66161            178.40     0.0170     535.80     535.10     0          0
6237-235         26237            26235            520.10     0.0130     565.29     527.33     0          0
6235-530         26235            49530            485.10     0.0150     527.33     522.08     0          0
0696-032         20696            71032            512.30     0.0170     575.10     529.60     0          0
3533-532         73533            73532            313.24     0.0130     648.94     647.08     0          0
6226-219         66226            26219            497.15     0.0130     556.87     537.16     0          0
6219-606         26219            20606            160.70     0.0170     537.16     536.52     0          0
6240-241         26240            26241            172.85     0.0130     528.61     526.30     0          0
3649-648         73649            73648            80.10      0.0130     610.90     610.50     0          0
0440-441         20440            20441            62.10      0.0170     536.10     535.80     0          0
0746-698         20746            20698            207.93     0.0150     581.07     579.96     0          0
0698-702         20698            20702            786.20     0.0150     579.85     535.49     0          0
0702-235         20702            26235            305.80     0.0150     534.94     527.33     0          0
8385-382         18385            18382            475.52     0.0150     486.52     484.42     0          0
8382-389         18382            18389            490.70     0.0170     484.42     482.39     0          0
8389-391         18389            18391            507.20     0.0170     482.39     476.87     0          0
18391-317        18391            18317            692.50     0.0170     476.87     472.15     0          0
18318-18W        Node_18318       Node_10471067    175.33     0.0170     471.25     470.40     0          0
3530-531         73530            73531            313.13     0.0130     653.22     650.20     0          0
0697-696         20697            20696            73.32      0.0170     576.69     575.22     0          0
1780-738         71780            71738            230.20     0.0170     488.37     487.23     0          0
1738-644         71738            26644            304.20     0.0170     487.03     481.08     0          0
1368-367         21368            21367            148.30     0.0150     630.01     629.24     0          0
8469-467         18469            18467            856.20     0.0170     481.40     477.28     0          0
8342-605         18342            18605            465.90     0.0170     484.23     482.24     0          0
8605-329         18605            18329            313.10     0.0170     482.24     481.11     0          0
8329-328         18329            18328            348.74     0.0170     481.11     479.62     0          0
8328-326         18328            18326            614.10     0.0170     479.62     477.21     0          0
18326-317        18326            18317            921.50     0.0170     477.21     473.57     0          0
8407-740         18407            71740            803.40     0.0170     491.89     486.34     0          0
6252-230         26252            26230            179.62     0.0130     564.66     560.59     0          0
6230-228         26230            26228            163.20     0.0130     560.09     553.99     0          0
0540-442         20540            20442            487.60     0.0170     550.66     538.40     0          0
1077-227         71077            26227            177.30     0.0130     555.26     547.18     0          0
3809-40T         63809            26640T           285.00     0.0170     483.06     476.68     0          0
1777-738         71777            71738            168.40     0.0130     487.96     487.24     0          0
9525-526         49525            49526            452.60     0.0150     559.50     544.50     0          0
9526-303         49526            49303            81.00      0.0150     542.96     542.00     0          0
9303-219         49303            26219            183.52     0.0150     542.00     537.16     0          0
3640-636         73640            73636            363.90     0.0130     625.96     604.24     0          0
3636-639         73636            73639            88.30      0.0130     604.24     594.46     0          0
6243-055         26243            71055            982.30     0.0130     545.28     523.12     0          0
8414-264         18414            49264            365.90     0.0170     502.38     491.05     0          0
8398-397         18398            18397            118.60     0.0170     483.76     483.17     0          0
8397-605         18397            18605            241.50     0.0170     483.17     482.24     0          0
1043-040         71043            71040            357.80     0.0130     591.34     562.12     0          0
1069-647         71069            73647            649.20     0.0130     606.40     586.50     0          0
1380-538         21380            73538            786.20     0.0150     650.50     643.13     0          0
8381-382         18381            18382            278.21     0.0170     485.53     484.42     0          0
9287-336         49287            20336            166.40     0.0170     539.55     537.99     0          0
0336-297         20336            20297            892.30     0.0170     537.99     524.48     0          0
0695-696         20695            20696            388.70     0.0170     589.77     575.10     0          0
6254-231         26254            26231            190.80     0.0130     561.46     560.77     0          0
6231-230         26231            26230            210.01     0.0130     560.77     560.09     0          0
6251-230         26251            26230            176.50     0.0130     564.94     560.59     0          0
8177-738         18177            71738            300.44     0.0170     491.17     487.23     0          0
8380-379         18380            18379            223.24     0.0170     485.14     484.15     0          0
8379-391         18379            18391            1106.70    0.0170     484.15     476.87     0          0
0444-161         20444            66161            509.50     0.0170     548.95     538.30     0          0
1046-040         71046            71040            682.20     0.0130     591.45     562.12     0          0
0614-605         20614            20605            123.04     0.0170     541.67     540.32     0          0
0745-698         20745            20698            180.43     0.0150     582.46     579.91     0          0
9405-765         49405            20765            463.61     0.0130     612.19     606.50     0          0
0765-762         20765            20762            714.10     0.0130     606.50     592.03     0          0
0762-035         20762            71035            437.70     0.0130     588.75     548.19     0          0
0694-693         20694            20693            319.43     0.0170     589.39     577.41     0          0
0693-543         20693            49543            290.93     0.0170     577.41     538.57     0          0
1050-046         71050            71046            582.90     0.0130     603.83     591.45     0          0
8331-329         18331            18329            246.92     0.0170     483.54     482.57     0          0
3637-636         73637            73636            226.54     0.0130     612.33     604.33     0          0
8196-740         18196            71740            545.60     0.0170     495.21     488.87     0          0
0716-718         20716            20718            449.44     0.0150     563.83     545.90     0          0
0718-526         20718            49526            327.14     0.0150     544.27     542.96     0          0
1722-719         21722            21719            286.44     0.0150     623.00     610.23     0          0
8388-389         18388            18389            220.21     0.0170     484.45     482.39     0          0
0617-614         20617            20614            358.10     0.0170     552.74     541.67     0          0
0313-310         20313            20310            624.80     0.0170     529.07     520.60     0          0
0310-309         20310            20309            371.83     0.0170     520.60     514.95     0          0
0309-305         20309            20305            779.30     0.0170     514.94     510.37     0          0
0305-303         20305            20303            513.30     0.0170     508.71     506.14     0          0
1721-554         21721            73554            338.70     0.0150     620.96     608.86     0          0
6253-231         26253            26231            194.80     0.0130     566.63     561.27     0          0
1047-046         71047            71046            195.12     0.0130     594.40     591.45     0          0
1341-343         21341            49343            578.30     0.0150     616.17     588.21     0          0
3664-397         73664            18397            380.20     0.0170     484.81     483.17     0          0
0352-23T         20352            66223T           193.30     0.0170     504.35     494.67     0          0
6218-614         26218            20614            224.80     0.0170     555.15     541.67     0          0
0618-619         20618            20619            212.32     0.0170     550.58     547.88     0          0
0619-441         20619            20441            793.30     0.0170     547.88     535.80     0          0
0338-340         20338            20340            269.40     0.0170     533.77     529.96     0          0
0340-346         20340            20346            384.90     0.0170     529.96     528.38     0          0
0346-407         20346            25407            308.60     0.0170     528.38     523.19     0          0
5407-408         25407            25408            182.30     0.0170     523.19     522.29     0          0
5408-315         25408            20315            658.80     0.0170     522.29     518.05     0          0
0315-309         20315            20309            299.94     0.0170     518.05     514.94     0          0
0350-348         20350            20348            269.10     0.0170     534.88     532.85     0          0
0348-346         20348            20346            375.70     0.0170     532.85     528.38     0          0
8378-379         18378            18379            313.20     0.0170     485.55     484.15     0          0
0737-735         20737            20735            266.10     0.0150     564.13     548.18     0          0
0735-030         20735            71030            174.01     0.0150     547.83     539.29     0          0
1030-702         71030            20702            353.30     0.0150     539.01     534.94     0          0
1347-348         21347            21348            326.71     0.0150     628.94     627.23     0          0
1311-314         21311            21314            430.20     0.0150     621.09     601.73     0          0
1314-317         21314            21317            217.60     0.0150     601.73     586.23     0          0
6255-235         26255            26235            792.30     0.0130     561.41     527.33     0          0
1372-371         21372            21371            141.90     0.0150     634.86     633.70     0          0
1375-373         21375            21373            399.90     0.0150     639.19     637.32     0          0
1345-317         21345            21317            992.20     0.0150     628.20     579.90     0          0
4558-556         24558            24556            307.90     0.0130     611.93     610.46     0          0
4556-680         24556            20680            795.90     0.0130     610.46     594.23     0          0
0680-762         20680            20762            586.40     0.0130     594.23     588.75     0          0
8603-605         18603            18605            252.40     0.0170     483.25     482.24     0          0
6162-619         66162            20619            83.50      0.0170     548.28     547.88     0          0
0344-340         20344            20340            160.63     0.0170     530.81     529.96     0          0
0767-765         20767            20765            276.42     0.0130     611.79     606.50     0          0
9277-101         49277            32101            300.10     0.0170     502.98     495.75     0          0
1382-377         21382            21377            619.20     0.0150     641.96     639.22     0          0
8330-329         18330            18329            145.12     0.0170     485.35     484.78     0          0
8194-196         18194            18196            480.90     0.0170     504.47     500.16     0          0
9288-303         49288            49303            493.10     0.0150     549.00     542.00     0          0
5392-336         25392            20336            660.30     0.0170     541.20     537.99     0          0
0720-718         20720            20718            225.70     0.0150     550.00     544.27     0          0
0742-739         20742            20739            931.60     0.0150     584.18     558.45     0          0
0739-735         20739            20735            241.70     0.0150     558.44     548.14     0          0
8602-603         18602            18603            176.00     0.0170     483.86     483.25     0          0
4568-567         24568            24567            107.20     0.0150     629.96     626.99     0          0
0723-721         20723            20721            355.10     0.0150     566.30     553.24     0          0
0721-718         20721            20718            355.20     0.0150     553.24     545.90     0          0
9345-556         49345            24556            193.80     0.0130     614.98     610.46     0          0
0349-348         20349            20348            233.30     0.0170     536.98     532.85     0          0
1315-314         21315            21314            268.02     0.0150     606.05     601.91     0          0
0354-194         20354            18194            642.20     0.0170     507.66     504.47     0          0
9238-44T         49238            49244T           853.30     0.0170     488.39     475.55     0          0
0741-558         20741            49558            198.85     0.0150     586.39     572.50     0          0
9558-739         49558            20739            452.50     0.0150     572.50     558.58     0          0
9278-280         49278            49280            175.00     0.0170     510.14     509.28     0          0
9280-281         49280            49281            181.80     0.0170     509.28     502.84     0          0
3556-383         73556            21383            198.20     0.0170     631.58     630.25     0          0
21383-392        21383            21392            774.30     0.0150     630.25     619.39     0          0
3552-726         73552            21726            278.93     0.0150     612.51     611.51     0          0
21723-725        21723            21725            396.70     0.0150     626.72     616.40     0          0
0681-680         20681            20680            183.23     0.0130     604.32     594.23     0          0
8494-6BT         18494            49226BT          507.30     0.0170     486.92     474.52     0          0
5391A-391        25391AS          25391            54.60      0.0170     539.68     540.08     0          0
25391-333        25391            20333            774.00     0.0170     540.08     531.48     0          0
0333-346         21850            47959            377.83     0.0170     531.48     528.38     0          0
5410-310         25410            20310            364.60     0.0170     524.80     520.69     0          0
8495-494         18495            18494            59.70      0.0170     488.16     486.92     0          0
0692-693         20692            20693            291.80     0.0170     589.59     577.41     0          0
8601-602         18601            18602            265.20     0.0170     485.04     483.86     0          0
0705-702         20705            20702            793.00     0.0150     569.02     535.18     0          0
8606-603         18606            18603            278.94     0.0170     485.22     483.27     0          0
1396-552         21396            73552            609.60     0.0150     633.25     612.67     0          0
0307-302         20307            20302            349.80     0.0170     509.69     507.25     0          0
8200-196         18200            18196            793.60     0.0170     500.42     495.21     0          0
3553-386         73553            21386            225.70     0.0150     643.52     642.19     0          0
1386-383         21386            21383            233.80     0.0150     642.19     630.25     0          0
5409-408         25409            25408            122.35     0.0170     526.28     525.65     0          0
0687-686         20687            20686            179.30     0.0150     587.29     584.83     0          0
0686-560         20686            49560            231.80     0.0150     584.83     577.31     0          0
9560-558         49560            49558            175.20     0.0150     577.31     572.50     0          0
5391B-391        25391BS          25391            151.85     0.0170     540.70     540.08     0          0
8182-177         18182            18177            1332.50    0.0170     497.83     492.50     0          0
8376-328         18376            18328            290.70     0.0170     483.80     482.65     0          0
8488-489         18488            18489            64.30      0.0170     482.86     482.52     0          0
8489-490         18489            18490            205.62     0.0170     482.52     481.50     0          0
8490-65T         18490            18465T           396.10     0.0170     481.50     471.03     0          0
9235-494         49235            18494            189.62     0.0170     487.79     486.92     0          0
9553-721         49553            20721            249.00     0.0150     563.29     553.24     0          0
0314-315         20314            20315            256.70     0.0170     520.28     518.22     0          0
18607-374        18607            18374            285.50     0.0170     486.59     485.42     0          0
0757-760         20757            20760            348.60     0.0150     581.77     545.24     0          0
1329-328         21329            21328            148.62     0.0150     617.70     609.15     0          0
8377-376         18377            18376            149.70     0.0170     484.59     483.80     0          0
20316-427        20316            20427            797.80     0.0170     520.80     512.20     0          0
0427-305         48655            02230            344.40     0.0170     511.78     509.54     0          0
1327-328         21327            21328            134.75     0.0150     612.65     609.37     0          0
0733-735         20733            20735            292.20     0.0150     557.07     548.06     0          0
0728-030         20728            71030            646.10     0.0150     572.30     539.30     0          0
1387-386         21387            21386            79.52      0.0150     645.34     642.19     0          0
8322-326         18322            18326            309.30     0.0170     483.58     479.85     0          0
0731-030         20731            71030            366.90     0.0150     546.49     539.01     0          0
1750-489         71750            18489            183.50     0.0170     483.69     482.52     0          0
8174T-177        Node_177         Node_1000833     1162.30    0.0170     495.91     491.17     0          0
9230-6AT         Node_9230        Node_1001884     789.50     0.0170     485.65     472.88     0          0
18184-74T        Node_74          Node_10021000    482.20     0.0170     497.48     495.91     0          0
0732-731         18473            18474            130.14     0.0150     553.10     547.02     0          0
1081-602         26221            27134            675.70     0.0170     487.32     483.97     0          0
18185-184        Node_184         Node_10131002    104.30     0.0170     500.81     500.54     0          0
0755-757         20296            73650            307.80     0.0150     596.54     581.77     0          0
0685-686         49416            45032            212.02     0.0150     590.94     584.83     0          0
0769-731         26649            18474            581.10     0.0150     555.00     546.49     0          0
26221-184        Node_184         Node_10811002    1421.30    0.0170     503.67     497.48     0          0
0671-757         20780            73650            558.90     0.0150     598.64     581.77     0          0
46898-74T        Node_74          Node_10401000    268.80     0.0170     499.19     495.91     0          0
20331-043        Node_20331       Node_10521053    148.70     0.0170     533.38     531.43     0          0
73113T-12T       Node_73113       Node_10731078    13.43      0.0160     468.31     468.30     0          0
18302-95T        Node_95          Node_11201134    133.10     0.0170     469.39     467.80     0          0
73112T-95T       Node_95          Node_10781134    827.50     0.0160     468.30     466.76     0          0
18401-185        Node_185         Node_10791013    787.10     0.0170     505.27     500.81     0          0
18134-97T        Node_97          Node_10861057    200.50     0.0170     473.20     469.72     0          0
18188-185        Node_185         Node_10921013    805.60     0.0170     504.91     500.81     0          0
25404B-043       Node_25404       Node_10941053    293.40     0.0170     533.12     531.43     0          0
18138-134        Node_134         Node_10971086    748.10     0.0170     481.21     474.48     0          0
18132-133        Node_133         Node_11051112    267.32     0.0170     482.83     480.89     0          0
18133-134        Node_134         Node_11121086    300.60     0.0170     480.89     473.20     0          0
71732-133        Node_133         Node_11481112    337.82     0.0170     484.05     480.89     0          0
49247-168        Node_168         Node_11101082    696.60     0.0150     500.62     497.66     0          0
20657-031        Node_20657       Node_11711140    341.80     0.0150     596.68     590.02     0          0
49607-031        Node_49607       Node_11131140    220.42     0.0150     601.52     590.02     0          0
24669-030        Node_24669       Node_11761160    304.40     0.0170     599.50     592.11     0          0
24664-030        Node_24664       Node_11351160    211.35     0.0170     610.77     592.11     0          0
18296-97T        Node_97          Node_11751194    240.50     0.0170     471.39     469.00     0          0
49672-98T        Node_98          Node_12491229    414.50     0.0160     468.68     464.03     0          0
18297A-97T       Node_97          Node_11951194    8.00       0.0170     470.88     470.00     0          0
18156-163        Node_163         Node_11961018    1736.00    0.0150     504.17     491.38     0          0
18164-168        Node_168         Node_12021082    1175.40    0.0170     506.95     497.66     0          0
71734-163        Node_163         Node_12081018    1879.20    0.0170     505.08     491.38     0          0
73110-98T        Node_98          Node_12321229    74.80      0.0170     470.70     464.03     0          0
49430-098        Node_98          Node_12341264    798.30     0.0150     502.38     498.85     0          0
69107-097        Node_97          Node_12781287    438.70     0.0170     508.00     506.11     0          0
18097-099        Node_99          Node_12871295    300.01     0.0170     506.11     504.50     0          0
18099-093        Node_93          Node_12951304    301.02     0.0170     504.50     503.72     0          0
18093-102        Node_102         Node_13041302    188.83     0.0170     503.55     502.86     0          0
18102-090        Node_90          Node_13021300    268.40     0.0170     502.86     502.11     0          0
18090-086        Node_86          Node_13001293    299.50     0.0170     502.11     501.19     0          0
18086-085        Node_85          Node_12931292    41.20      0.0160     501.19     501.06     0          0
18085-098        Node_98          Node_12921264    977.10     0.0170     501.06     498.69     0          0
49494-085        Node_85          Node_12851292    382.70     0.0130     503.22     501.06     0          0
18096-093        Node_93          Node_12821304    1264.00    0.0170     509.15     503.72     0          0
69106-097        Node_97          Node_12831287    600.10     0.0170     508.60     506.11     0          0
18100-099        Node_99          Node_12981295    293.22     0.0170     507.62     504.80     0          0
18088-086        Node_86          Node_12991293    176.10     0.0170     502.21     501.36     0          0
18089-090        Node_90          Node_13011300    195.30     0.0170     503.26     502.28     0          0
69104-093        Node_93          Node_13061304    129.40     0.0170     504.40     503.72     0          0
18092-102        Node_102         Node_13071302    231.30     0.0170     504.27     503.03     0          0
01675-158        Node_158         Node_13141316    148.00     0.0130     670.24     669.47     0          0
46158-166        Node_166         Node_13161321    1447.40    0.0130     669.41     660.12     0          0
46161-158        Node_158         Node_13191316    602.70     0.0130     679.02     669.58     0          0
46171-166        Node_166         Node_13221321    1313.00    0.0130     679.28     660.12     0          0
1672-026         Node_1672        Node_1326592     1422.79    0.0150     674.91     654.78     0          0
1673-056         Node_56          Node_1327651     1315.21    0.0150     673.89     659.83     0          0
9055-056         Node_56          Node_1328651     350.60     0.0150     665.24     663.38     0          0
73113BA-73       Node_73          Node_10691071    39.20      0.0150     477.67     468.33     0          0
73113AA-73       Node_73          Node_10711073    5.31       0.0150     468.33     468.33     0          0
73112BA-73       Node_73          Node_10681074    50.20      0.0170     470.32     470.32     0          0
73112AA-73       Node_73          Node_10741078    7.90       0.0170     468.31     468.31     0          0

[WEIRS]
;;Name           From             To               Type       CrestHt    Qcoeff     Gated    EndCon   EndCoeff   Surcharge
;;-------------- ---------------- ---------------- ---------- ---------- ---------- -------- -------- ---------- ----------
HGS-WEIR         UA0012P          HGS-WW           V-NOTCH    480.00     1.840      NO       0        0          YES
1986.1           Node_18318       Node_10672489    V-NOTCH    471.50     1.840      NO       0        0          YES

[PUMPS]
;;Name           From             To               PumpCurve  Status   Startup    Shutoff
;;-------------- ---------------- ---------------- ---------- -------- ---------- ----------
hgs1             hgs2             hgs3             PC_hgs1    ON       478.60     475.00    
tl1              tl2              Node_24891069    PC_tl1     ON       470.30     467.80    

[CURVES]
;;Name           Type       X-Value    Y-Value
;;-------------- ---------- ---------- ----------
;; Synthesized generic pump curves — replace with actual pump data
PC_hgs1          Pump1      0          5
PC_hgs1                     10         10
PC_tl1           Pump1      0          5
PC_tl1                      10         10

[XSECTIONS]
;;Link           Shape        Geom1      Geom2      Geom3      Geom4      Barrels
;;-------------- ------------ ---------- ---------- ---------- ---------- ----------
8889-888         CIRCULAR     0.83       0          0          0          1
8888-886         CIRCULAR     0.83       0          0          0          1
8886-884         CIRCULAR     0.83       0          0          0          1
8884-899         CIRCULAR     1.25       0          0          0          1
8899-963         CIRCULAR     1.25       0          0          0          1
7963-870         CIRCULAR     1.33       0          0          0          1
8870-868         CIRCULAR     1.33       0          0          0          1
8868-866         CIRCULAR     0.83       0          0          0          1
8866-867         CIRCULAR     1.00       0          0          0          1
8867-863         CIRCULAR     1.50       0          0          0          1
8863-973         CIRCULAR     2.00       0          0          0          1
7973B-437        CIRCULAR     1.00       0          0          0          1
8437-436         CIRCULAR     1.25       0          0          0          1
8436-435         CIRCULAR     1.25       0          0          0          1
8435-434         CIRCULAR     1.25       0          0          0          1
8434-432         CIRCULAR     1.25       0          0          0          1
8432-433         CIRCULAR     1.50       0          0          0          1
8433-431         CIRCULAR     1.50       0          0          0          1
8431-12P         CIRCULAR     3.00       0          0          0          1
A0012-643        CIRCULAR     2.50       0          0          0          1
6643-642         CIRCULAR     1.25       0          0          0          1
6642-40T         CIRCULAR     2.75       0          0          0          1
6640T-45T        CIRCULAR     2.75       0          0          0          1
9245T-44T        CIRCULAR     2.75       0          0          0          1
9244T-6BT        CIRCULAR     2.75       0          0          0          1
9226B-6AT        CIRCULAR     2.75       0          0          0          1
9226A-639        CIRCULAR     2.75       0          0          0          1
6639-65T         CIRCULAR     2.75       0          0          0          1
18465T-97T       CIRCULAR     2.75       0          0          0          1
48897T-13T       CIRCULAR     2.75       0          0          0          1
8907-908         CIRCULAR     0.67       0          0          0          1
8908-886         CIRCULAR     0.67       0          0          0          1
7949-888         CIRCULAR     0.67       0          0          0          1
8909-908         CIRCULAR     0.67       0          0          0          1
8904-884         CIRCULAR     0.67       0          0          0          1
8890-888         CIRCULAR     0.67       0          0          0          1
8891-892         CIRCULAR     0.67       0          0          0          1
8892-896         CIRCULAR     0.83       0          0          0          1
8896-899         CIRCULAR     0.83       0          0          0          1
8910-896         CIRCULAR     0.67       0          0          0          1
8900-882         CIRCULAR     0.67       0          0          0          1
8882-881         CIRCULAR     0.67       0          0          0          1
8881-963         CIRCULAR     0.67       0          0          0          1
8878-881         CIRCULAR     0.67       0          0          0          1
8883-882         CIRCULAR     0.67       0          0          0          1
8705-231         CIRCULAR     0.67       0          0          0          1
2231-230         CIRCULAR     0.67       0          0          0          1
2230-221         CIRCULAR     0.67       0          0          0          1
2221-218         CIRCULAR     1.00       0          0          0          1
2218-001         CIRCULAR     1.00       0          0          0          1
3001-632         CIRCULAR     1.50       0          0          0          1
8632-569         CIRCULAR     1.25       0          0          0          1
2569-635         CIRCULAR     1.25       0          0          0          1
8635-637         CIRCULAR     1.25       0          0          0          1
8637-638         CIRCULAR     1.25       0          0          0          1
8638-639         CIRCULAR     1.25       0          0          0          1
8639-640         CIRCULAR     1.25       0          0          0          1
8640-644         CIRCULAR     1.25       0          0          0          1
8644-645         CIRCULAR     1.50       0          0          0          1
8645-657         CIRCULAR     1.50       0          0          0          1
3657-327         CIRCULAR     1.50       0          0          0          1
9327-326         CIRCULAR     1.50       0          0          0          1
9326-323         CIRCULAR     1.50       0          0          0          1
9323-324         CIRCULAR     1.50       0          0          0          1
9324-037         CIRCULAR     1.50       0          0          0          1
1037-995         CIRCULAR     1.50       0          0          0          1
7995-032         CIRCULAR     2.00       0          0          0          1
1032-989         CIRCULAR     2.00       0          0          0          1
7989-520         CIRCULAR     2.25       0          0          0          1
9520-517         CIRCULAR     2.25       0          0          0          1
9517-513         CIRCULAR     2.25       0          0          0          1
9513-232         CIRCULAR     2.25       0          0          0          1
6232-418         CIRCULAR     2.25       0          0          0          1
5418-422         CIRCULAR     2.25       0          0          0          1
5422-675         CIRCULAR     2.25       0          0          0          1
5675-06T         CIRCULAR     2.25       0          0          0          1
6206T-203        CIRCULAR     2.50       0          0          0          1
6203-02T         CIRCULAR     2.50       0          0          0          1
6202T-657        CIRCULAR     2.50       0          0          0          1
6657-57T         CIRCULAR     2.50       0          0          0          1
6657T-59T        CIRCULAR     2.50       0          0          0          1
6659T-655        CIRCULAR     2.50       0          0          0          1
6655-653         CIRCULAR     2.50       0          0          0          1
6653-643         CIRCULAR     2.50       0          0          0          1
0643-765         CIRCULAR     2.50       0          0          0          1
1765-651         CIRCULAR     2.25       0          0          0          1
6651-265         CIRCULAR     2.25       0          0          0          1
9265-50T         CIRCULAR     2.25       0          0          0          1
6650T-649        CIRCULAR     2.25       0          0          0          1
6649-648         CIRCULAR     2.25       0          0          0          1
6648-647         CIRCULAR     2.25       0          0          0          1
6647-645         CIRCULAR     2.25       0          0          0          1
6645-644         CIRCULAR     2.25       0          0          0          1
6644-643         CIRCULAR     2.75       0          0          0          1
9058C-043        CIRCULAR     0.67       0          0          0          1
2043-074         CIRCULAR     0.67       0          0          0          1
9074-892         CIRCULAR     0.67       0          0          0          1
1594B-594        CIRCULAR     0.67       0          0          0          1
1594-797         CIRCULAR     0.67       0          0          0          1
6797-446         CIRCULAR     0.67       0          0          0          1
2446-460         CIRCULAR     0.67       0          0          0          1
2460-462         CIRCULAR     0.67       0          0          0          1
2462-469         CIRCULAR     0.67       0          0          0          1
2469-468         CIRCULAR     0.67       0          0          0          1
2468-836         CIRCULAR     0.67       0          0          0          1
6836-479         CIRCULAR     0.67       0          0          0          1
6479-520         CIRCULAR     1.50       0          0          0          1
1594A-594        CIRCULAR     0.67       0          0          0          1
2249-246         CIRCULAR     0.67       0          0          0          1
2246-245         CIRCULAR     0.67       0          0          0          1
2245-229         CIRCULAR     0.83       0          0          0          1
2229-230         CIRCULAR     0.67       0          0          0          1
9071-043         CIRCULAR     0.67       0          0          0          1
7957-970         CIRCULAR     0.67       0          0          0          1
7970-972         CIRCULAR     0.67       0          0          0          1
7972-973         CIRCULAR     0.83       0          0          0          1
8552-556         CIRCULAR     0.67       0          0          0          1
8556-557         CIRCULAR     0.67       0          0          0          1
8557-972         CIRCULAR     0.67       0          0          0          1
9066-068         CIRCULAR     0.67       0          0          0          1
9068-074         CIRCULAR     0.67       0          0          0          1
7956-550         CIRCULAR     0.67       0          0          0          1
8550-541         CIRCULAR     0.67       0          0          0          1
8541-521         CIRCULAR     0.67       0          0          0          1
8521-534         CIRCULAR     0.67       0          0          0          1
8534-595         CIRCULAR     0.83       0          0          0          1
8595-960         CIRCULAR     0.83       0          0          0          1
7960-576         CIRCULAR     0.83       0          0          0          1
8576-588         CIRCULAR     0.83       0          0          0          1
8588-579         CIRCULAR     0.83       0          0          0          1
8579-505         CIRCULAR     0.83       0          0          0          1
8505-504         CIRCULAR     1.00       0          0          0          1
8504-592         CIRCULAR     1.00       0          0          0          1
8592-481         CIRCULAR     1.25       0          0          0          1
8481-483         CIRCULAR     1.25       0          0          0          1
8483-476         CIRCULAR     1.25       0          0          0          1
8476-475         CIRCULAR     1.25       0          0          0          1
8475-471         CIRCULAR     1.33       0          0          0          1
8471-45T         CIRCULAR     1.25       0          0          0          1
8912-896         CIRCULAR     0.67       0          0          0          1
2238-245         CIRCULAR     0.67       0          0          0          1
2596-068         CIRCULAR     0.67       0          0          0          1
2247-246         CIRCULAR     0.67       0          0          0          1
8551-550         CIRCULAR     0.67       0          0          0          1
2034-814         CIRCULAR     0.83       0          0          0          1
8814-823         CIRCULAR     0.83       0          0          0          1
8823-3BD         CIRCULAR     0.83       0          0          0          1
8825-868         CIRCULAR     0.83       0          0          0          1
6798-797         CIRCULAR     0.67       0          0          0          1
7757-034         CIRCULAR     0.67       0          0          0          1
8558-970         CIRCULAR     0.67       0          0          0          1
8559-560         CIRCULAR     0.67       0          0          0          1
8560-564         CIRCULAR     0.67       0          0          0          1
8564-595         CIRCULAR     0.67       0          0          0          1
8538-534         CIRCULAR     0.67       0          0          0          1
6275-231         CIRCULAR     0.67       0          0          0          1
8519-521         CIRCULAR     0.67       0          0          0          1
8703-702         CIRCULAR     0.67       0          0          0          1
8702-695         CIRCULAR     0.67       0          0          0          1
8695-690         CIRCULAR     0.67       0          0          0          1
8690-218         CIRCULAR     0.67       0          0          0          1
2033-830         CIRCULAR     0.67       0          0          0          1
8830-814         CIRCULAR     0.67       0          0          0          1
2019-018         CIRCULAR     0.67       0          0          0          1
2018-012         CIRCULAR     0.67       0          0          0          1
2012-014         CIRCULAR     0.67       0          0          0          1
2014-024         CIRCULAR     0.67       0          0          0          1
2024-026         CIRCULAR     0.67       0          0          0          1
2026-159         CIRCULAR     0.67       0          0          0          1
9159-809         CIRCULAR     0.67       0          0          0          1
8809-811         CIRCULAR     0.67       0          0          0          1
8811-810         CIRCULAR     1.50       0          0          0          1
8810-844         CIRCULAR     1.50       0          0          0          1
8844-846         CIRCULAR     1.50       0          0          0          1
8846-848         CIRCULAR     1.50       0          0          0          1
8848-849         CIRCULAR     2.00       0          0          0          1
8849-806         CIRCULAR     2.50       0          0          0          1
8806-801         CIRCULAR     2.50       0          0          0          1
8801-456         CIRCULAR     2.50       0          0          0          1
8456-454         CIRCULAR     2.25       0          0          0          1
8454-428         CIRCULAR     2.25       0          0          0          1
8428-429         CIRCULAR     2.25       0          0          0          1
8429-31T         CIRCULAR     2.25       0          0          0          1
8431T-431        CIRCULAR     2.25       0          0          0          1
2058B-112        CIRCULAR     0.67       0          0          0          1
9112-108         CIRCULAR     0.67       0          0          0          1
9108-050         CIRCULAR     0.67       0          0          0          1
2050-004         CIRCULAR     0.67       0          0          0          1
2004-073         CIRCULAR     0.83       0          0          0          1
2073-043         CIRCULAR     0.83       0          0          0          1
2043-819         CIRCULAR     1.00       0          0          0          1
8819-811         CIRCULAR     1.25       0          0          0          1
2240-230         CIRCULAR     0.67       0          0          0          1
9079-014         CIRCULAR     0.67       0          0          0          1
7955-560         CIRCULAR     0.67       0          0          0          1
8866-864         CIRCULAR     0.83       0          0          0          1
8864-862         CIRCULAR     0.83       0          0          0          1
8862-863         CIRCULAR     1.00       0          0          0          1
9082-018         CIRCULAR     0.67       0          0          0          1
8701-702         CIRCULAR     0.67       0          0          0          1
2447-446         CIRCULAR     0.67       0          0          0          1
8568-960         CIRCULAR     0.67       0          0          0          1
8567-564         CIRCULAR     0.67       0          0          0          1
6273-224         CIRCULAR     0.83       0          0          0          1
2224-221         CIRCULAR     0.83       0          0          0          1
8823-836         CIRCULAR     1.25       0          0          0          1
8834-866         CIRCULAR     0.67       0          0          0          1
2036-034         CIRCULAR     0.67       0          0          0          1
6269-273         CIRCULAR     0.83       0          0          0          1
9086-009         CIRCULAR     0.67       0          0          0          1
2009-006         CIRCULAR     0.83       0          0          0          1
2006-004         CIRCULAR     0.83       0          0          0          1
9112T-112        CIRCULAR     0.67       0          0          0          1
6274-273         CIRCULAR     0.67       0          0          0          1
8699-695         CIRCULAR     0.67       0          0          0          1
1827-12T         CIRCULAR     0.67       0          0          0          1
2485-487         CIRCULAR     0.67       0          0          0          1
2487-483         CIRCULAR     0.67       0          0          0          1
2483-472         CIRCULAR     0.67       0          0          0          1
2472-469         CIRCULAR     0.67       0          0          0          1
8836-986         CIRCULAR     1.25       0          0          0          1
7986-863         CIRCULAR     1.25       0          0          0          1
6270-269         CIRCULAR     0.67       0          0          0          1
8556-541         CIRCULAR     0.67       0          0          0          1
2448-463         CIRCULAR     0.67       0          0          0          1
2463-460         CIRCULAR     0.67       0          0          0          1
8692-695         CIRCULAR     0.67       0          0          0          1
8831-830         CIRCULAR     0.67       0          0          0          1
8571-574         CIRCULAR     0.67       0          0          0          1
8574-576         CIRCULAR     0.83       0          0          0          1
8689-690         CIRCULAR     0.67       0          0          0          1
2017-012         CIRCULAR     0.67       0          0          0          1
2037-026         CIRCULAR     0.67       0          0          0          1
2511-499         CIRCULAR     0.67       0          0          0          1
2499-501         CIRCULAR     0.67       0          0          0          1
2501-782         CIRCULAR     0.67       0          0          0          1
0782-475         CIRCULAR     1.25       0          0          0          1
6475-477         CIRCULAR     1.25       0          0          0          1
6477-748         CIRCULAR     1.25       0          0          0          1
7748-479         CIRCULAR     1.25       0          0          0          1
2560-652         CIRCULAR     0.67       0          0          0          1
8652-661         CIRCULAR     0.67       0          0          0          1
8661-662         CIRCULAR     0.67       0          0          0          1
8662-663         CIRCULAR     0.67       0          0          0          1
8663-639         CIRCULAR     0.83       0          0          0          1
8816-814         CIRCULAR     0.67       0          0          0          1
2559-560         CIRCULAR     0.67       0          0          0          1
7973-974         CIRCULAR     2.50       0          0          0          1
7974-849         CIRCULAR     2.50       0          0          0          1
2225-224         CIRCULAR     0.67       0          0          0          1
8838-836         CIRCULAR     0.67       0          0          0          1
2478-479         CIRCULAR     0.67       0          0          0          1
2479-481         CIRCULAR     0.67       0          0          0          1
2481-483         CIRCULAR     0.67       0          0          0          1
2022-024         CIRCULAR     0.67       0          0          0          1
1850-014         CIRCULAR     0.67       0          0          0          1
2226-229         CIRCULAR     0.67       0          0          0          1
2016-009         CIRCULAR     0.67       0          0          0          1
8821-823         CIRCULAR     0.67       0          0          0          1
5738-481         CIRCULAR     0.67       0          0          0          1
2561-560         CIRCULAR     0.67       0          0          0          1
9111-12T         CIRCULAR     0.67       0          0          0          1
8832-159         CIRCULAR     0.67       0          0          0          1
8522-527         CIRCULAR     0.67       0          0          0          1
8527-549         CIRCULAR     0.67       0          0          0          1
8549-437         CIRCULAR     0.83       0          0          0          1
7959-574         CIRCULAR     0.67       0          0          0          1
8542-549         CIRCULAR     0.67       0          0          0          1
2510-508         CIRCULAR     0.67       0          0          0          1
2508-521         CIRCULAR     0.67       0          0          0          1
2521-522         CIRCULAR     0.67       0          0          0          1
2522-523         CIRCULAR     0.67       0          0          0          1
2523-529         CIRCULAR     0.67       0          0          0          1
2529-782         CIRCULAR     1.25       0          0          0          1
2480-479         CIRCULAR     0.67       0          0          0          1
2517-523         CIRCULAR     0.67       0          0          0          1
2050-108         CIRCULAR     0.67       0          0          0          1
6229-222         CIRCULAR     0.83       0          0          0          1
1823-453         CIRCULAR     0.67       0          0          0          1
2453-100         CIRCULAR     0.67       0          0          0          1
9100-099         CIRCULAR     0.67       0          0          0          1
9099-095         CIRCULAR     0.67       0          0          0          1
9095-821         CIRCULAR     0.67       0          0          0          1
1821-164         CIRCULAR     0.67       0          0          0          1
9164-316         CIRCULAR     0.67       0          0          0          1
9316-655         CIRCULAR     0.67       0          0          0          1
0655-06T         CIRCULAR     2.25       0          0          0          1
2493-487         CIRCULAR     0.67       0          0          0          1
8817-809         CIRCULAR     0.67       0          0          0          1
8533-531         CIRCULAR     0.67       0          0          0          1
8531-527         CIRCULAR     0.67       0          0          0          1
2039-026         CIRCULAR     0.67       0          0          0          1
1305-616         CIRCULAR     0.67       0          0          0          1
8616-001         CIRCULAR     1.50       0          0          0          1
8839-844         CIRCULAR     0.67       0          0          0          1
2021-006         CIRCULAR     0.67       0          0          0          1
2047-819         CIRCULAR     0.67       0          0          0          1
8653-654         CIRCULAR     0.67       0          0          0          1
8654-652         CIRCULAR     0.67       0          0          0          1
2452-453         CIRCULAR     0.67       0          0          0          1
1319-652         CIRCULAR     0.67       0          0          0          1
9089-091         CIRCULAR     0.67       0          0          0          1
9091-153         CIRCULAR     0.67       0          0          0          1
6153-835         CIRCULAR     0.67       0          0          0          1
1835-833         CIRCULAR     0.67       0          0          0          1
1833-831         CIRCULAR     0.67       0          0          0          1
1831-829         CIRCULAR     0.67       0          0          0          1
1829-631         CIRCULAR     0.67       0          0          0          1
0631-59T         CIRCULAR     2.50       0          0          0          1
8820-810         CIRCULAR     0.67       0          0          0          1
2572-573         CIRCULAR     0.67       0          0          0          1
2572-569         CIRCULAR     0.67       0          0          0          1
8811-843         CIRCULAR     0.83       0          0          0          1
8843-844         CIRCULAR     1.00       0          0          0          1
9110-091         CIRCULAR     0.67       0          0          0          1
8859-862         CIRCULAR     0.67       0          0          0          1
2494-496         CIRCULAR     0.67       0          0          0          1
2496-748         CIRCULAR     0.67       0          0          0          1
9101-100         CIRCULAR     0.67       0          0          0          1
8850-851         CIRCULAR     0.67       0          0          0          1
8851-436         CIRCULAR     0.67       0          0          0          1
8583-075         CIRCULAR     0.67       0          0          0          1
8586-588         CIRCULAR     0.67       0          0          0          1
2474-462         CIRCULAR     0.67       0          0          0          1
2583-580         CIRCULAR     0.67       0          0          0          1
2580-637         CIRCULAR     0.67       0          0          0          1
8676-679         CIRCULAR     0.67       0          0          0          1
8679-616         CIRCULAR     1.25       0          0          0          1
2589-635         CIRCULAR     0.67       0          0          0          1
2520-521         CIRCULAR     0.67       0          0          0          1
2040-043         CIRCULAR     0.67       0          0          0          1
8594-531         CIRCULAR     0.67       0          0          0          1
2507-508         CIRCULAR     0.67       0          0          0          1
8843-845         CIRCULAR     0.83       0          0          0          1
8845-846         CIRCULAR     1.00       0          0          0          1
2579-662         CIRCULAR     0.67       0          0          0          1
2489-496         CIRCULAR     0.67       0          0          0          1
7978-973         CIRCULAR     0.67       0          0          0          1
2473-472         CIRCULAR     0.67       0          0          0          1
8818-819         CIRCULAR     1.00       0          0          0          1
8818-811         CIRCULAR     0.83       0          0          0          1
1822-099         CIRCULAR     0.67       0          0          0          1
2506-501         CIRCULAR     0.67       0          0          0          1
8852-851         CIRCULAR     0.67       0          0          0          1
2585-580         CIRCULAR     0.67       0          0          0          1
8858-846         CIRCULAR     0.67       0          0          0          1
8845-847         CIRCULAR     0.83       0          0          0          1
8847-848         CIRCULAR     0.67       0          0          0          1
9088-849         CIRCULAR     0.67       0          0          0          1
1849-848         CIRCULAR     0.67       0          0          0          1
1848-847         CIRCULAR     0.67       0          0          0          1
1847-846         CIRCULAR     0.67       0          0          0          1
1846-08T         CIRCULAR     0.67       0          0          0          1
7208T-638        CIRCULAR     0.67       0          0          0          1
0638-640         CIRCULAR     0.67       0          0          0          1
0640-653         CIRCULAR     0.67       0          0          0          1
8655-654         CIRCULAR     0.67       0          0          0          1
8589-592         CIRCULAR     0.67       0          0          0          1
2012-849         CIRCULAR     0.67       0          0          0          1
1657-222         CIRCULAR     0.83       0          0          0          1
1657-656         CIRCULAR     0.83       0          0          0          1
1656-215         CIRCULAR     1.00       0          0          0          1
2215-214         CIRCULAR     1.00       0          0          0          1
2214-679         CIRCULAR     1.00       0          0          0          1
2052-153         CIRCULAR     0.67       0          0          0          1
2075-582         CIRCULAR     0.67       0          0          0          1
8582-581         CIRCULAR     0.67       0          0          0          1
8581-579         CIRCULAR     0.67       0          0          0          1
8932-848         CIRCULAR     0.67       0          0          0          1
8847-807         CIRCULAR     0.83       0          0          0          1
8807-806         CIRCULAR     1.00       0          0          0          1
2044-043         CIRCULAR     1.00       0          0          0          1
2044-818         CIRCULAR     0.83       0          0          0          1
1658-656         CIRCULAR     0.67       0          0          0          1
1320-655         CIRCULAR     0.67       0          0          0          1
8656-655         CIRCULAR     0.67       0          0          0          1
8877-435         CIRCULAR     0.67       0          0          0          1
8665-663         CIRCULAR     0.67       0          0          0          1
1839-840         CIRCULAR     0.67       0          0          0          1
1840-050         CIRCULAR     0.67       0          0          0          1
2217-215         CIRCULAR     0.67       0          0          0          1
2524-522         CIRCULAR     0.67       0          0          0          1
8667-635         CIRCULAR     0.67       0          0          0          1
2011-848         CIRCULAR     0.67       0          0          0          1
8853-806         CIRCULAR     0.67       0          0          0          1
8807-802         CIRCULAR     0.83       0          0          0          1
8802-801         CIRCULAR     1.00       0          0          0          1
8229-075         CIRCULAR     0.67       0          0          0          1
8657-661         CIRCULAR     0.67       0          0          0          1
6219-217         CIRCULAR     0.67       0          0          0          1
8217-214         CIRCULAR     0.83       0          0          0          1
8585-504         CIRCULAR     0.67       0          0          0          1
9096-095         CIRCULAR     0.67       0          0          0          1
2010-847         CIRCULAR     0.67       0          0          0          1
2002-073         CIRCULAR     0.67       0          0          0          1
2002-044         CIRCULAR     0.83       0          0          0          1
2464-463         CIRCULAR     0.67       0          0          0          1
2525-529         CIRCULAR     0.67       0          0          0          1
9098-821         CIRCULAR     0.67       0          0          0          1
7979-847         CIRCULAR     0.67       0          0          0          1
8841-843         CIRCULAR     0.67       0          0          0          1
2051-160         CIRCULAR     0.67       0          0          0          1
9160-002         CIRCULAR     0.67       0          0          0          1
2001-002         CIRCULAR     0.67       0          0          0          1
6152-835         CIRCULAR     0.67       0          0          0          1
2051-02T         CIRCULAR     0.83       0          0          0          1
8231-582         CIRCULAR     0.67       0          0          0          1
1836-833         CIRCULAR     0.67       0          0          0          1
8922-846         CIRCULAR     0.67       0          0          0          1
8642-640         CIRCULAR     0.67       0          0          0          1
2466-468         CIRCULAR     0.67       0          0          0          1
2465-466         CIRCULAR     0.67       0          0          0          1
8802-457         CIRCULAR     0.83       0          0          0          1
8457-456         CIRCULAR     2.25       0          0          0          1
2467-466         CIRCULAR     0.67       0          0          0          1
1837-631         CIRCULAR     0.67       0          0          0          1
6838-836         CIRCULAR     0.67       0          0          0          1
8856-845         CIRCULAR     0.67       0          0          0          1
8230-756         CIRCULAR     0.67       0          0          0          1
1756-515         CIRCULAR     0.67       0          0          0          1
8515-22T         CIRCULAR     0.67       0          0          0          1
9222T-222        CIRCULAR     0.67       0          0          0          1
9222-224         CIRCULAR     0.83       0          0          0          1
9224-467         CIRCULAR     0.67       0          0          0          1
8467-639         CIRCULAR     0.67       0          0          0          1
5735-163         CIRCULAR     0.67       0          0          0          1
9163-164         CIRCULAR     0.67       0          0          0          1
8854-807         CIRCULAR     0.67       0          0          0          1
9097-163         CIRCULAR     0.67       0          0          0          1
1832-831         CIRCULAR     0.67       0          0          0          1
9075-074         CIRCULAR     0.67       0          0          0          1
9074-061         CIRCULAR     0.67       0          0          0          1
1061-232         CIRCULAR     0.67       0          0          0          1
3114-802         CIRCULAR     0.67       0          0          0          1
2055-160         CIRCULAR     0.67       0          0          0          1
8516-581         CIRCULAR     0.67       0          0          0          1
8648-645         CIRCULAR     0.67       0          0          0          1
2076-452         CIRCULAR     0.67       0          0          0          1
1828-829         CIRCULAR     0.67       0          0          0          1
1842B-840        CIRCULAR     0.67       0          0          0          1
9219-506         CIRCULAR     0.67       0          0          0          1
8506-505         CIRCULAR     0.67       0          0          0          1
9076-074         CIRCULAR     0.67       0          0          0          1
2498-499         CIRCULAR     0.67       0          0          0          1
9161-203         CIRCULAR     0.67       0          0          0          1
4703-671         CIRCULAR     0.67       0          0          0          1
8671-632         CIRCULAR     0.67       0          0          0          1
0635-08T         CIRCULAR     0.67       0          0          0          1
1659-217         CIRCULAR     0.83       0          0          0          1
8452-417         CIRCULAR     0.67       0          0          0          1
8417-25T         CIRCULAR     0.67       0          0          0          1
8425T-453        CIRCULAR     0.67       0          0          0          1
8453-454         CIRCULAR     1.00       0          0          0          1
5813-762         CIRCULAR     0.67       0          0          0          1
1762-452         CIRCULAR     0.67       0          0          0          1
8480-481         CIRCULAR     0.67       0          0          0          1
3659-327         CIRCULAR     0.67       0          0          0          1
3626-624         CIRCULAR     0.67       0          0          0          1
3624-644         CIRCULAR     0.67       0          0          0          1
0639-638         CIRCULAR     0.67       0          0          0          1
8509-508         CIRCULAR     0.67       0          0          0          1
8508-506         CIRCULAR     0.67       0          0          0          1
8447-448         CIRCULAR     0.67       0          0          0          1
8448-25T         CIRCULAR     0.67       0          0          0          1
3665-657         CIRCULAR     0.67       0          0          0          1
9065-659         CIRCULAR     0.67       0          0          0          1
6231-061         CIRCULAR     0.67       0          0          0          1
9064-065         CIRCULAR     0.67       0          0          0          1
8457-453         CIRCULAR     0.83       0          0          0          1
4655-652         CIRCULAR     0.67       0          0          0          1
4652-327         CIRCULAR     0.67       0          0          0          1
8371-756         CIRCULAR     0.67       0          0          0          1
5026-659         CIRCULAR     0.67       0          0          0          1
1759B-759        CIRCULAR     0.67       0          0          0          1
1759-417         CIRCULAR     0.67       0          0          0          1
8449-448         CIRCULAR     0.67       0          0          0          1
3629-624         CIRCULAR     0.67       0          0          0          1
1757B-508        CIRCULAR     0.67       0          0          0          1
7134-290         CIRCULAR     0.67       0          0          0          1
0290-655         CIRCULAR     0.67       0          0          0          1
0293-134         CIRCULAR     0.67       0          0          0          1
6230-655         CIRCULAR     0.67       0          0          0          1
1759A-759        CIRCULAR     0.67       0          0          0          1
0651-649         CIRCULAR     0.67       0          0          0          1
0649-422         CIRCULAR     0.67       0          0          0          1
8479-483         CIRCULAR     0.67       0          0          0          1
6160-640         CIRCULAR     0.67       0          0          0          1
4066-448         CIRCULAR     0.67       0          0          0          1
4702-671         CIRCULAR     0.67       0          0          0          1
0294-57T         CIRCULAR     0.67       0          0          0          1
4698-700         CIRCULAR     0.67       0          0          0          1
4700-565         CIRCULAR     0.67       0          0          0          1
4565-719         CIRCULAR     0.67       0          0          0          1
1719-554         CIRCULAR     0.67       0          0          0          1
3554-639         CIRCULAR     0.67       0          0          0          1
3639-343         CIRCULAR     0.67       0          0          0          1
9343-317         CIRCULAR     0.67       0          0          0          1
1317-356         CIRCULAR     0.67       0          0          0          1
49356-347        CIRCULAR     1.00       0          0          0          1
9346-035         CIRCULAR     1.50       0          0          0          1
1035-760         CIRCULAR     1.50       0          0          0          1
0760-546         CIRCULAR     1.50       0          0          0          1
9546-543         CIRCULAR     1.50       0          0          0          1
9543-995         CIRCULAR     1.50       0          0          0          1
8500-502         CIRCULAR     0.67       0          0          0          1
8502-476         CIRCULAR     0.67       0          0          0          1
4591-593         CIRCULAR     0.67       0          0          0          1
4593-594         CIRCULAR     0.67       0          0          0          1
4594-596         CIRCULAR     0.67       0          0          0          1
4596-652         CIRCULAR     0.67       0          0          0          1
6229-316         CIRCULAR     0.67       0          0          0          1
0648-649         CIRCULAR     0.67       0          0          0          1
4691-671         CIRCULAR     0.67       0          0          0          1
0786-785         CIRCULAR     0.67       0          0          0          1
0785-475         CIRCULAR     0.67       0          0          0          1
1764-50T         CIRCULAR     0.83       0          0          0          1
0288-290         CIRCULAR     0.67       0          0          0          1
1751-908         CIRCULAR     0.67       0          0          0          1
6908-222         CIRCULAR     0.83       0          0          0          1
0642-643         CIRCULAR     0.67       0          0          0          1
0783-785         CIRCULAR     0.67       0          0          0          1
7201-134         CIRCULAR     0.67       0          0          0          1
9067-065         CIRCULAR     0.67       0          0          0          1
0286-288         CIRCULAR     0.67       0          0          0          1
8485B-483        CIRCULAR     0.83       0          0          0          1
8498-502         CIRCULAR     0.67       0          0          0          1
9056-026         CIRCULAR     0.67       0          0          0          1
4701-700         CIRCULAR     0.67       0          0          0          1
8441-473         CIRCULAR     0.67       0          0          0          1
8473-471         CIRCULAR     0.67       0          0          0          1
1356-353         CIRCULAR     0.67       0          0          0          1
1353-351         CIRCULAR     0.67       0          0          0          1
1351-565         CIRCULAR     0.67       0          0          0          1
0289-288         CIRCULAR     0.67       0          0          0          1
9057-056         CIRCULAR     0.67       0          0          0          1
0283-286         CIRCULAR     0.67       0          0          0          1
1745-908         CIRCULAR     0.67       0          0          0          1
8445-430         CIRCULAR     0.67       0          0          0          1
8430-31T         CIRCULAR     1.25       0          0          0          1
5417-418         CIRCULAR     0.67       0          0          0          1
3562-593         CIRCULAR     0.67       0          0          0          1
8453-427         CIRCULAR     1.00       0          0          0          1
8427-428         CIRCULAR     1.00       0          0          0          1
0780-232         CIRCULAR     0.67       0          0          0          1
9058-057         CIRCULAR     0.67       0          0          0          1
0280-286         CIRCULAR     0.67       0          0          0          1
8451-768         CIRCULAR     0.67       0          0          0          1
1768-651         CIRCULAR     0.67       0          0          0          1
1770-768         CIRCULAR     0.67       0          0          0          1
1362-364         CIRCULAR     0.67       0          0          0          1
1364-367         CIRCULAR     0.67       0          0          0          1
1367-348         CIRCULAR     0.67       0          0          0          1
1348-351         CIRCULAR     0.67       0          0          0          1
1357-356         CIRCULAR     0.67       0          0          0          1
9416-356         CIRCULAR     0.67       0          0          0          1
5032-057         CIRCULAR     0.67       0          0          0          1
8413-406         CIRCULAR     0.67       0          0          0          1
8406-649         CIRCULAR     0.67       0          0          0          1
4598-596         CIRCULAR     0.67       0          0          0          1
8428-430         CIRCULAR     1.00       0          0          0          1
0279-280         CIRCULAR     0.67       0          0          0          1
8430-2BD         CIRCULAR     1.00       0          0          0          1
8432B-432        CIRCULAR     1.00       0          0          0          1
9325-326         CIRCULAR     0.67       0          0          0          1
1746-22T         CIRCULAR     0.67       0          0          0          1
4595-594         CIRCULAR     0.67       0          0          0          1
4600-325         CIRCULAR     0.67       0          0          0          1
9528-989         CIRCULAR     1.25       0          0          0          1
0263-267         CIRCULAR     0.67       0          0          0          1
0267-272         CIRCULAR     0.67       0          0          0          1
0272-273         CIRCULAR     0.67       0          0          0          1
0273-101         CIRCULAR     1.00       0          0          0          1
2101-23T         CIRCULAR     1.00       0          0          0          1
6223T-223        CIRCULAR     1.00       0          0          0          1
6223-264         CIRCULAR     1.00       0          0          0          1
9264-765         CIRCULAR     2.50       0          0          0          1
0442-675         CIRCULAR     0.67       0          0          0          1
6246-258         CIRCULAR     0.67       0          0          0          1
6258-056         CIRCULAR     0.67       0          0          0          1
1056-055         CIRCULAR     0.67       0          0          0          1
1055-528         CIRCULAR     0.67       0          0          0          1
1775-776         CIRCULAR     0.67       0          0          0          1
1776-453         CIRCULAR     0.67       0          0          0          1
0282-280         CIRCULAR     0.67       0          0          0          1
1783-776         CIRCULAR     0.67       0          0          0          1
3537-532         CIRCULAR     0.67       0          0          0          1
3532-538         CIRCULAR     0.67       0          0          0          1
3538-377         CIRCULAR     0.67       0          0          0          1
1377-373         CIRCULAR     0.67       0          0          0          1
1373-371         CIRCULAR     0.67       0          0          0          1
1371-567         CIRCULAR     0.67       0          0          0          1
4567-726         CIRCULAR     0.67       0          0          0          1
21726-725        CIRCULAR     1.00       0          0          0          1
21328-330        CIRCULAR     1.00       0          0          0          1
1330-357         CIRCULAR     0.83       0          0          0          1
9357-356         CIRCULAR     0.83       0          0          0          1
9524-513         CIRCULAR     0.67       0          0          0          1
3531-532         CIRCULAR     0.67       0          0          0          1
0262-272         CIRCULAR     0.67       0          0          0          1
1365-364         CIRCULAR     0.67       0          0          0          1
8474-473         CIRCULAR     0.67       0          0          0          1
8386-515         CIRCULAR     0.67       0          0          0          1
8405-406         CIRCULAR     0.67       0          0          0          1
1774-776         CIRCULAR     0.67       0          0          0          1
3561-323         CIRCULAR     0.67       0          0          0          1
1354-353         CIRCULAR     0.67       0          0          0          1
8851-325         CIRCULAR     0.67       0          0          0          1
0602-422         CIRCULAR     0.67       0          0          0          1
6244-056         CIRCULAR     0.67       0          0          0          1
1058-241         CIRCULAR     0.67       0          0          0          1
6241-530         CIRCULAR     0.67       0          0          0          1
9530-528         CIRCULAR     1.00       0          0          0          1
1040-037         CIRCULAR     0.67       0          0          0          1
0296-297         CIRCULAR     0.67       0          0          0          1
0297-302         CIRCULAR     0.67       0          0          0          1
0302-303         CIRCULAR     0.67       0          0          0          1
0303-281         CIRCULAR     1.00       0          0          0          1
9281-273         CIRCULAR     1.00       0          0          0          1
3650-648         CIRCULAR     0.67       0          0          0          1
3648-647         CIRCULAR     0.67       0          0          0          1
3647-561         CIRCULAR     0.67       0          0          0          1
6238-058         CIRCULAR     0.67       0          0          0          1
6161-442         CIRCULAR     0.67       0          0          0          1
0603-605         CIRCULAR     0.67       0          0          0          1
0605-606         CIRCULAR     0.67       0          0          0          1
0606-417         CIRCULAR     0.67       0          0          0          1
9531-058         CIRCULAR     0.67       0          0          0          1
6249-228         CIRCULAR     0.67       0          0          0          1
6228-227         CIRCULAR     0.67       0          0          0          1
6227-258         CIRCULAR     0.67       0          0          0          1
1740-265         CIRCULAR     0.83       0          0          0          1
0610-417         CIRCULAR     0.67       0          0          0          1
3529-531         CIRCULAR     0.67       0          0          0          1
3634-554         CIRCULAR     0.67       0          0          0          1
0278-267         CIRCULAR     0.67       0          0          0          1
8470-471         CIRCULAR     0.67       0          0          0          1
3644-561         CIRCULAR     0.67       0          0          0          1
0441-161         CIRCULAR     0.67       0          0          0          1
6237-235         CIRCULAR     0.67       0          0          0          1
6235-530         CIRCULAR     1.00       0          0          0          1
0696-032         CIRCULAR     0.67       0          0          0          1
3533-532         CIRCULAR     0.67       0          0          0          1
6226-219         CIRCULAR     0.67       0          0          0          1
6219-606         CIRCULAR     0.67       0          0          0          1
6240-241         CIRCULAR     0.67       0          0          0          1
3649-648         CIRCULAR     0.67       0          0          0          1
0440-441         CIRCULAR     0.67       0          0          0          1
0746-698         CIRCULAR     0.67       0          0          0          1
0698-702         CIRCULAR     0.67       0          0          0          1
0702-235         CIRCULAR     1.00       0          0          0          1
8385-382         CIRCULAR     0.67       0          0          0          1
8382-389         CIRCULAR     0.67       0          0          0          1
8389-391         CIRCULAR     0.67       0          0          0          1
18391-317        CIRCULAR     0.67       0          0          0          1
18318-18W        CIRCULAR     1.25       0          0          0          1
3530-531         CIRCULAR     0.67       0          0          0          1
0697-696         CIRCULAR     0.67       0          0          0          1
1780-738         CIRCULAR     0.67       0          0          0          1
1738-644         CIRCULAR     1.00       0          0          0          1
1368-367         CIRCULAR     0.67       0          0          0          1
8469-467         CIRCULAR     0.67       0          0          0          1
8342-605         CIRCULAR     0.67       0          0          0          1
8605-329         CIRCULAR     0.67       0          0          0          1
8329-328         CIRCULAR     0.67       0          0          0          1
8328-326         CIRCULAR     0.67       0          0          0          1
18326-317        CIRCULAR     0.83       0          0          0          1
8407-740         CIRCULAR     0.67       0          0          0          1
6252-230         CIRCULAR     0.67       0          0          0          1
6230-228         CIRCULAR     0.67       0          0          0          1
0540-442         CIRCULAR     0.67       0          0          0          1
1077-227         CIRCULAR     0.67       0          0          0          1
3809-40T         CIRCULAR     0.67       0          0          0          1
1777-738         CIRCULAR     0.67       0          0          0          1
9525-526         CIRCULAR     0.67       0          0          0          1
9526-303         CIRCULAR     0.67       0          0          0          1
9303-219         CIRCULAR     0.67       0          0          0          1
3640-636         CIRCULAR     0.67       0          0          0          1
3636-639         CIRCULAR     0.67       0          0          0          1
6243-055         CIRCULAR     0.67       0          0          0          1
8414-264         CIRCULAR     0.67       0          0          0          1
8398-397         CIRCULAR     0.67       0          0          0          1
8397-605         CIRCULAR     0.67       0          0          0          1
1043-040         CIRCULAR     0.67       0          0          0          1
1069-647         CIRCULAR     0.67       0          0          0          1
1380-538         CIRCULAR     0.67       0          0          0          1
8381-382         CIRCULAR     0.67       0          0          0          1
9287-336         CIRCULAR     0.67       0          0          0          1
0336-297         CIRCULAR     0.67       0          0          0          1
0695-696         CIRCULAR     0.67       0          0          0          1
6254-231         CIRCULAR     0.67       0          0          0          1
6231-230         CIRCULAR     0.67       0          0          0          1
6251-230         CIRCULAR     0.67       0          0          0          1
8177-738         CIRCULAR     0.83       0          0          0          1
8380-379         CIRCULAR     0.67       0          0          0          1
8379-391         CIRCULAR     0.67       0          0          0          1
0444-161         CIRCULAR     0.67       0          0          0          1
1046-040         CIRCULAR     0.67       0          0          0          1
0614-605         CIRCULAR     0.67       0          0          0          1
0745-698         CIRCULAR     0.67       0          0          0          1
9405-765         CIRCULAR     0.67       0          0          0          1
0765-762         CIRCULAR     0.67       0          0          0          1
0762-035         CIRCULAR     0.67       0          0          0          1
0694-693         CIRCULAR     0.67       0          0          0          1
0693-543         CIRCULAR     0.67       0          0          0          1
1050-046         CIRCULAR     0.67       0          0          0          1
8331-329         CIRCULAR     0.67       0          0          0          1
3637-636         CIRCULAR     0.67       0          0          0          1
8196-740         CIRCULAR     0.83       0          0          0          1
0716-718         CIRCULAR     0.67       0          0          0          1
0718-526         CIRCULAR     0.67       0          0          0          1
1722-719         CIRCULAR     0.67       0          0          0          1
8388-389         CIRCULAR     0.67       0          0          0          1
0617-614         CIRCULAR     0.67       0          0          0          1
0313-310         CIRCULAR     0.67       0          0          0          1
0310-309         CIRCULAR     0.67       0          0          0          1
0309-305         CIRCULAR     0.67       0          0          0          1
0305-303         CIRCULAR     1.00       0          0          0          1
1721-554         CIRCULAR     0.67       0          0          0          1
6253-231         CIRCULAR     0.67       0          0          0          1
1047-046         CIRCULAR     0.67       0          0          0          1
1341-343         CIRCULAR     0.67       0          0          0          1
3664-397         CIRCULAR     0.67       0          0          0          1
0352-23T         CIRCULAR     0.67       0          0          0          1
6218-614         CIRCULAR     0.67       0          0          0          1
0618-619         CIRCULAR     0.67       0          0          0          1
0619-441         CIRCULAR     0.67       0          0          0          1
0338-340         CIRCULAR     0.67       0          0          0          1
0340-346         CIRCULAR     0.67       0          0          0          1
0346-407         CIRCULAR     0.67       0          0          0          1
5407-408         CIRCULAR     0.67       0          0          0          1
5408-315         CIRCULAR     0.67       0          0          0          1
0315-309         CIRCULAR     0.67       0          0          0          1
0350-348         CIRCULAR     0.67       0          0          0          1
0348-346         CIRCULAR     0.67       0          0          0          1
8378-379         CIRCULAR     0.67       0          0          0          1
0737-735         CIRCULAR     0.67       0          0          0          1
0735-030         CIRCULAR     0.67       0          0          0          1
1030-702         CIRCULAR     1.00       0          0          0          1
1347-348         CIRCULAR     0.67       0          0          0          1
1311-314         CIRCULAR     0.67       0          0          0          1
1314-317         CIRCULAR     0.67       0          0          0          1
6255-235         CIRCULAR     0.67       0          0          0          1
1372-371         CIRCULAR     0.67       0          0          0          1
1375-373         CIRCULAR     0.67       0          0          0          1
1345-317         CIRCULAR     0.67       0          0          0          1
4558-556         CIRCULAR     0.67       0          0          0          1
4556-680         CIRCULAR     0.67       0          0          0          1
0680-762         CIRCULAR     0.67       0          0          0          1
8603-605         CIRCULAR     0.67       0          0          0          1
6162-619         CIRCULAR     0.67       0          0          0          1
0344-340         CIRCULAR     0.67       0          0          0          1
0767-765         CIRCULAR     0.67       0          0          0          1
9277-101         CIRCULAR     0.67       0          0          0          1
1382-377         CIRCULAR     0.67       0          0          0          1
8330-329         CIRCULAR     0.67       0          0          0          1
8194-196         CIRCULAR     0.67       0          0          0          1
9288-303         CIRCULAR     0.67       0          0          0          1
5392-336         CIRCULAR     0.67       0          0          0          1
0720-718         CIRCULAR     0.67       0          0          0          1
0742-739         CIRCULAR     0.67       0          0          0          1
0739-735         CIRCULAR     0.67       0          0          0          1
8602-603         CIRCULAR     0.67       0          0          0          1
4568-567         CIRCULAR     0.67       0          0          0          1
0723-721         CIRCULAR     0.67       0          0          0          1
0721-718         CIRCULAR     0.67       0          0          0          1
9345-556         CIRCULAR     0.67       0          0          0          1
0349-348         CIRCULAR     0.67       0          0          0          1
1315-314         CIRCULAR     0.67       0          0          0          1
0354-194         CIRCULAR     0.67       0          0          0          1
9238-44T         CIRCULAR     0.67       0          0          0          1
0741-558         CIRCULAR     0.67       0          0          0          1
9558-739         CIRCULAR     0.67       0          0          0          1
9278-280         CIRCULAR     0.67       0          0          0          1
9280-281         CIRCULAR     0.67       0          0          0          1
3556-383         CIRCULAR     0.67       0          0          0          1
21383-392        CIRCULAR     0.67       0          0          0          1
3552-726         CIRCULAR     0.83       0          0          0          1
21723-725        CIRCULAR     0.67       0          0          0          1
0681-680         CIRCULAR     0.67       0          0          0          1
8494-6BT         CIRCULAR     0.67       0          0          0          1
5391A-391        CIRCULAR     0.67       0          0          0          1
25391-333        CIRCULAR     0.67       0          0          0          1
0333-346         CIRCULAR     0.67       0          0          0          1
5410-310         CIRCULAR     0.67       0          0          0          1
8495-494         CIRCULAR     0.67       0          0          0          1
0692-693         CIRCULAR     0.67       0          0          0          1
8601-602         CIRCULAR     0.67       0          0          0          1
0705-702         CIRCULAR     0.67       0          0          0          1
8606-603         CIRCULAR     0.67       0          0          0          1
1396-552         CIRCULAR     0.67       0          0          0          1
0307-302         CIRCULAR     0.67       0          0          0          1
8200-196         CIRCULAR     0.67       0          0          0          1
3553-386         CIRCULAR     0.67       0          0          0          1
1386-383         CIRCULAR     0.67       0          0          0          1
5409-408         CIRCULAR     0.67       0          0          0          1
0687-686         CIRCULAR     0.67       0          0          0          1
0686-560         CIRCULAR     0.67       0          0          0          1
9560-558         CIRCULAR     0.67       0          0          0          1
5391B-391        CIRCULAR     0.67       0          0          0          1
8182-177         CIRCULAR     0.67       0          0          0          1
8376-328         CIRCULAR     0.67       0          0          0          1
8488-489         CIRCULAR     0.67       0          0          0          1
8489-490         CIRCULAR     0.67       0          0          0          1
8490-65T         CIRCULAR     0.67       0          0          0          1
9235-494         CIRCULAR     0.67       0          0          0          1
9553-721         CIRCULAR     0.67       0          0          0          1
0314-315         CIRCULAR     0.67       0          0          0          1
18607-374        CIRCULAR     0.67       0          0          0          1
0757-760         CIRCULAR     0.67       0          0          0          1
1329-328         CIRCULAR     0.67       0          0          0          1
8377-376         CIRCULAR     0.67       0          0          0          1
20316-427        CIRCULAR     0.67       0          0          0          1
0427-305         CIRCULAR     1.00       0          0          0          1
1327-328         CIRCULAR     0.67       0          0          0          1
0733-735         CIRCULAR     0.67       0          0          0          1
0728-030         CIRCULAR     0.67       0          0          0          1
1387-386         CIRCULAR     0.67       0          0          0          1
8322-326         CIRCULAR     0.67       0          0          0          1
0731-030         CIRCULAR     1.00       0          0          0          1
1750-489         CIRCULAR     0.67       0          0          0          1
8174T-177        CIRCULAR     0.83       0          0          0          1
9230-6AT         CIRCULAR     0.67       0          0          0          1
18184-74T        CIRCULAR     0.83       0          0          0          1
0732-731         CIRCULAR     0.67       0          0          0          1
1081-602         CIRCULAR     0.67       0          0          0          1
18185-184        CIRCULAR     0.67       0          0          0          1
0755-757         CIRCULAR     0.67       0          0          0          1
0685-686         CIRCULAR     0.67       0          0          0          1
0769-731         CIRCULAR     1.00       0          0          0          1
26221-184        CIRCULAR     0.83       0          0          0          1
0671-757         CIRCULAR     0.67       0          0          0          1
46898-74T        CIRCULAR     0.83       0          0          0          1
20331-043        CIRCULAR     0.67       0          0          0          1
73113T-12T       CIRCULAR     2.75       0          0          0          1
18302-95T        CIRCULAR     0.67       0          0          0          1
73112T-95T       CIRCULAR     2.75       0          0          0          1
18401-185        CIRCULAR     0.67       0          0          0          1
18134-97T        CIRCULAR     0.67       0          0          0          1
18188-185        CIRCULAR     2.75       0          0          0          1
25404B-043       CIRCULAR     0.67       0          0          0          1
18138-134        CIRCULAR     0.67       0          0          0          1
18132-133        CIRCULAR     0.67       0          0          0          1
18133-134        CIRCULAR     0.67       0          0          0          1
71732-133        CIRCULAR     0.67       0          0          0          1
49247-168        CIRCULAR     0.67       0          0          0          1
20657-031        CIRCULAR     0.67       0          0          0          1
49607-031        CIRCULAR     0.67       0          0          0          1
24669-030        CIRCULAR     0.67       0          0          0          1
24664-030        CIRCULAR     0.67       0          0          0          1
18296-97T        CIRCULAR     0.67       0          0          0          1
49672-98T        CIRCULAR     1.25       0          0          0          1
18297A-97T       CIRCULAR     0.67       0          0          0          1
18156-163        CIRCULAR     0.67       0          0          0          1
18164-168        CIRCULAR     0.67       0          0          0          1
71734-163        CIRCULAR     0.67       0          0          0          1
73110-98T        CIRCULAR     0.67       0          0          0          1
49430-098        CIRCULAR     0.67       0          0          0          1
69107-097        CIRCULAR     0.67       0          0          0          1
18097-099        CIRCULAR     0.67       0          0          0          1
18099-093        CIRCULAR     0.67       0          0          0          1
18093-102        CIRCULAR     0.67       0          0          0          1
18102-090        CIRCULAR     0.83       0          0          0          1
18090-086        CIRCULAR     0.83       0          0          0          1
18086-085        CIRCULAR     0.83       0          0          0          1
18085-098        CIRCULAR     0.67       0          0          0          1
49494-085        CIRCULAR     0.67       0          0          0          1
18096-093        CIRCULAR     0.67       0          0          0          1
69106-097        CIRCULAR     0.67       0          0          0          1
18100-099        CIRCULAR     0.67       0          0          0          1
18088-086        CIRCULAR     0.67       0          0          0          1
18089-090        CIRCULAR     0.67       0          0          0          1
69104-093        CIRCULAR     0.67       0          0          0          1
18092-102        CIRCULAR     0.67       0          0          0          1
01675-158        CIRCULAR     0.67       0          0          0          1
46158-166        CIRCULAR     0.83       0          0          0          1
46161-158        CIRCULAR     0.67       0          0          0          1
46171-166        CIRCULAR     0.67       0          0          0          1
1672-026         CIRCULAR     0.67       0          0          0          1
1673-056         CIRCULAR     0.67       0          0          0          1
9055-056         CIRCULAR     0.67       0          0          0          1
73113BA-73       CIRCULAR     0.67       0          0          0          1
73113AA-73       CIRCULAR     0.67       0          0          0          1
73112BA-73       CIRCULAR     0.67       0          0          0          1
73112AA-73       CIRCULAR     0.67       0          0          0          1
HGS-WEIR         TRIANGULAR   1.00       1.00       0          0
1986.1           TRIANGULAR   1.00       1.00       0          0

[LOSSES]
;;Link           Inlet      Outlet     Average    Flap Gate
;;-------------- ---------- ---------- ---------- ----------
8889-888         0          0          0          NO
8888-886         0          0          0          NO
8886-884         0          0          0          NO
8884-899         0          0          0          NO
8899-963         0          0          0          NO
7963-870         0          0          0          NO
8870-868         0          0          0          NO
8868-866         0          0          0          NO
8866-867         0          0          0          NO
8867-863         0          0          0          NO
8863-973         0          0          0          NO
7973B-437        0          0          0          NO
8437-436         0          0          0          NO
8436-435         0          0          0          NO
8435-434         0          0          0          NO
8434-432         0          0          0          NO
8432-433         0          0          0          NO
8433-431         0          0          0          NO
8431-12P         0          0          0          NO
A0012-643        0          0          0          NO
6643-642         0          0          0          NO
6642-40T         0          0          0          NO
6640T-45T        0          0          0          NO
9245T-44T        0          0          0          NO
9244T-6BT        0          0          0          NO
9226B-6AT        0          0          0          NO
9226A-639        0          0          0          NO
6639-65T         0          0          0          NO
18465T-97T       0          0          0          NO
48897T-13T       0          0          0          NO
8907-908         0          0          0          NO
8908-886         0          0          0          NO
7949-888         0          0          0          NO
8909-908         0          0          0          NO
8904-884         0          0          0          NO
8890-888         0          0          0          NO
8891-892         0          0          0          NO
8892-896         0          0          0          NO
8896-899         0          0          0          NO
8910-896         0          0          0          NO
8900-882         0          0          0          NO
8882-881         0          0          0          NO
8881-963         0          0          0          NO
8878-881         0          0          0          NO
8883-882         0          0          0          NO
8705-231         0          0          0          NO
2231-230         0          0          0          NO
2230-221         0          0          0          NO
2221-218         0          0          0          NO
2218-001         0          0          0          NO
3001-632         0          0          0          NO
8632-569         0          0          0          NO
2569-635         0          0          0          NO
8635-637         0          0          0          NO
8637-638         0          0          0          NO
8638-639         0          0          0          NO
8639-640         0          0          0          NO
8640-644         0          0          0          NO
8644-645         0          0          0          NO
8645-657         0          0          0          NO
3657-327         0          0          0          NO
9327-326         0          0          0          NO
9326-323         0          0          0          NO
9323-324         0          0          0          NO
9324-037         0          0          0          NO
1037-995         0          0          0          NO
7995-032         0          0          0          NO
1032-989         0          0          0          NO
7989-520         0          0          0          NO
9520-517         0          0          0          NO
9517-513         0          0          0          NO
9513-232         0          0          0          NO
6232-418         0          0          0          NO
5418-422         0          0          0          NO
5422-675         0          0          0          NO
5675-06T         0          0          0          NO
6206T-203        0          0          0          NO
6203-02T         0          0          0          NO
6202T-657        0          0          0          NO
6657-57T         0          0          0          NO
6657T-59T        0          0          0          NO
6659T-655        0          0          0          NO
6655-653         0          0          0          NO
6653-643         0          0          0          NO
0643-765         0          0          0          NO
1765-651         0          0          0          NO
6651-265         0          0          0          NO
9265-50T         0          0          0          NO
6650T-649        0          0          0          NO
6649-648         0          0          0          NO
6648-647         0          0          0          NO
6647-645         0          0          0          NO
6645-644         0          0          0          NO
6644-643         0          0          0          NO
9058C-043        0          0          0          NO
2043-074         0          0          0          NO
9074-892         0          0          0          NO
1594B-594        0          0          0          NO
1594-797         0          0          0          NO
6797-446         0          0          0          NO
2446-460         0          0          0          NO
2460-462         0          0          0          NO
2462-469         0          0          0          NO
2469-468         0          0          0          NO
2468-836         0          0          0          NO
6836-479         0          0          0          NO
6479-520         0          0          0          NO
1594A-594        0          0          0          NO
2249-246         0          0          0          NO
2246-245         0          0          0          NO
2245-229         0          0          0          NO
2229-230         0          0          0          NO
9071-043         0          0          0          NO
7957-970         0          0          0          NO
7970-972         0          0          0          NO
7972-973         0          0          0          NO
8552-556         0          0          0          NO
8556-557         0          0          0          NO
8557-972         0          0          0          NO
9066-068         0          0          0          NO
9068-074         0          0          0          NO
7956-550         0          0          0          NO
8550-541         0          0          0          NO
8541-521         0          0          0          NO
8521-534         0          0          0          NO
8534-595         0          0          0          NO
8595-960         0          0          0          NO
7960-576         0          0          0          NO
8576-588         0          0          0          NO
8588-579         0          0          0          NO
8579-505         0          0          0          NO
8505-504         0          0          0          NO
8504-592         0          0          0          NO
8592-481         0          0          0          NO
8481-483         0          0          0          NO
8483-476         0          0          0          NO
8476-475         0          0          0          NO
8475-471         0          0          0          NO
8471-45T         0          0          0          NO
8912-896         0          0          0          NO
2238-245         0          0          0          NO
2596-068         0          0          0          NO
2247-246         0          0          0          NO
8551-550         0          0          0          NO
2034-814         0          0          0          NO
8814-823         0          0          0          NO
8823-3BD         0          0          0          NO
8825-868         0          0          0          NO
6798-797         0          0          0          NO
7757-034         0          0          0          NO
8558-970         0          0          0          NO
8559-560         0          0          0          NO
8560-564         0          0          0          NO
8564-595         0          0          0          NO
8538-534         0          0          0          NO
6275-231         0          0          0          NO
8519-521         0          0          0          NO
8703-702         0          0          0          NO
8702-695         0          0          0          NO
8695-690         0          0          0          NO
8690-218         0          0          0          NO
2033-830         0          0          0          NO
8830-814         0          0          0          NO
2019-018         0          0          0          NO
2018-012         0          0          0          NO
2012-014         0          0          0          NO
2014-024         0          0          0          NO
2024-026         0          0          0          NO
2026-159         0          0          0          NO
9159-809         0          0          0          NO
8809-811         0          0          0          NO
8811-810         0          0          0          NO
8810-844         0          0          0          NO
8844-846         0          0          0          NO
8846-848         0          0          0          NO
8848-849         0          0          0          NO
8849-806         0          0          0          NO
8806-801         0          0          0          NO
8801-456         0          0          0          NO
8456-454         0          0          0          NO
8454-428         0          0          0          NO
8428-429         0          0          0          NO
8429-31T         0          0          0          NO
8431T-431        0          0          0          NO
2058B-112        0          0          0          NO
9112-108         0          0          0          NO
9108-050         0          0          0          NO
2050-004         0          0          0          NO
2004-073         0          0          0          NO
2073-043         0          0          0          NO
2043-819         0          0          0          NO
8819-811         0          0          0          NO
2240-230         0          0          0          NO
9079-014         0          0          0          NO
7955-560         0          0          0          NO
8866-864         0          0          0          NO
8864-862         0          0          0          NO
8862-863         0          0          0          NO
9082-018         0          0          0          NO
8701-702         0          0          0          NO
2447-446         0          0          0          NO
8568-960         0          0          0          NO
8567-564         0          0          0          NO
6273-224         0          0          0          NO
2224-221         0          0          0          NO
8823-836         0          0          0          NO
8834-866         0          0          0          NO
2036-034         0          0          0          NO
6269-273         0          0          0          NO
9086-009         0          0          0          NO
2009-006         0          0          0          NO
2006-004         0          0          0          NO
9112T-112        0          0          0          NO
6274-273         0          0          0          NO
8699-695         0          0          0          NO
1827-12T         0          0          0          NO
2485-487         0          0          0          NO
2487-483         0          0          0          NO
2483-472         0          0          0          NO
2472-469         0          0          0          NO
8836-986         0          0          0          NO
7986-863         0          0          0          NO
6270-269         0          0          0          NO
8556-541         0          0          0          NO
2448-463         0          0          0          NO
2463-460         0          0          0          NO
8692-695         0          0          0          NO
8831-830         0          0          0          NO
8571-574         0          0          0          NO
8574-576         0          0          0          NO
8689-690         0          0          0          NO
2017-012         0          0          0          NO
2037-026         0          0          0          NO
2511-499         0          0          0          NO
2499-501         0          0          0          NO
2501-782         0          0          0          NO
0782-475         0          0          0          NO
6475-477         0          0          0          NO
6477-748         0          0          0          NO
7748-479         0          0          0          NO
2560-652         0          0          0          NO
8652-661         0          0          0          NO
8661-662         0          0          0          NO
8662-663         0          0          0          NO
8663-639         0          0          0          NO
8816-814         0          0          0          NO
2559-560         0          0          0          NO
7973-974         0          0          0          NO
7974-849         0          0          0          NO
2225-224         0          0          0          NO
8838-836         0          0          0          NO
2478-479         0          0          0          NO
2479-481         0          0          0          NO
2481-483         0          0          0          NO
2022-024         0          0          0          NO
1850-014         0          0          0          NO
2226-229         0          0          0          NO
2016-009         0          0          0          NO
8821-823         0          0          0          NO
5738-481         0          0          0          NO
2561-560         0          0          0          NO
9111-12T         0          0          0          NO
8832-159         0          0          0          NO
8522-527         0          0          0          NO
8527-549         0          0          0          NO
8549-437         0          0          0          NO
7959-574         0          0          0          NO
8542-549         0          0          0          NO
2510-508         0          0          0          NO
2508-521         0          0          0          NO
2521-522         0          0          0          NO
2522-523         0          0          0          NO
2523-529         0          0          0          NO
2529-782         0          0          0          NO
2480-479         0          0          0          NO
2517-523         0          0          0          NO
2050-108         0          0          0          NO
6229-222         0          0          0          NO
1823-453         0          0          0          NO
2453-100         0          0          0          NO
9100-099         0          0          0          NO
9099-095         0          0          0          NO
9095-821         0          0          0          NO
1821-164         0          0          0          NO
9164-316         0          0          0          NO
9316-655         0          0          0          NO
0655-06T         0          0          0          NO
2493-487         0          0          0          NO
8817-809         0          0          0          NO
8533-531         0          0          0          NO
8531-527         0          0          0          NO
2039-026         0          0          0          NO
1305-616         0          0          0          NO
8616-001         0          0          0          NO
8839-844         0          0          0          NO
2021-006         0          0          0          NO
2047-819         0          0          0          NO
8653-654         0          0          0          NO
8654-652         0          0          0          NO
2452-453         0          0          0          NO
1319-652         0          0          0          NO
9089-091         0          0          0          NO
9091-153         0          0          0          NO
6153-835         0          0          0          NO
1835-833         0          0          0          NO
1833-831         0          0          0          NO
1831-829         0          0          0          NO
1829-631         0          0          0          NO
0631-59T         0          0          0          NO
8820-810         0          0          0          NO
2572-573         0          0          0          NO
2572-569         0          0          0          NO
8811-843         0          0          0          NO
8843-844         0          0          0          NO
9110-091         0          0          0          NO
8859-862         0          0          0          NO
2494-496         0          0          0          NO
2496-748         0          0          0          NO
9101-100         0          0          0          NO
8850-851         0          0          0          NO
8851-436         0          0          0          NO
8583-075         0          0          0          NO
8586-588         0          0          0          NO
2474-462         0          0          0          NO
2583-580         0          0          0          NO
2580-637         0          0          0          NO
8676-679         0          0          0          NO
8679-616         0          0          0          NO
2589-635         0          0          0          NO
2520-521         0          0          0          NO
2040-043         0          0          0          NO
8594-531         0          0          0          NO
2507-508         0          0          0          NO
8843-845         0          0          0          NO
8845-846         0          0          0          NO
2579-662         0          0          0          NO
2489-496         0          0          0          NO
7978-973         0          0          0          NO
2473-472         0          0          0          NO
8818-819         0          0          0          NO
8818-811         0          0          0          NO
1822-099         0          0          0          NO
2506-501         0          0          0          NO
8852-851         0          0          0          NO
2585-580         0          0          0          NO
8858-846         0          0          0          NO
8845-847         0          0          0          NO
8847-848         0          0          0          NO
9088-849         0          0          0          NO
1849-848         0          0          0          NO
1848-847         0          0          0          NO
1847-846         0          0          0          NO
1846-08T         0          0          0          NO
7208T-638        0          0          0          NO
0638-640         0          0          0          NO
0640-653         0          0          0          NO
8655-654         0          0          0          NO
8589-592         0          0          0          NO
2012-849         0          0          0          NO
1657-222         0          0          0          NO
1657-656         0          0          0          NO
1656-215         0          0          0          NO
2215-214         0          0          0          NO
2214-679         0          0          0          NO
2052-153         0          0          0          NO
2075-582         0          0          0          NO
8582-581         0          0          0          NO
8581-579         0          0          0          NO
8932-848         0          0          0          NO
8847-807         0          0          0          NO
8807-806         0          0          0          NO
2044-043         0          0          0          NO
2044-818         0          0          0          NO
1658-656         0          0          0          NO
1320-655         0          0          0          NO
8656-655         0          0          0          NO
8877-435         0          0          0          NO
8665-663         0          0          0          NO
1839-840         0          0          0          NO
1840-050         0          0          0          NO
2217-215         0          0          0          NO
2524-522         0          0          0          NO
8667-635         0          0          0          NO
2011-848         0          0          0          NO
8853-806         0          0          0          NO
8807-802         0          0          0          NO
8802-801         0          0          0          NO
8229-075         0          0          0          NO
8657-661         0          0          0          NO
6219-217         0          0          0          NO
8217-214         0          0          0          NO
8585-504         0          0          0          NO
9096-095         0          0          0          NO
2010-847         0          0          0          NO
2002-073         0          0          0          NO
2002-044         0          0          0          NO
2464-463         0          0          0          NO
2525-529         0          0          0          NO
9098-821         0          0          0          NO
7979-847         0          0          0          NO
8841-843         0          0          0          NO
2051-160         0          0          0          NO
9160-002         0          0          0          NO
2001-002         0          0          0          NO
6152-835         0          0          0          NO
2051-02T         0          0          0          NO
8231-582         0          0          0          NO
1836-833         0          0          0          NO
8922-846         0          0          0          NO
8642-640         0          0          0          NO
2466-468         0          0          0          NO
2465-466         0          0          0          NO
8802-457         0          0          0          NO
8457-456         0          0          0          NO
2467-466         0          0          0          NO
1837-631         0          0          0          NO
6838-836         0          0          0          NO
8856-845         0          0          0          NO
8230-756         0          0          0          NO
1756-515         0          0          0          NO
8515-22T         0          0          0          NO
9222T-222        0          0          0          NO
9222-224         0          0          0          NO
9224-467         0          0          0          NO
8467-639         0          0          0          NO
5735-163         0          0          0          NO
9163-164         0          0          0          NO
8854-807         0          0          0          NO
9097-163         0          0          0          NO
1832-831         0          0          0          NO
9075-074         0          0          0          NO
9074-061         0          0          0          NO
1061-232         0          0          0          NO
3114-802         0          0          0          NO
2055-160         0          0          0          NO
8516-581         0          0          0          NO
8648-645         0          0          0          NO
2076-452         0          0          0          NO
1828-829         0          0          0          NO
1842B-840        0          0          0          NO
9219-506         0          0          0          NO
8506-505         0          0          0          NO
9076-074         0          0          0          NO
2498-499         0          0          0          NO
9161-203         0          0          0          NO
4703-671         0          0          0          NO
8671-632         0          0          0          NO
0635-08T         0          0          0          NO
1659-217         0          0          0          NO
8452-417         0          0          0          NO
8417-25T         0          0          0          NO
8425T-453        0          0          0          NO
8453-454         0          0          0          NO
5813-762         0          0          0          NO
1762-452         0          0          0          NO
8480-481         0          0          0          NO
3659-327         0          0          0          NO
3626-624         0          0          0          NO
3624-644         0          0          0          NO
0639-638         0          0          0          NO
8509-508         0          0          0          NO
8508-506         0          0          0          NO
8447-448         0          0          0          NO
8448-25T         0          0          0          NO
3665-657         0          0          0          NO
9065-659         0          0          0          NO
6231-061         0          0          0          NO
9064-065         0          0          0          NO
8457-453         0          0          0          NO
4655-652         0          0          0          NO
4652-327         0          0          0          NO
8371-756         0          0          0          NO
5026-659         0          0          0          NO
1759B-759        0          0          0          NO
1759-417         0          0          0          NO
8449-448         0          0          0          NO
3629-624         0          0          0          NO
1757B-508        0          0          0          NO
7134-290         0          0          0          NO
0290-655         0          0          0          NO
0293-134         0          0          0          NO
6230-655         0          0          0          NO
1759A-759        0          0          0          NO
0651-649         0          0          0          NO
0649-422         0          0          0          NO
8479-483         0          0          0          NO
6160-640         0          0          0          NO
4066-448         0          0          0          NO
4702-671         0          0          0          NO
0294-57T         0          0          0          NO
4698-700         0          0          0          NO
4700-565         0          0          0          NO
4565-719         0          0          0          NO
1719-554         0          0          0          NO
3554-639         0          0          0          NO
3639-343         0          0          0          NO
9343-317         0          0          0          NO
1317-356         0          0          0          NO
49356-347        0          0          0          NO
9346-035         0          0          0          NO
1035-760         0          0          0          NO
0760-546         0          0          0          NO
9546-543         0          0          0          NO
9543-995         0          0          0          NO
8500-502         0          0          0          NO
8502-476         0          0          0          NO
4591-593         0          0          0          NO
4593-594         0          0          0          NO
4594-596         0          0          0          NO
4596-652         0          0          0          NO
6229-316         0          0          0          NO
0648-649         0          0          0          NO
4691-671         0          0          0          NO
0786-785         0          0          0          NO
0785-475         0          0          0          NO
1764-50T         0          0          0          NO
0288-290         0          0          0          NO
1751-908         0          0          0          NO
6908-222         0          0          0          NO
0642-643         0          0          0          NO
0783-785         0          0          0          NO
7201-134         0          0          0          NO
9067-065         0          0          0          NO
0286-288         0          0          0          NO
8485B-483        0          0          0          NO
8498-502         0          0          0          NO
9056-026         0          0          0          NO
4701-700         0          0          0          NO
8441-473         0          0          0          NO
8473-471         0          0          0          NO
1356-353         0          0          0          NO
1353-351         0          0          0          NO
1351-565         0          0          0          NO
0289-288         0          0          0          NO
9057-056         0          0          0          NO
0283-286         0          0          0          NO
1745-908         0          0          0          NO
8445-430         0          0          0          NO
8430-31T         0          0          0          NO
5417-418         0          0          0          NO
3562-593         0          0          0          NO
8453-427         0          0          0          NO
8427-428         0          0          0          NO
0780-232         0          0          0          NO
9058-057         0          0          0          NO
0280-286         0          0          0          NO
8451-768         0          0          0          NO
1768-651         0          0          0          NO
1770-768         0          0          0          NO
1362-364         0          0          0          NO
1364-367         0          0          0          NO
1367-348         0          0          0          NO
1348-351         0          0          0          NO
1357-356         0          0          0          NO
9416-356         0          0          0          NO
5032-057         0          0          0          NO
8413-406         0          0          0          NO
8406-649         0          0          0          NO
4598-596         0          0          0          NO
8428-430         0          0          0          NO
0279-280         0          0          0          NO
8430-2BD         0          0          0          NO
8432B-432        0          0          0          NO
9325-326         0          0          0          NO
1746-22T         0          0          0          NO
4595-594         0          0          0          NO
4600-325         0          0          0          NO
9528-989         0          0          0          NO
0263-267         0          0          0          NO
0267-272         0          0          0          NO
0272-273         0          0          0          NO
0273-101         0          0          0          NO
2101-23T         0          0          0          NO
6223T-223        0          0          0          NO
6223-264         0          0          0          NO
9264-765         0          0          0          NO
0442-675         0          0          0          NO
6246-258         0          0          0          NO
6258-056         0          0          0          NO
1056-055         0          0          0          NO
1055-528         0          0          0          NO
1775-776         0          0          0          NO
1776-453         0          0          0          NO
0282-280         0          0          0          NO
1783-776         0          0          0          NO
3537-532         0          0          0          NO
3532-538         0          0          0          NO
3538-377         0          0          0          NO
1377-373         0          0          0          NO
1373-371         0          0          0          NO
1371-567         0          0          0          NO
4567-726         0          0          0          NO
21726-725        0          0          0          NO
21328-330        0          0          0          NO
1330-357         0          0          0          NO
9357-356         0          0          0          NO
9524-513         0          0          0          NO
3531-532         0          0          0          NO
0262-272         0          0          0          NO
1365-364         0          0          0          NO
8474-473         0          0          0          NO
8386-515         0          0          0          NO
8405-406         0          0          0          NO
1774-776         0          0          0          NO
3561-323         0          0          0          NO
1354-353         0          0          0          NO
8851-325         0          0          0          NO
0602-422         0          0          0          NO
6244-056         0          0          0          NO
1058-241         0          0          0          NO
6241-530         0          0          0          NO
9530-528         0          0          0          NO
1040-037         0          0          0          NO
0296-297         0          0          0          NO
0297-302         0          0          0          NO
0302-303         0          0          0          NO
0303-281         0          0          0          NO
9281-273         0          0          0          NO
3650-648         0          0          0          NO
3648-647         0          0          0          NO
3647-561         0          0          0          NO
6238-058         0          0          0          NO
6161-442         0          0          0          NO
0603-605         0          0          0          NO
0605-606         0          0          0          NO
0606-417         0          0          0          NO
9531-058         0          0          0          NO
6249-228         0          0          0          NO
6228-227         0          0          0          NO
6227-258         0          0          0          NO
1740-265         0          0          0          NO
0610-417         0          0          0          NO
3529-531         0          0          0          NO
3634-554         0          0          0          NO
0278-267         0          0          0          NO
8470-471         0          0          0          NO
3644-561         0          0          0          NO
0441-161         0          0          0          NO
6237-235         0          0          0          NO
6235-530         0          0          0          NO
0696-032         0          0          0          NO
3533-532         0          0          0          NO
6226-219         0          0          0          NO
6219-606         0          0          0          NO
6240-241         0          0          0          NO
3649-648         0          0          0          NO
0440-441         0          0          0          NO
0746-698         0          0          0          NO
0698-702         0          0          0          NO
0702-235         0          0          0          NO
8385-382         0          0          0          NO
8382-389         0          0          0          NO
8389-391         0          0          0          NO
18391-317        0          0          0          NO
18318-18W        0          0          0          NO
3530-531         0          0          0          NO
0697-696         0          0          0          NO
1780-738         0          0          0          NO
1738-644         0          0          0          NO
1368-367         0          0          0          NO
8469-467         0          0          0          NO
8342-605         0          0          0          NO
8605-329         0          0          0          NO
8329-328         0          0          0          NO
8328-326         0          0          0          NO
18326-317        0          0          0          NO
8407-740         0          0          0          NO
6252-230         0          0          0          NO
6230-228         0          0          0          NO
0540-442         0          0          0          NO
1077-227         0          0          0          NO
3809-40T         0          0          0          NO
1777-738         0          0          0          NO
9525-526         0          0          0          NO
9526-303         0          0          0          NO
9303-219         0          0          0          NO
3640-636         0          0          0          NO
3636-639         0          0          0          NO
6243-055         0          0          0          NO
8414-264         0          0          0          NO
8398-397         0          0          0          NO
8397-605         0          0          0          NO
1043-040         0          0          0          NO
1069-647         0          0          0          NO
1380-538         0          0          0          NO
8381-382         0          0          0          NO
9287-336         0          0          0          NO
0336-297         0          0          0          NO
0695-696         0          0          0          NO
6254-231         0          0          0          NO
6231-230         0          0          0          NO
6251-230         0          0          0          NO
8177-738         0          0          0          NO
8380-379         0          0          0          NO
8379-391         0          0          0          NO
0444-161         0          0          0          NO
1046-040         0          0          0          NO
0614-605         0          0          0          NO
0745-698         0          0          0          NO
9405-765         0          0          0          NO
0765-762         0          0          0          NO
0762-035         0          0          0          NO
0694-693         0          0          0          NO
0693-543         0          0          0          NO
1050-046         0          0          0          NO
8331-329         0          0          0          NO
3637-636         0          0          0          NO
8196-740         0          0          0          NO
0716-718         0          0          0          NO
0718-526         0          0          0          NO
1722-719         0          0          0          NO
8388-389         0          0          0          NO
0617-614         0          0          0          NO
0313-310         0          0          0          NO
0310-309         0          0          0          NO
0309-305         0          0          0          NO
0305-303         0          0          0          NO
1721-554         0          0          0          NO
6253-231         0          0          0          NO
1047-046         0          0          0          NO
1341-343         0          0          0          NO
3664-397         0          0          0          NO
0352-23T         0          0          0          NO
6218-614         0          0          0          NO
0618-619         0          0          0          NO
0619-441         0          0          0          NO
0338-340         0          0          0          NO
0340-346         0          0          0          NO
0346-407         0          0          0          NO
5407-408         0          0          0          NO
5408-315         0          0          0          NO
0315-309         0          0          0          NO
0350-348         0          0          0          NO
0348-346         0          0          0          NO
8378-379         0          0          0          NO
0737-735         0          0          0          NO
0735-030         0          0          0          NO
1030-702         0          0          0          NO
1347-348         0          0          0          NO
1311-314         0          0          0          NO
1314-317         0          0          0          NO
6255-235         0          0          0          NO
1372-371         0          0          0          NO
1375-373         0          0          0          NO
1345-317         0          0          0          NO
4558-556         0          0          0          NO
4556-680         0          0          0          NO
0680-762         0          0          0          NO
8603-605         0          0          0          NO
6162-619         0          0          0          NO
0344-340         0          0          0          NO
0767-765         0          0          0          NO
9277-101         0          0          0          NO
1382-377         0          0          0          NO
8330-329         0          0          0          NO
8194-196         0          0          0          NO
9288-303         0          0          0          NO
5392-336         0          0          0          NO
0720-718         0          0          0          NO
0742-739         0          0          0          NO
0739-735         0          0          0          NO
8602-603         0          0          0          NO
4568-567         0          0          0          NO
0723-721         0          0          0          NO
0721-718         0          0          0          NO
9345-556         0          0          0          NO
0349-348         0          0          0          NO
1315-314         0          0          0          NO
0354-194         0          0          0          NO
9238-44T         0          0          0          NO
0741-558         0          0          0          NO
9558-739         0          0          0          NO
9278-280         0          0          0          NO
9280-281         0          0          0          NO
3556-383         0          0          0          NO
21383-392        0          0          0          NO
3552-726         0          0          0          NO
21723-725        0          0          0          NO
0681-680         0          0          0          NO
8494-6BT         0          0          0          NO
5391A-391        0          0          0          NO
25391-333        0          0          0          NO
0333-346         0          0          0          NO
5410-310         0          0          0          NO
8495-494         0          0          0          NO
0692-693         0          0          0          NO
8601-602         0          0          0          NO
0705-702         0          0          0          NO
8606-603         0          0          0          NO
1396-552         0          0          0          NO
0307-302         0          0          0          NO
8200-196         0          0          0          NO
3553-386         0          0          0          NO
1386-383         0          0          0          NO
5409-408         0          0          0          NO
0687-686         0          0          0          NO
0686-560         0          0          0          NO
9560-558         0          0          0          NO
5391B-391        0          0          0          NO
8182-177         0          0          0          NO
8376-328         0          0          0          NO
8488-489         0          0          0          NO
8489-490         0          0          0          NO
8490-65T         0          0          0          NO
9235-494         0          0          0          NO
9553-721         0          0          0          NO
0314-315         0          0          0          NO
18607-374        0          0          0          NO
0757-760         0          0          0          NO
1329-328         0          0          0          NO
8377-376         0          0          0          NO
20316-427        0          0          0          NO
0427-305         0          0          0          NO
1327-328         0          0          0          NO
0733-735         0          0          0          NO
0728-030         0          0          0          NO
1387-386         0          0          0          NO
8322-326         0          0          0          NO
0731-030         0          0          0          NO
1750-489         0          0          0          NO
8174T-177        0          0          0          NO
9230-6AT         0          0          0          NO
18184-74T        0          0          0          NO
0732-731         0          0          0          NO
1081-602         0          0          0          NO
18185-184        0          0          0          NO
0755-757         0          0          0          NO
0685-686         0          0          0          NO
0769-731         0          0          0          NO
26221-184        0          0          0          NO
0671-757         0          0          0          NO
46898-74T        0          0          0          NO
20331-043        0          0          0          NO
73113T-12T       0          0          0          NO
18302-95T        0          0          0          NO
73112T-95T       0          0          0          NO
18401-185        0          0          0          NO
18134-97T        0          0          0          NO
18188-185        0          0          0          NO
25404B-043       0          0          0          NO
18138-134        0          0          0          NO
18132-133        0          0          0          NO
18133-134        0          0          0          NO
71732-133        0          0          0          NO
49247-168        0          0          0          NO
20657-031        0          0          0          NO
49607-031        0          0          0          NO
24669-030        0          0          0          NO
24664-030        0          0          0          NO
18296-97T        0          0          0          NO
49672-98T        0          0          0          NO
18297A-97T       0          0          0          NO
18156-163        0          0          0          NO
18164-168        0          0          0          NO
71734-163        0          0          0          NO
73110-98T        0          0          0          NO
49430-098        0          0          0          NO
69107-097        0          0          0          NO
18097-099        0          0          0          NO
18099-093        0          0          0          NO
18093-102        0          0          0          NO
18102-090        0          0          0          NO
18090-086        0          0          0          NO
18086-085        0          0          0          NO
18085-098        0          0          0          NO
49494-085        0          0          0          NO
18096-093        0          0          0          NO
69106-097        0          0          0          NO
18100-099        0          0          0          NO
18088-086        0          0          0          NO
18089-090        0          0          0          NO
69104-093        0          0          0          NO
18092-102        0          0          0          NO
01675-158        0          0          0          NO
46158-166        0          0          0          NO
46161-158        0          0          0          NO
46171-166        0          0          0          NO
1672-026         0          0          0          NO
1673-056         0          0          0          NO
9055-056         0          0          0          NO
73113BA-73       0          0          0          NO
73113AA-73       0          0          0          NO
73112BA-73       0          0          0          NO
73112AA-73       0          0          0          NO

[COORDINATES]
;;Node           X-Coord            Y-Coord
;;-------------- ------------------ ------------------
18889            -266616.81         240812.25         
18907            -266386.88         240596.47         
18908            -266280.08         240426.84         
47949            -266377.17         241229.71         
18888            -266258.88         241036.22         
18909            -266200.99         240300.38         
18904            -266177.55         239959.69         
18890            -266138.65         241115.32         
18886            -265989.49         240604.52         
18891            -265988.59         241211.41         
18910            -265895.54         240698.79         
18900            -265791.60         239507.81         
18892            -265782.11         241339.52         
18884            -265749.70         240223.51         
18878            -265737.17         239270.05         
18883            -265624.73         240020.08         
18882            -265584.17         239953.49         
18896            -265490.00         240961.93         
48705            -265685.42         255688.10         
49058CO          -265566.67         243040.78         
18881            -265381.05         239612.05         
71594BS          -265338.43         246528.26         
71594            -265324.32         246506.81         
71594AS          -265309.79         246487.46         
02249            -265396.35         255012.57         
49071            -265299.34         242481.38         
47957            -265180.83         238632.30         
18552            -265178.98         238438.88         
49066            -265178.59         242954.70         
47963            -265148.54         239693.06         
72043            -265097.29         242506.12         
18899            -265077.68         240652.26         
47956            -265032.35         238078.09         
49068            -265005.89         242759.02         
02246            -265005.85         254408.24         
18912            -265003.99         241255.15         
02238            -265001.17         254997.02         
32596            -264987.19         243146.22         
02247            -264930.42         254289.93         
49074            -264922.05         242611.95         
18550            -264854.86         238290.46         
18551            -264854.36         238389.83         
18870            -264830.54         239651.08         
22034            -264812.36         241843.64         
26798            -264806.31         246317.13         
26797            -264793.43         246516.64         
67757            -264786.41         242562.12         
47970            -264761.68         239256.47         
18558            -264815.67         238775.89         
02245            -264730.29         254592.11         
18559            -264720.55         237460.96         
18538            -264696.17         237849.33         
18560            -264681.05         237465.33         
46275            -264805.42         256463.32         
18519            -264656.05         238046.27         
18868            -264623.50         239718.37         
48703            -264719.60         254124.76         
48702            -264575.67         254107.11         
22033            -264571.70         242234.41         
22019            -264563.89         243210.81         
72058BH          -264737.29         245218.76         
02240            -264839.79         254905.80         
18825            -264640.55         240419.36         
49079            -264556.89         242990.84         
18814            -264541.67         240846.83         
49112            -264486.88         245108.27         
47955            -264478.77         237052.35         
18866            -264474.09         239759.24         
22018            -264473.23         243203.59         
18867            -264472.74         239750.24         
49082            -264471.44         243822.87         
48701            -264450.17         254224.71         
18834            -264448.49         240147.56         
02447            -264417.97         246602.04         
02446            -264407.85         246749.37         
18568            -264402.17         236823.30         
18567            -264399.68         237182.87         
46273            -264394.70         256456.31         
18823BD          -264381.58         240580.34         
18823            -264377.67         240583.08         
22036            -264372.60         241973.20         
22014            -264359.96         242717.81         
18864            -264347.26         239821.82         
46269            -264340.60         256749.14         
49086            -264329.91         244092.58         
22012            -264317.03         243191.46         
49112T           -264311.90         245221.85         
47972            -264289.28         239438.38         
46274            -264242.54         256548.19         
02231            -264238.42         255695.33         
48695            -264237.95         254135.30         
48699            -264260.20         254507.43         
21827            -264228.45         245621.88         
02485            -264202.60         247939.11         
18836            -264180.11         240323.61         
02224            -264165.03         256128.97         
46270            -264144.26         256868.93         
18830            -264119.55         241473.46         
18556            -264114.26         239112.07         
18557            -264114.06         239135.03         
02448            -264112.35         246808.55         
48692            -264108.39         253929.35         
47986            -264097.61         240191.72         
22024            -264081.61         242470.59         
02230            -264059.23         255432.40         
18862            -264047.23         240005.77         
18863            -264043.88         240000.64         
48690            -264035.92         254146.68         
18831            -264035.86         241527.61         
49108            -264000.48         244425.64         
18571            -264179.54         236528.14         
48689            -263991.51         254279.49         
22017            -263977.30         243408.86         
18541            -263959.42         238846.74         
22026            -263958.11         242227.14         
22037            -264094.65         242142.21         
02511            -263908.36         248510.46         
32560            -263906.48         252858.61         
22009            -263886.47         243460.19         
02229            -263878.79         255167.02         
18816            -263872.42         241264.21         
32559            -263868.96         253037.34         
47973            -263861.50         239707.86         
47973BD          -263858.63         239703.77         
47974            -263845.04         239704.26         
02225            -263841.91         256343.18         
18838            -263815.55         240551.83         
18521            -263813.48         238571.24         
02221            -263778.54         255622.24         
02478            -263757.60         247137.58         
02479            -263746.17         247237.65         
22022            -263734.98         242719.14         
21850            -263730.48         243122.08         
02226            -264010.17         254634.21         
22016            -263718.57         243570.43         
02481            -263707.54         247583.46         
18821            -263706.86         240999.21         
45738            -263695.68         247674.77         
32561            -263688.66         252823.76         
49111            -263677.42         245639.80         
02487            -263677.10         247895.77         
18534            -263666.55         238296.64         
49159            -263665.05         241757.86         
18832            -263936.61         241588.33         
18522            -263656.60         238668.41         
47959            -263654.86         237101.46         
18542            -263889.23         238890.11         
02510            -263605.73         248744.21         
02480            -263601.54         247229.02         
02517            -263600.55         249033.86         
18574            -263574.11         236957.55         
18564            -263567.36         237817.86         
72050            -263557.96         244693.92         
46229            -263592.42         256987.65         
21823            -263540.53         245887.60         
02493            -263502.11         248182.17         
18809            -263501.04         241493.96         
18817            -263772.05         241325.36         
18533            -263618.05         238327.52         
22039            -263477.42         242525.57         
71305            -263486.35         255354.88         
18839            -263746.05         240593.42         
18595            -263445.85         237894.11         
22006            -263441.36         242902.27         
22021            -263662.42         242764.42         
22047            -263612.56         242241.50         
48653            -263409.35         252003.16         
02453            -263402.17         246278.27         
02452            -263392.42         246345.21         
71319            -263390.57         252819.51         
49089            -263553.63         243994.54         
18820            -263608.17         241061.58         
18810            -263346.08         241223.97         
32573            -263530.10         253395.30         
32572            -263344.40         253223.14         
18811            -263336.73         241230.30         
49110            -263328.67         244513.16         
18859            -263328.35         240469.30         
02483            -263300.96         247581.76         
02494            -263296.36         248166.83         
49101            -263287.13         245910.39         
18850            -263475.36         239594.39         
18851            -263281.95         239730.33         
18583            -263271.97         236776.88         
02474            -263258.80         247236.89         
49091            -263256.91         244112.62         
47960            -263253.37         237538.73         
02508            -263252.30         248788.71         
48652            -263250.64         252282.32         
48654            -263248.51         252149.54         
32583            -263244.88         252863.53         
48676            -263239.23         256353.57         
02218            -263237.57         254841.27         
32589            -263234.50         253133.04         
02520            -263381.92         249144.36         
02521            -263230.92         249132.14         
22040            -263420.57         242498.81         
18594            -263367.35         237941.77         
73001            -263181.95         254886.43         
18844            -263177.21         240949.43         
02507            -263176.42         248786.33         
18843            -263166.36         240956.29         
48616            -263162.17         255311.86         
18531            -263151.79         238157.15         
32579            -263148.29         252447.04         
02489            -263130.92         247849.99         
47978            -263129.17         240202.33         
49100            -263110.50         246028.24         
02473            -263107.42         247317.30         
18576            -263099.29         237254.49         
18819            -263086.85         241396.49         
18818            -263081.50         241387.86         
21822            -263043.84         246222.17         
02506            -263040.36         248776.55         
18852            -263036.48         239903.77         
32585            -263077.46         252915.60         
02472            -263027.42         247356.33         
18846            -263010.18         240685.16         
18858            -263249.85         240521.74         
02522            -263009.92         249111.86         
32580            -263007.00         252839.33         
46222            -263006.75         256766.64         
18845            -263001.60         240691.08         
02523            -262998.94         249269.88         
18588            -262991.35         237232.27         
49088            -263037.92         243561.17         
48655            -262978.32         251854.57         
22004            -262972.46         242353.78         
49099            -262971.61         246114.61         
18589            -262965.35         237307.36         
48637            -262964.76         252823.82         
18586            -262961.60         236776.08         
72012            -263126.24         243386.64         
01657            -262936.73         256662.73         
02462            -262914.66         247216.34         
48661            -262911.01         252313.91         
72052            -262899.23         244520.96         
48635            -262890.64         253090.91         
48662            -262882.26         252317.61         
72075            -262864.85         236594.88         
18848            -262842.65         240419.68         
78932            -263056.01         240256.66         
18849            -262836.10         240409.86         
18847            -262835.60         240425.05         
02460            -262833.61         247050.99         
22043            -262832.72         241556.49         
22044            -262827.48         241548.08         
21849            -262822.64         243249.17         
48638            -262808.14         252618.26         
01656            -262801.20         256463.95         
01658            -263071.90         256274.93         
71320            -262784.92         251506.52         
32569            -262782.37         253456.17         
48679            -262771.01         255692.38         
48632            -262768.98         253620.90         
48663            -262756.10         252410.79         
49095            -262734.84         246276.13         
66153            -262734.01         244276.24         
22050            -262733.89         242500.94         
48656            -262730.17         251826.47         
18877            -262864.18         239773.65         
48665            -262720.48         252302.69         
21839            -262708.93         243134.35         
02217            -262860.42         255961.71         
21835            -262706.74         244269.88         
02524            -262705.48         249087.89         
48667            -262700.48         253104.90         
72011            -262737.74         243407.66         
21848            -262690.42         243339.59         
18806            -262678.44         240157.79         
18853            -262933.55         239976.32         
48639            -262676.64         252474.61         
18807            -262671.84         240162.44         
18229            -262664.04         236212.80         
18527            -262646.54         238127.15         
18582            -262633.35         236733.15         
21821            -262629.00         246165.28         
48657            -262626.60         252158.55         
02215            -262623.54         256058.94         
46219            -262619.90         256839.98         
21833            -262612.92         244134.21         
02463            -262606.55         246761.89         
02214            -262600.37         256011.45         
18585            -262692.92         237259.52         
49096            -262569.08         246374.68         
72010            -262677.28         243582.20         
21847            -262568.98         243424.75         
72073            -262566.67         241719.65         
22002            -262560.42         241711.69         
02464            -262557.73         246652.33         
02469            -262556.92         247398.58         
02525            -262556.73         249075.49         
02468            -262548.05         247384.08         
49098            -262533.26         246224.13         
48640            -262518.07         252535.65         
47979            -262517.54         240667.61         
18841            -262517.17         241358.77         
21846            -262512.11         243463.82         
02496            -262498.86         248100.96         
21840            -262495.93         242819.98         
22051            -262659.28         242387.80         
22001            -262488.75         241620.41         
66152            -262485.83         244431.39         
72051            -262867.06         244761.62         
18231            -262471.79         236466.33         
21836            -262470.86         244230.49         
28922            -262618.92         243719.94         
48642            -262463.45         252395.13         
02466            -262446.86         247246.77         
02465            -262577.42         247181.39         
21831            -262443.92         243892.61         
18802            -262443.57         239872.20         
18579            -262443.17         237119.83         
18801            -262439.82         239859.11         
26836            -262415.00         247472.64         
18592            -262404.29         237893.96         
02467            -262395.92         247168.24         
21837            -262381.79         244301.29         
18581            -262380.54         236885.33         
26838            -262370.85         247409.10         
18856            -262366.35         241129.02         
18230            -262360.23         236281.90         
45735            -262350.38         246500.77         
18549            -262349.85         238312.86         
18854            -262347.02         240406.73         
49160            -262325.73         241905.21         
49097            -262325.29         246358.37         
48217            -262308.63         256474.62         
21832            -262283.10         244003.68         
18504            -262257.03         237652.10         
89075            -262253.41         246876.38         
73114            -262240.02         240095.56         
22055            -262238.69         241782.75         
21829            -262223.23         243577.71         
18516            -262219.08         236617.97         
48648            -262421.48         252214.71         
72076            -262416.51         241520.33         
21828            -262187.67         243533.64         
21842BH          -262189.65         242985.79         
49219            -262181.29         237053.33         
48644            -262151.92         252591.11         
18481            -262146.54         238048.61         
89074            -262140.31         246849.00         
89076            -262176.07         246684.97         
18505            -262115.23         237414.27         
48645            -262100.32         252542.10         
02498            -262072.86         248307.11         
49161            -262071.74         245327.63         
24703            -262068.17         255613.69         
02499            -262064.30         248398.92         
20635            -262052.07         243399.01         
01659            -262050.63         256735.21         
02501            -262047.11         248641.21         
18452            -262042.67         241029.95         
48671            -262014.28         254478.92         
02529            -262005.48         249181.89         
65813            -262181.04         241696.08         
18480            -261984.40         237777.08         
18506            -261973.10         237178.43         
49164            -261969.11         245642.02         
18437            -261947.42         238565.24         
73659            -261946.90         252213.70         
20631            -261937.86         244035.36         
27208T           -261933.79         243130.32         
73626            -261927.87         253149.23         
20639            -261926.00         242635.78         
18417            -261904.33         240836.09         
49163            -261903.42         245695.39         
18509            -262115.04         236778.55         
18508            -261890.42         236922.93         
18447            -261884.72         240280.97         
26479            -261876.31         247825.36         
73665            -261861.11         252343.90         
49513            -261855.66         246811.41         
67748            -261845.14         247920.75         
73657            -261843.80         252235.02         
29065            -261823.44         256408.46         
71762            -261815.38         241202.65         
66231            -261800.98         246451.51         
29064            -261788.91         256359.46         
26659T           -261775.67         243887.51         
73624            -261759.82         253019.17         
49316            -261756.77         245587.87         
18457            -261751.20         239588.67         
18456            -261748.70         239570.62         
26655            -261734.71         243124.48         
24655            -261733.39         252531.89         
18371            -261980.77         236092.08         
26477            -261725.89         248155.26         
26475            -261721.65         248251.76         
20638            -261720.59         242666.93         
45026            -261718.99         256961.26         
71759BS          -261798.94         240976.75         
71759            -261715.68         240861.12         
20782            -261714.07         248612.65         
18449            -261701.65         240520.36         
71061            -261699.48         246551.40         
20640            -261698.69         242574.45         
73629            -261692.00         253401.77         
18436            -261691.24         238723.13         
71757BH          -261661.48         236718.48         
27134            -261667.67         243522.27         
20293            -261657.67         243684.77         
66230            -261653.68         245313.69         
71759AS          -261647.84         240765.53         
20651            -261642.71         246183.91         
20655            -261642.65         245476.14         
18448            -261624.84         240387.22         
66232            -261622.70         246580.21         
18479            -261922.85         237763.30         
66160            -261617.40         242296.03         
71756            -261614.45         236725.61         
26657T           -261607.18         244063.91         
24066            -261590.28         240662.47         
26657            -261589.62         244079.93         
24702            -261586.90         254511.36         
20294            -261577.70         243838.80         
18483            -261572.54         238021.40         
24698            -261572.28         254175.73         
18500            -261672.92         238420.30         
24591            -261561.08         252682.43         
66229            -261559.28         245786.31         
20290            -261554.20         243220.52         
20648            -261552.23         245987.24         
24691            -261683.08         255823.83         
20786            -261513.86         247986.42         
26653            -261513.23         242616.31         
18502            -261507.04         238398.90         
71764            -261501.89         241116.59         
20288            -261499.61         243113.83         
20785            -261495.08         248231.26         
71751            -261491.98         236815.77         
49517            -261476.79         247190.86         
20642            -261465.54         242134.97         
20649            -261461.76         246119.64         
18425T           -261460.21         240101.18         
20783            -261436.03         249013.91         
27201            -261430.97         243525.56         
20643            -261423.04         242078.31         
18435            -261421.51         238958.36         
29067            -261411.95         256678.25         
25675            -261397.21         245780.08         
66206T           -261382.75         245612.35         
49520            -261380.51         247416.37         
20286            -261369.16         242771.10         
18485BH          -261368.17         237880.22         
18498            -261360.20         238568.49         
25422            -261347.28         246055.63         
66202T           -261332.68         244517.39         
46908            -261329.60         236915.46         
29056            -261326.76         256960.12         
18515            -261320.77         236901.91         
18476            -261318.07         238245.80         
24652            -261316.17         252346.03         
25418            -261299.46         246357.43         
24701            -261298.17         253799.89         
49327            -261280.35         251978.17         
18441            -261273.97         238807.70         
66203            -261271.89         244708.97         
21356            -261263.30         254673.11         
20289            -261249.41         243244.22         
29057            -261234.86         256817.01         
20283            -261224.59         242485.86         
24593            -261223.23         252589.98         
51745            -261223.17         236980.90         
18445            -261561.49         239342.23         
25417            -261209.64         246408.45         
73562            -261208.71         252714.86         
18454            -261192.71         239899.71         
18453            -261191.23         239911.30         
20780            -261180.64         246836.08         
29058            -261174.84         256727.71         
24596            -261158.37         252359.58         
20280            -261152.55         242915.18         
49326            -261151.60         251861.52         
24700            -261148.32         253921.72         
49323            -261145.63         251598.80         
49324            -261139.93         251399.92         
18451            -261237.65         241266.15         
71768            -261133.22         241124.83         
71770            -261267.75         241026.23         
21362            -261132.89         255106.05         
24594            -261130.30         252565.78         
21357            -261126.61         254746.99         
49416            -261119.21         256206.63         
45032            -261079.63         256892.51         
18434            -261070.15         239284.27         
18475            -261056.97         238410.43         
18413            -261053.25         240472.64         
24598            -261052.86         252193.08         
47989            -261045.24         247858.50         
18427            -261038.48         239713.33         
18428            -261035.91         239689.25         
20279            -261029.89         242996.95         
18429            -261026.69         239683.61         
18430            -261019.52         239562.19         
71032            -261011.36         249544.21         
18431T           -261010.81         239557.06         
26651            -261010.59         241101.86         
18432BD          -261009.86         239442.20         
18432            -261008.65         239427.24         
49325            -261005.42         251693.08         
18431            -261004.15         239530.42         
51746            -261123.82         237081.38         
49222T           -261002.46         237157.23         
18433            -260999.54         239428.46         
24595            -260987.03         252529.96         
24600            -260984.12         251916.21         
49528            -260982.78         247922.60         
71765            -260973.82         241209.99         
20263            -260971.70         243904.49         
20442            -260971.31         245631.12         
26246            -260964.34         247421.32         
71775            -261190.28         240371.72         
71776            -260962.74         240082.99         
20282            -260962.72         242657.20         
21353            -260957.86         254264.77         
71056            -260957.37         247686.34         
71783            -261184.72         240377.82         
73537            -261063.04         255540.79         
73532            -260944.87         255513.38         
26258            -260944.39         247270.94         
49222            -260944.07         237193.40         
71037            -260943.47         250044.11         
71055            -260930.11         247846.00         
49524            -260926.21         246945.12         
47995            -260917.91         249876.75         
73531            -260915.63         255806.38         
20262            -260905.39         243898.55         
21365            -260900.86         254628.55         
18474            -260949.34         239037.24         
18473            -260883.57         238866.27         
UA0012P          -260877.59         239536.57         
18386            -260872.24         236083.53         
18405            -260863.42         240295.58         
71774            -260859.19         239947.72         
73561            -260852.39         251586.05         
21354            -260851.17         254347.83         
78851            -260850.51         251649.36         
20602            -260834.49         245818.70         
26644            -260834.40         239547.84         
26643            -260833.66         239537.55         
18406            -260828.73         240468.24         
26645            -260828.52         239877.89         
26244            -260823.20         247763.93         
20267            -260821.56         243134.22         
26642            -260810.48         239372.61         
71058            -260809.43         248336.74         
49530            -260801.95         248104.67         
26241            -260801.23         248200.51         
21364            -260794.70         254711.71         
49265            -260791.76         240809.04         
71040            -260788.60         250305.26         
26650T           -260782.32         240792.97         
20296            -260781.29         244294.00         
26647            -260771.91         240163.10         
73650            -260766.36         252190.54         
26238            -260766.04         248743.03         
24565            -260764.57         253793.19         
26648            -260760.15         240218.23         
18471            -260753.89         238612.15         
66161            -260747.92         245210.30         
20603            -260747.32         245939.52         
26640T           -260744.72         239012.56         
49531            -260734.57         248336.74         
26249            -260721.14         247535.27         
71740            -260714.45         240860.48         
20610            -260711.38         246662.32         
26649            -260706.49         240439.49         
73529            -260706.09         255962.92         
49264            -260701.99         241427.76         
20297            -260700.95         244169.08         
73648            -260699.28         252011.66         
73634            -260689.89         253255.98         
21351            -260683.86         253936.08         
20278            -260672.61         243234.49         
18470            -260672.40         238544.72         
73644            -260653.48         250928.38         
20441            -260649.12         245061.78         
26237            -260640.83         248600.76         
20696            -260637.86         249282.85         
73533            -260633.00         255484.14         
66226            -260630.31         246826.25         
26240            -260628.39         248202.24         
73649            -260622.41         252034.02         
20440            -260615.46         245009.63         
26227            -260612.04         247301.24         
20746            -260608.95         248863.08         
18385            -260766.11         235886.33         
73530            -260603.76         255778.36         
49245T           -260599.05         238688.02         
20697            -260597.69         249221.51         
71780            -260728.49         239919.61         
71738            -260596.07         239731.36         
21368            -260593.73         254213.02         
18469            -260581.90         238420.78         
18342            -260578.43         234059.91         
73647            -260574.89         251649.69         
26228            -260572.62         247332.75         
18407            -260542.98         240492.83         
18382            -260540.33         235467.83         
26252            -260532.66         247582.63         
20540            -260518.58         245727.58         
71077            -260513.47         247153.88         
63809            -260507.66         239164.91         
73554            -260505.91         253475.74         
71777            -260504.06         239590.37         
49525            -260499.55         246965.77         
21377            -260490.83         254997.77         
21719            -260488.48         253584.16         
73538            -260485.85         255043.03         
73640            -260556.25         252818.92         
21367            -260475.67         254302.77         
20606            -260464.86         246329.56         
26243            -260454.37         247893.98         
18414            -260448.26         241187.40         
20698            -260447.83         248994.52         
18398            -260443.75         233813.67         
26230            -260440.48         247428.47         
71043            -260439.90         250363.01         
66223            -260427.69         241619.41         
71069            -260545.12         251124.16         
21380            -260401.53         255824.65         
18381            -260392.61         235232.08         
49287            -260495.56         244849.93         
20336            -260388.23         244722.77         
20695            -260375.95         249540.15         
20605            -260369.97         246195.50         
49244T           -260358.97         238323.26         
26254            -260357.52         247685.21         
26251            -260348.46         247286.03         
18397            -260344.76         233878.95         
18177            -260338.70         239886.36         
26235            -260338.39         248177.95         
18380            -260337.55         235146.36         
26219            -260336.04         246425.56         
21373            -260329.92         254592.30         
20444            -260325.30         245494.86         
71046            -260314.56         250470.80         
20614            -260303.76         246091.78         
49224            -260299.11         237586.25         
20745            -260298.08         249095.17         
49405            -260291.89         251824.39         
20694            -260271.35         249617.28         
71050            -260358.08         251026.15         
26231            -260253.96         247524.98         
66223T           -260244.76         241742.10         
18331            -260242.87         234375.26         
73637            -260376.19         253186.30         
73636            -260242.60         253003.33         
49526            -260235.42         246598.29         
21348            -260228.86         253988.83         
18196            -260228.40         240988.92         
18379            -260217.95         234957.86         
20716            -260215.20         247156.39         
21722            -260208.21         253643.28         
18388            -260208.07         235299.39         
20617            -260202.23         245772.64         
49543            -260196.69         249955.15         
49303            -260187.36         246533.13         
20313            -260353.42         244196.30         
21721            -260173.87         253542.54         
26253            -260161.68         247353.46         
73639            -260154.47         253008.20         
71047            -260152.42         250362.24         
49226BT          -260152.39         237953.81         
21341            -260149.20         253293.55         
73664            -260147.49         233553.99         
20765            -260142.35         251385.56         
18605            -260139.64         234006.33         
18467            -260133.17         237691.58         
20352            -260127.45         241588.52         
26218            -260127.22         246115.51         
20618            -260123.91         245676.36         
26639            -260122.60         237660.90         
32101            -260116.74         241828.74         
20338            -260105.95         244382.30         
18389            -260098.92         235490.64         
20272            -260083.42         242193.46         
20350            -260082.73         244580.74         
21371            -260078.30         254269.46         
20702            -260076.73         248308.36         
18378            -260043.70         234697.64         
49226AT          -260039.13         237732.91         
20737            -260033.23         248571.14         
21347            -260027.86         253731.27         
20273            -260026.58         242108.27         
49343            -260022.85         252835.86         
20310            -260019.95         243673.17         
18329            -260010.56         234291.56         
21311            -260153.17         252693.52         
20619            -259993.72         245508.65         
26255            -259991.30         247529.29         
20693            -259983.95         249756.70         
49546            -259981.41         250029.85         
21372            -259966.17         254356.36         
20718            -259965.30         246782.83         
21375            -259959.23         254640.33         
21345            -259952.39         253493.61         
24558            -259935.52         251729.35         
18603            -259922.80         233880.64         
66162            -259920.89         245467.82         
20302            -259916.20         242701.01         
20762            -259909.78         250710.46         
20344            -259903.36         244086.46         
20767            -259880.99         251475.55         
20340            -259880.26         244245.42         
49277            -259876.77         241952.38         
21382            -259875.11         254932.67         
18330            -259874.23         234241.83         
18328            -259866.48         234609.14         
18194            -259858.64         241293.80         
49288            -259849.45         246402.94         
25392            -259848.61         245102.89         
20720            -259840.83         246594.58         
20742            -259840.67         249399.49         
18602            -259832.95         233729.30         
24568            -259832.59         253870.55         
20303            -259818.70         242574.49         
20723            -259818.61         247308.30         
20309            -259816.95         243361.64         
49345            -259816.72         252047.99         
20348            -259814.23         244563.11         
20735            -259787.26         248660.96         
18391            -259786.48         235861.39         
20349            -259783.20         244794.33         
49281            -259777.47         242276.56         
21315            -259776.92         252281.21         
20354            -259773.45         241696.71         
49238            -259773.10         238645.90         
20741            -259772.86         249442.55         
71030            -259772.27         248487.60         
49278            -259772.12         242028.31         
73556            -259770.89         255069.24         
20739            -259770.48         248899.86         
18465T           -259770.18         237271.70         
20760            -259761.31         250329.32         
21314            -259757.39         252548.52         
21723            -259743.66         253643.30         
20681            -259738.64         251181.74         
18494            -259737.70         238242.33         
24567            -259727.82         253893.09         
25391AS          -259765.07         245167.52         
25391            -259724.30         245203.80         
25410            -259717.03         243875.97         
20721            -259710.45         247012.74         
18495            -259702.20         238290.27         
20692            -259692.88         249736.52         
18601            -259692.11         233504.64         
20705            -259690.86         247615.64         
18606            -259685.86         234027.83         
24556            -259683.96         251906.84         
21396            -259673.08         254457.64         
49558            -259669.38         249272.75         
49280            -259667.95         242131.50         
20307            -259659.73         242898.36         
18200            -259653.48         241111.12         
71035            -259650.35         250490.04         
73553            -259649.85         255397.65         
25409            -259623.52         243938.78         
21383            -259621.42         254983.42         
20687            -259618.95         249685.08         
18326            -259612.80         235168.39         
25391BS          -259609.01         245302.63         
18182            -259607.10         240687.77         
18376            -259593.05         234510.49         
18488            -259580.31         237565.41         
49235            -259580.04         238136.98         
49553            -259573.18         246805.00         
20314            -259708.14         243745.52         
20315            -259568.73         243530.02         
21317            -259565.70         252637.14         
20680            -259560.43         251139.15         
18607            -259554.83         234111.64         
20757            -259553.73         250054.71         
21386            -259552.42         255194.08         
49560            -259548.38         249399.44         
21329            -259547.39         253421.02         
18377            -259542.48         234651.36         
18489            -259540.16         237515.23         
20346            -259531.30         244377.64         
25408            -259523.03         244008.57         
20316            -259510.45         243438.96         
21327            -259505.64         253235.64         
20733            -259496.17         248667.55         
20728            -259476.45         247921.52         
21387            -259473.32         255202.27         
20686            -259455.36         249611.74         
49356            -259435.04         252604.90         
21328            -259421.98         253341.27         
18322            -259416.67         234938.21         
18490            -259409.69         237356.31         
20731            -259407.89         248451.83         
49357            -259407.05         252744.72         
73552            -259402.55         254093.49         
71750            -259396.30         237628.98         
20305            -259392.35         242708.18         
25407            -259374.03         244113.60         
21726            -259373.77         253816.05         
18174T           -259370.64         240499.18         
49230            -259364.42         238123.05         
18184            -259357.62         240851.06         
21725            -259355.30         253724.21         
21392            -259353.07         254484.40         
71782            -259423.44         238235.02         
20732            -259333.73         248558.77         
21389            -259331.70         255150.90         
21390            -259318.04         255005.96         
71081            -259313.87         233857.68         
18374            -259312.57         234262.68         
21330            -259308.69         253266.85         
49282            -259297.05         242378.77         
18185            -259294.61         240934.14         
20755            -259285.91         249905.47         
49561            -259272.26         249232.14         
20320            -259270.32         243619.83         
20685            -259266.08         249516.21         
18163            -259256.35         238646.27         
49404            -259244.17         255296.53         
20750            -259240.05         248872.33         
20749            -259237.95         248964.08         
20333            -259231.23         244607.24         
49346            -259229.40         251200.14         
21331            -259215.32         253198.94         
49347            -259207.26         251332.46         
18317            -259202.92         235990.55         
26224            -259190.28         242432.53         
20332            -259187.54         244553.27         
24585            -259183.50         252712.99         
24586            -259176.59         252764.11         
20754            -259158.11         249875.21         
20358            -259145.42         242056.65         
24590            -259144.37         253012.50         
49232            -259142.07         237708.83         
20671            -259120.45         250397.74         
25405            -259120.00         244279.69         
21398            -259115.95         254637.71         
24570            -259109.42         255270.81         
18311            -259105.64         235112.86         
46898            -259102.28         240499.19         
18372            -259090.07         233967.61         
20427            -259074.99         242770.54         
20322            -259211.87         244099.16         
20323            -259074.67         243889.24         
18316            -259071.98         236110.81         
20768            -259066.89         248583.96         
18318            -259055.85         235854.21         
20684            -259043.64         249524.71         
20318            -259035.23         243258.33         
49407            -259053.29         254197.79         
73570            -259030.14         251981.42         
20331            -259111.85         244463.58         
21043            -259017.42         244348.78         
18492            -259007.29         237542.21         
49595            -258976.76         247866.42         
49395            -258972.36         255238.18         
48897T           -258969.25         236144.72         
49374            -258968.44         253905.39         
20675            -258964.36         250758.08         
21399            -258960.61         254607.68         
24589            -258959.67         252356.53         
49233            -259097.32         237803.17         
49234            -258958.07         237629.55         
20683            -258943.14         249524.99         
49373            -258938.42         253092.14         
18318W           -258936.47         235982.59         
73112BA          -258930.48         235987.83         
73113BA          -258926.30         236001.70         
49372            -258896.65         253161.33         
73113AA          -258891.30         236019.26         
20769            -258887.70         248306.52         
73113T           -258886.04         236020.02         
73112AA          -258885.76         236010.62         
18305            -258885.39         235347.58         
18306            -258881.10         235204.74         
49569            -258878.95         250291.15         
73112T           -258877.97         236009.51         
18401            -259003.34         241465.40         
20674            -258860.65         250563.04         
26221            -258859.59         241792.49         
18168            -258858.70         239364.52         
73571            -258842.24         252061.55         
49567            -258837.46         250228.27         
24569            -258832.68         255208.15         
18134            -258824.67         236277.30         
20426            -258824.45         242935.94         
18307            -258806.57         235083.08         
26222            -258805.19         241817.03         
20330            -258804.45         244086.11         
21703            -258798.48         254356.05         
18188            -258774.92         241127.46         
20325            -258774.29         243427.61         
25404BH          -258774.03         244512.63         
49568            -258760.47         250087.13         
20364            -258739.85         242612.18         
18138            -258737.35         236821.08         
73577            -258731.70         251880.56         
21337            -258721.72         253417.32         
21336            -258712.46         253696.34         
21711            -258709.54         255085.86         
21706            -258679.95         254545.02         
20326            -258674.98         243274.96         
18314            -258664.56         234083.36         
18132            -258664.04         236709.80         
31154            -258645.35         249380.03         
71733            -258622.95         237056.41         
21710            -258614.68         254887.03         
24659            -258612.88         252625.95         
49247            -258607.86         239832.73         
49570            -258607.42         250442.94         
18133            -258582.45         236455.24         
49607            -258579.40         249686.85         
26262            -258578.55         250017.61         
21731            -258574.94         253437.91         
49375            -258559.86         255149.41         
24658            -258559.00         252756.51         
20361            -258537.39         241988.71         
21707            -258535.06         254123.39         
18302            -258534.64         235251.68         
20328            -258534.57         243665.90         
21708            -258531.14         254508.47         
32452            -258527.61         247926.41         
73594            -258520.31         252188.66         
49256            -258483.48         236880.27         
20327            -258480.60         243581.55         
49596            -258466.75         247831.90         
24663            -258465.05         252623.88         
49365            -258461.10         251546.27         
24582            -258460.90         253297.43         
21734            -258444.32         253874.95         
20365            -258640.98         242777.83         
20667            -258421.73         250465.14         
48895T           -258421.43         235319.40         
24664            -258418.07         252676.38         
65753            -258601.39         237171.71         
71731            -258411.42         236928.02         
21712            -258407.13         254977.10         
20677            -258393.98         250859.41         
71031            -258379.86         249593.22         
49367            -258360.84         251975.22         
48894            -258357.11         235219.78         
18309            -258350.04         234359.55         
20375            -258358.62         242910.47         
24666            -258324.12         253383.09         
73543            -258323.81         252105.30         
20661            -258317.60         250172.68         
71732            -258312.03         236657.71         
20424            -258311.14         243315.61         
20662            -258288.72         250183.19         
49605            -258288.54         249313.87         
49601            -258280.09         248703.73         
49615            -258267.81         249927.84         
49368            -258263.33         252330.28         
20367            -258257.20         242163.08         
20376            -258249.06         242963.50         
49409            -258236.59         254156.37         
49370            -258232.93         252451.86         
49378            -258228.10         255079.05         
32030            -258210.83         252634.93         
21713            -258197.70         254793.39         
84902            -258195.46         253452.43         
20359            -258195.08         241440.39         
49414            -258194.25         255045.89         
21735            -258187.61         253474.56         
24668            -258181.81         253095.71         
65751            -258178.39         240696.28         
24581            -258167.88         253406.09         
20374            -258153.65         242582.28         
24571            -258147.82         253931.95         
20657            -258134.92         249831.14         
32454            -258133.97         248324.85         
20665            -258115.89         250661.89         
20377            -258115.07         243052.83         
18296            -258102.04         235229.43         
24669            -258100.33         252914.62         
18300            -258079.14         234528.46         
73606            -258076.78         252432.32         
73605            -258083.51         252372.87         
73607            -258050.24         252625.69         
21715            -258038.03         254853.14         
67751            -258034.50         249689.92         
20423BH          -258033.84         243501.92         
49408            -258033.27         254239.60         
48893            -258033.25         236419.02         
24572            -258031.71         253828.28         
20397            -258029.39         241805.36         
49602            -258017.62         248732.13         
73616            -258001.31         252778.91         
20372            -257995.92         242329.86         
79432            -257978.75         252170.29         
79433            -257976.80         251977.30         
73580            -257976.15         252834.81         
18297T           -257942.02         235049.93         
18297AG          -257938.95         235057.32         
18156            -257931.20         239349.86         
20368            -257914.83         241616.71         
48892            -257904.07         236264.05         
49622            -257896.15         251063.95         
49620            -257887.92         251205.03         
49619            -257887.78         251287.98         
18164            -257886.60         240022.12         
71736            -257816.24         239807.51         
26261            -257813.47         249338.42         
73609            -257805.19         252425.44         
26259            -257790.45         249683.78         
66254            -257774.93         250759.37         
71734            -257772.62         239735.02         
71735            -257751.63         239701.57         
73610            -257746.64         252579.68         
20395            -257743.10         241911.11         
49630            -257739.69         251203.55         
18299            -257736.51         234594.23         
20385            -257736.12         243077.96         
24575            -257722.93         253923.85         
73582            -257720.75         252909.58         
49251            -257763.74         238758.91         
49253            -257704.98         238682.68         
73619            -257683.48         254041.73         
24576            -257681.28         253715.49         
18298            -257676.94         234641.88         
73641            -257660.93         254952.28         
73549            -257658.17         254796.16         
79434            -257655.60         252185.43         
49252            -257634.07         238585.99         
66195            -257616.09         242322.86         
49259            -257809.34         240535.70         
20380            -257596.19         243406.78         
18298T           -257591.58         234711.59         
73545            -257590.47         254370.61         
73583            -257560.73         253175.82         
73110            -257537.50         234661.12         
73585            -257524.39         252794.98         
49430            -257514.22         239686.75         
51835            -257510.70         250578.81         
73584            -257502.03         252727.90         
51834            -257494.21         250675.35         
18079            -257474.70         239190.71         
65757            -257428.31         253462.31         
49629            -257415.56         250994.78         
73586            -257407.35         252917.27         
73598            -257406.65         254011.55         
73588            -257368.22         253068.90         
51838            -257362.28         249866.51         
73612            -257356.34         252404.37         
73613            -257364.03         252314.93         
18064            -257353.69         238466.20         
18065            -257331.90         238573.23         
49672            -257323.28         234993.52         
73547            -257316.66         254410.32         
51880            -257314.16         250136.37         
73599            -257311.62         253688.72         
49625            -257279.03         250791.94         
18068            -257273.85         238085.36         
73615            -257266.20         252671.30         
51881            -257261.79         250413.47         
49633            -257230.24         251033.31         
18070            -257223.85         236687.83         
51879            -257187.80         250105.66         
49433            -257145.23         240030.47         
51882            -257132.07         250383.55         
73590            -257116.82         252889.49         
72561            -257116.52         235249.72         
69098            -257088.87         239011.22         
73600            -257080.67         253897.65         
73596            -257066.00         253483.97         
73591            -257063.65         252800.64         
73593            -257060.35         253231.04         
18061            -257055.95         237714.21         
73604            -257041.19         254266.60         
18080            -257035.39         239461.74         
73601            -257014.99         253805.41         
49658            -256986.70         233406.06         
49669            -257138.77         236448.79         
49422            -256975.78         238795.08         
49262            -256930.64         240396.46         
49431            -256891.90         239553.24         
69107            -256849.32         240213.16         
49492            -256834.95         240068.72         
18058            -256817.90         237345.56         
18054            -256709.29         236738.14         
18096            -256699.31         240831.46         
69106            -256673.01         240498.32         
18059            -256672.81         237393.87         
49494            -256634.56         239910.58         
49676            -256589.47         235971.26         
18097            -256537.90         240347.36         
49493            -256518.07         240042.16         
49419            -256486.98         237887.02         
49427            -256471.50         238759.97         
49678            -256363.41         236324.76         
18085            -256358.73         239645.36         
18086            -256329.37         239674.24         
49417            -256325.70         237603.72         
18099            -256239.20         240319.44         
45694            -256278.41         236615.25         
49680            -256211.18         236562.01         
18100            -256208.07         240611.01         
18088            -256204.15         239550.49         
18090            -256128.07         239895.97         
18089            -255985.40         239762.68         
18102            -255959.57         240103.19         
49436            -255946.60         236924.71         
18093            -255939.53         240290.96         
49437            -255839.95         237045.44         
69104            -255810.82         240277.72         
18092            -255766.35         239976.08         
49438            -255686.49         237305.97         
30684            -255587.66         231610.09         
46266            -264598.89         257496.56         
01654            -264552.95         257098.35         
46271            -264499.81         257132.23         
46232            -263959.95         257756.40         
01675            -263857.27         259003.04         
01674            -263886.93         258984.87         
46158            -263775.59         258879.62         
46231            -263736.88         257423.47         
46157            -263519.81         258050.59         
46161            -263428.24         259186.28         
46150            -263364.32         259591.63         
46166            -262923.15         257761.10         
46171            -263012.41         258694.51         
46226            -262909.76         257279.64         
46205            -262703.31         257752.72         
01666            -262293.80         258823.14         
01672            -262110.91         258329.01         
01673            -262063.17         258049.83         
29055            -261160.28         257268.66         
18081            -255401.05         239820.48         
49489            -254636.04         238765.71         
49442            -254351.60         239190.65         
18045            -254338.32         238754.88         
46234            -263706.89         257046.69         
HGS-WW           -260878.04         239549.50         
HGS-O1           -260878.04         239560.98         
HGS-O2           -260874.05         239560.67         
UA0013P          -258941.88         235988.81         

[MAP]
DIMENSIONS -266616.81 231610.09 -254338.32 259591.63
Units      None

[REPORT]
SUBCATCHMENTS ALL
NODES ALL
LINKS ALL
