;; SWMM5 .inp converted from XPSWMM .xp file
;; Generated by XPSWMM Card Reader
;; Source format: XP_CARD | Original title: BROWARD COUNTY Multi FAMILY SITE - Runoff example # 47

[TITLE]
;;Project Title/Notes
BROWARD COUNTY Multi FAMILY SITE - Runoff example # 47

[OPTIONS]
FLOW_UNITS           CFS
INFILTRATION         HORTON
FLOW_ROUTING         DYNWAVE
LINK_OFFSETS         DEPTH
MIN_SLOPE            0.0
ALLOW_PONDING        NO
SKIP_STEADY_STATE    NO
ROUTING_STEP         00:01:00
VARIABLE_STEP        0.75
INERTIAL_DAMPING     PARTIAL
NORMAL_FLOW_LIMITED  BOTH
START_DATE           01/01/2001
START_TIME           00:00:00
REPORT_START_DATE    01/01/2001
REPORT_START_TIME    00:00:00
END_DATE             01/02/2001
END_TIME             00:00:00
SWEEP_START          01/01
SWEEP_END            12/31
DRY_DAYS             0
REPORT_STEP          00:15:00
WET_STEP             00:05:00
DRY_STEP             01:00:00

[JUNCTIONS]
;;Name           Elev       MaxDepth   InitDepth  SurDepth   Aponded
;;-------------- ---------- ---------- ---------- ---------- ----------
mh               138.00     0          0          0          0
mh_2             135.00     0          0          0          0
mh_3             155.00     0          0          0          0
mh_4             125.00     0          0          0          0
mh_5             120.00     0          0          0          0
mh_6             111.00     0          0          0          0
outlet           100.00     0          0          0          0
mh_7             137.00     0          0          0          0
mh_8             130.00     0          0          0          0
mh_9             125.00     0          0          0          0
CA-1             0          0          0          0          0
CA-7             0          0          0          0          0
CA-8             0          0          0          0          0

[OUTFALLS]
;;Name           Elev       Type       Stage      Gated
;;-------------- ---------- ---------- ---------- -----
CA-11            0          FREE                  NO

[CONDUITS]
;;Name           From             To               Length     Roughness  InOffset   OutOffset  InitFlow   MaxFlow
;;-------------- ---------------- ---------------- ---------- ---------- ---------- ---------- ---------- ----------
LA1              mh               mh               1800.00    0.0150     124.60     118.30     0          0
LA2              mh               mh               2075.00    0.0150     118.30     114.50     0          0
LA3              mh               mh               5000.00    0.0340     114.50     102.80     0          0
LA4              mh               mh               500.00     0.0150     102.80     102.00     0          0
LA5              mh               mh               300.00     0.0150     102.00     101.60     0          0
LA6              mh               outlet           4500.00    0.0160     101.60     89.90      0          0
LB1              mh               mh               5100.00    0.0150     128.20     117.50     0          0
LB2              mh               mh               3500.00    0.0150     117.50     111.50     0          0
LB3              mh               mh               5000.00    0.0154     111.50     102.00     0          0
P001             CA-1             outlet           220.00     0.0150     0          0          0          0
P005             CA-7             CA-1             240.00     0.0150     0          0          0          0
P009             CA-8             CA-7             505.00     0.0240     0          0          0          0
P011             CA-11            CA-7             655.00     0.0240     0          0          0          0

[XSECTIONS]
;;Link           Shape        Geom1      Geom2      Geom3      Geom4      Barrels
;;-------------- ------------ ---------- ---------- ---------- ---------- ----------
LA1              CIRCULAR     4.00       0          0          0          1
LA2              CIRCULAR     4.50       0          0          0          1
LA3              CIRCULAR     5.00       0          0          0          1
LA4              CIRCULAR     6.00       0          0          0          1
LA5              TRAPEZOIDAL  9.00       1.00       1          1          1
LA6              TRAPEZOIDAL  9.00       1.00       1          1          1
LB1              CIRCULAR     4.50       0          0          0          1
LB2              CIRCULAR     4.50       0          0          0          1
LB3              CIRCULAR     5.50       0          0          0          1
P001             CIRCULAR     4.00       0          0          0          1
P005             CIRCULAR     3.00       0          0          0          1
P009             CIRCULAR     2.25       0          0          0          1
P011             CIRCULAR     2.50       0          0          0          1

[LOSSES]
;;Link           Inlet      Outlet     Average    Flap Gate
;;-------------- ---------- ---------- ---------- ----------
LA1              0          0          0          NO
LA2              0          0          0          NO
LA3              0          0          0          NO
LA4              0          0          0          NO
LA5              0          0          0          NO
LA6              0          0          0          NO
LB1              0          0          0          NO
LB2              0          0          0          NO
LB3              0          0          0          NO
P001             0          0          0          NO
P005             0          0          0          NO
P009             0          0          0          NO
P011             0          0          0          NO

[COORDINATES]
;;Node           X-Coord            Y-Coord
;;-------------- ------------------ ------------------
mh               297.64             -2.36             
mh_2             317.64             -2.36             
mh_3             337.64             -2.36             
mh_4             357.64             -2.36             
mh_5             377.64             -2.36             
mh_6             397.64             -2.36             
outlet           417.64             -2.36             
mh_7             377.64             57.64             
mh_8             377.64             37.64             
mh_9             377.64             17.64             
CA-1             417.64             -22.36            
CA-7             417.64             -42.36            
CA-8             424.48             -61.15            
CA-11            410.80             -61.15            

[MAP]
DIMENSIONS 297.64 -61.15 424.48 57.64
Units      None

[REPORT]
SUBCATCHMENTS ALL
NODES ALL
LINKS ALL
