;; SWMM5 .inp converted from XPSWMM .xp file
;; Generated by XPSWMM Card Reader
;; Source format: XP_CARD | Original title: Rating Curve Example at Downstream Boundary
;; Links parsed from source: 3 | Routable in this .inp: 4

[TITLE]
;;Project Title/Notes
Rating Curve Example at Downstream Boundary

[OPTIONS]
FLOW_UNITS           CMS
INFILTRATION         HORTON
FLOW_ROUTING         DYNWAVE
LINK_OFFSETS         DEPTH
MIN_SLOPE            0.0
ALLOW_PONDING        NO
SKIP_STEADY_STATE    NO
ROUTING_STEP         00:00:05
VARIABLE_STEP        0.75
INERTIAL_DAMPING     PARTIAL
NORMAL_FLOW_LIMITED  BOTH
MAX_TRIALS           50
HEAD_TOLERANCE       .001
START_DATE           01/01/2001
START_TIME           00:00:00
REPORT_START_DATE    01/01/2001
REPORT_START_TIME    00:00:00
END_DATE             01/02/2001
END_TIME             00:00:00
SWEEP_START          01/01
SWEEP_END            12/31
DRY_DAYS             0
REPORT_STEP          00:15:00
WET_STEP             00:05:00
DRY_STEP             01:00:00

[JUNCTIONS]
;;Name           Elev       MaxDepth   InitDepth  SurDepth   Aponded
;;-------------- ---------- ---------- ---------- ---------- ----------
1                104.00     0          0          0          0
INLET            104.00     0          0          0          0
INLETBOT         0          0          0          0          0

[OUTFALLS]
;;Name           Elev       Type       Stage      Gated
;;-------------- ---------- ---------- ---------- -----
OUT_SYNTH        103.00     FREE                  NO

[CONDUITS]
;;Name           From             To               Length     Roughness  InOffset   OutOffset  InitFlow   MaxFlow
;;-------------- ---------------- ---------------- ---------- ---------- ---------- ---------- ---------- ----------
Pipe3            INLETBOT         1                25.00      0.0110     99.50      98.00      0          0
REACT            INLET            INLETBOT         10.00      0.0110     99.75      99.50      0          0
ROAD             INLET            1                100.00     0.0140     102.00     102.00     0          0
C_OUT_SYNTH      1                OUT_SYNTH        50.00      0.0130     0          0          0          0

[XSECTIONS]
;;Link           Shape        Geom1      Geom2      Geom3      Geom4      Barrels
;;-------------- ------------ ---------- ---------- ---------- ---------- ----------
Pipe3            CIRCULAR     2.00       0          0          0          1
REACT            TRAPEZOIDAL  1.00       10.00      2          2          1
ROAD             TRAPEZOIDAL  2.00       1.00       1          1          1
C_OUT_SYNTH      CIRCULAR     3.00       0          0          0          1

[LOSSES]
;;Link           Inlet      Outlet     Average    Flap Gate
;;-------------- ---------- ---------- ---------- ----------
Pipe3            0          0          0          NO
REACT            0          0          0          NO
ROAD             0          0          0          NO
C_OUT_SYNTH      0          0          0          NO

[INFLOWS]
;;Node           Constituent  Time Series      Type     Mfactor  Sfactor  Baseline Pattern
;;-------------- ------------ ---------------- -------- -------- -------- -------- --------
;; SYNTHETIC TEST INFLOWS — the source .xp carried no constant inflows
;; and RUNF hydrology is not converted; 0.03 CMS is applied at each
;; headwater node so the network runs wet for QA. Replace with real
;; hydrology or inflow hydrographs before using results.
INLET            FLOW         ""               FLOW     1.0      1.0      0.03

[COORDINATES]
;;Node           X-Coord            Y-Coord
;;-------------- ------------------ ------------------
1                37.64              137.64            
INLET            -1.41              21.61             
INLETBOT         -0.77              70.60             

[MAP]
DIMENSIONS -1.41 21.61 37.64 137.64
Units      None

[REPORT]
SUBCATCHMENTS ALL
NODES ALL
LINKS ALL
