;; SWMM5 .inp converted from XPSWMM .xp file
;; Generated by XPSWMM Card Reader
;; Source format: XP_CARD | Original title: West Basins Baird MHP
;; Links parsed from source: 8 | Routable in this .inp: 8

[TITLE]
;;Project Title/Notes
West Basins Baird MHP

[OPTIONS]
FLOW_UNITS           CFS
INFILTRATION         HORTON
FLOW_ROUTING         DYNWAVE
LINK_OFFSETS         DEPTH
MIN_SLOPE            0.0
ALLOW_PONDING        NO
SKIP_STEADY_STATE    NO
ROUTING_STEP         00:01:00
VARIABLE_STEP        0.75
INERTIAL_DAMPING     PARTIAL
NORMAL_FLOW_LIMITED  BOTH
MAX_TRIALS           50
HEAD_TOLERANCE       0.0033
START_DATE           01/01/2001
START_TIME           00:00:00
REPORT_START_DATE    01/01/2001
REPORT_START_TIME    00:00:00
END_DATE             01/02/2001
END_TIME             00:00:00
SWEEP_START          01/01
SWEEP_END            12/31
DRY_DAYS             0
REPORT_STEP          00:15:00
WET_STEP             00:05:00
DRY_STEP             01:00:00

[JUNCTIONS]
;;Name           Elev       MaxDepth   InitDepth  SurDepth   Aponded
;;-------------- ---------- ---------- ---------- ---------- ----------
dwf              120.00     0          0          0          0
infl             120.00     0          0          0          0
Watershed        120.00     0          0          0          0
215              120.00     0          0          0          0
216              120.00     0          0          0          0
cb               120.00     0          0          0          0

[OUTFALLS]
;;Name           Elev       Type       Stage      Gated
;;-------------- ---------- ---------- ---------- -----
203              120.00     FREE                  NO

[STORAGE]
;;Name           Elev       MaxDepth   InitDepth  Shape      Curve/Params
;;-------------- ---------- ---------- ---------- ---------- ----------
212              120.00     10.00      0.60       FUNCTIONAL 1000.00 0          0
222              120.00     10.00      0.60       FUNCTIONAL 1000.00 0          0

[CONDUITS]
;;Name           From             To               Length     Roughness  InOffset   OutOffset  InitFlow   MaxFlow
;;-------------- ---------------- ---------------- ---------- ---------- ---------- ---------- ---------- ----------
204              dwf              infl             35.00      0.0140     100.00     99.00      0          0
210              infl             215              33.00      0.0140     100.00     99.00      0          0
213              Watershed        216              33.00      0.0140     100.00     99.00      0          0
217              215              203              33.00      0.0140     99.00      98.00      0          0
218              216              212              33.00      0.0140     99.00      98.00      0          0
219              216              215              33.00      0.0140     99.50      100.00     0          0
232              cb               212              20.00      0.0140     98.40      98.00      0          0

[PUMPS]
;;Name           From             To               PumpCurve  Status   Startup    Shutoff
;;-------------- ---------------- ---------------- ---------- -------- ---------- ----------
pumps            212              222              PC_pumps   ON       1.00       0         

[CURVES]
;;Name           Type       X-Value    Y-Value
;;-------------- ---------- ---------- ----------
;; Synthesized generic pump curves — replace with actual pump data
PC_pumps         Pump1      0          5
PC_pumps                    10         10

[XSECTIONS]
;;Link           Shape        Geom1      Geom2      Geom3      Geom4      Barrels
;;-------------- ------------ ---------- ---------- ---------- ---------- ----------
204              CIRCULAR     2.00       0          0          0          1
210              CIRCULAR     2.00       0          0          0          1
213              CIRCULAR     2.00       0          0          0          1
217              CIRCULAR     2.00       0          0          0          1
218              CIRCULAR     2.00       0          0          0          1
219              CIRCULAR     1.00       0          0          0          1
232              CIRCULAR     2.00       0          0          0          1

[LOSSES]
;;Link           Inlet      Outlet     Average    Flap Gate
;;-------------- ---------- ---------- ---------- ----------
204              0          0          0          NO
210              0          0          0          NO
213              0          0          0          NO
217              0          0          0          NO
218              0          0          0          NO
219              0          0          0          NO
232              0          0          0          NO

[INFLOWS]
;;Node           Constituent  Time Series      Type     Mfactor  Sfactor  Baseline Pattern
;;-------------- ------------ ---------------- -------- -------- -------- -------- --------
;; SYNTHETIC TEST INFLOWS — the source .xp carried no constant inflows
;; and RUNF hydrology is not converted; 1.00 CFS is applied at each
;; headwater node so the network runs wet for QA. Replace with real
;; hydrology or inflow hydrographs before using results.
dwf              FLOW         ""               FLOW     1.0      1.0      1.00
Watershed        FLOW         ""               FLOW     1.0      1.0      1.00
cb               FLOW         ""               FLOW     1.0      1.0      1.00

[COORDINATES]
;;Node           X-Coord            Y-Coord
;;-------------- ------------------ ------------------
dwf              7.64               47.64             
203              22.64              47.64             
infl             12.64              47.64             
Watershed        12.64              57.57             
212              22.64              57.64             
215              17.64              47.64             
216              17.64              57.64             
222              22.57              63.13             
cb               22.64              52.64             

[MAP]
DIMENSIONS 7.64 47.64 22.64 63.13
Units      None

[REPORT]
SUBCATCHMENTS ALL
NODES ALL
LINKS ALL
