;; SWMM5 .inp converted from XPSWMM .xp file
;; Generated by XPSWMM Card Reader
;; Source format: XP_CARD | Original title: Jacks Run Input data
;; Links parsed from source: 32 | Routable in this .inp: 32

[TITLE]
;;Project Title/Notes
Jacks Run Input data

[OPTIONS]
FLOW_UNITS           CFS
INFILTRATION         HORTON
FLOW_ROUTING         DYNWAVE
LINK_OFFSETS         DEPTH
MIN_SLOPE            0.0
ALLOW_PONDING        NO
SKIP_STEADY_STATE    NO
ROUTING_STEP         00:00:02
VARIABLE_STEP        0.75
INERTIAL_DAMPING     NONE
NORMAL_FLOW_LIMITED  BOTH
MAX_TRIALS           30
START_DATE           01/01/2001
START_TIME           00:00:00
REPORT_START_DATE    01/01/2001
REPORT_START_TIME    00:00:00
END_DATE             01/02/2001
END_TIME             00:00:00
SWEEP_START          01/01
SWEEP_END            12/31
DRY_DAYS             0
REPORT_STEP          00:15:00
WET_STEP             00:05:00
DRY_STEP             01:00:00

[JUNCTIONS]
;;Name           Elev       MaxDepth   InitDepth  SurDepth   Aponded
;;-------------- ---------- ---------- ---------- ---------- ----------
MH-1             725.00     0          0          0          0
O-25             725.00     0          0          0          0
MH-2             723.00     0          0          0          0
MH-3             727.00     0          0          0          0
MH-4             725.00     0          0          0          0
MH-5             722.00     0          0          0          0
MH-6             729.00     0          0          0          0
MH-7             730.50     0          0          0          0
MH-8             731.00     0          0          0          0
A-10             732.02     0          0          0          0
A-9              740.83     0          0          0          0
MH-D1            744.00     0          0          0          0
MH-D2            746.65     0          0          0          0
A-8              742.88     0          0          0          0
A-7              748.77     0          0          0          0
A-6              756.88     0          0          0          0
A-5              761.06     0          0          0          0
A-4              763.67     0          0          0          0
A-3              766.92     0          0          0          0
MH-L1            767.00     0          0          0          0
MH-L2            770.00     0          0          0          0
A-2              770.75     0          0          0          0
A-1              775.49     0          0          0          0
MHBR-6           778.00     0          0          0          0
MHBR-5           782.50     0          0          0          0
MHBR-4           780.00     0          0          0          0
MHBR-4A          788.25     0          0          0          0
MHBR-3           784.50     0          0          0          0
MHBR-2           790.25     0          0          0          0
MHBR-1           792.00     0          0          0          0
MHB-4            781.73     0          0          0          0
MHR-4            788.01     0          0          0          0

[OUTFALLS]
;;Name           Elev       Type       Stage      Gated
;;-------------- ---------- ---------- ---------- -----
O-25A            725.00     FREE                  NO

[CONDUITS]
;;Name           From             To               Length     Roughness  InOffset   OutOffset  InitFlow   MaxFlow
;;-------------- ---------------- ---------------- ---------- ---------- ---------- ---------- ---------- ----------
201              MH-1             O-25             11.00      0.0120     704.93     704.77     0          0
204              MH-2             MH-1             23.00      0.0120     705.26     704.93     0          0
206              MH-3             MH-2             23.00      0.0120     705.60     705.26     0          0
208              MH-4             MH-3             146.00     0.0120     707.42     705.60     0          0
210              MH-5             MH-4             203.00     0.0120     710.67     707.42     0          0
212              MH-6             MH-5             315.00     0.0120     717.38     710.67     0          0
214              MH-7             MH-6             76.00      0.0120     719.00     717.38     0          0
216              MH-8             MH-7             35.00      0.0120     722.50     719.00     0          0
218              A-10             MH-8             192.00     0.0120     726.17     723.00     0          0
220              A-9              A-10             224.00     0.0120     731.82     726.17     0          0
222              MH-D1            A-9              53.00      0.0120     732.50     731.82     0          0
224              MH-D2            MH-D1            68.00      0.0140     735.66     732.50     0          0
226              A-8              MH-D1            241.00     0.0120     735.72     732.50     0          0
228              A-7              A-8              205.00     0.0120     739.72     735.72     0          0
230              A-6              A-7              273.00     0.0120     749.88     739.72     0          0
232              A-5              A-6              155.00     0.0120     753.31     749.88     0          0
234              A-4              A-5              112.00     0.0120     756.53     753.31     0          0
236              A-3              A-4              74.00      0.0120     759.72     756.53     0          0
238              MH-L1            A-3              23.00      0.0120     760.64     759.72     0          0
240              MH-L2            MH-L1            24.00      0.0130     761.16     760.64     0          0
242              A-2              MH-L1            94.00      0.0120     764.41     760.64     0          0
244              A-1              A-2              150.00     0.0120     765.54     764.41     0          0
246              MHBR-6           A-1              120.00     0.0120     767.21     765.54     0          0
248              MHBR-5           MHBR-6           150.00     0.0100     768.80     767.21     0          0
250              MHBR-4           MHBR-5           132.00     0.0100     770.20     768.80     0          0
252              MHBR-4A          MHBR-4           64.00      0.0100     772.48     770.20     0          0
254              MHBR-3           MHBR-4           58.00      0.0100     770.81     770.20     0          0
256              MHBR-2           MHBR-3           103.00     0.0130     771.90     770.81     0          0
258              MHBR-1           MHBR-2           103.00     0.0130     773.00     771.90     0          0
260              MHB-4            MHBR-1           100.00     0.0140     776.20     774.00     0          0
262              MHR-4            MHBR-1           191.00     0.0140     780.40     774.80     0          0

[ORIFICES]
;;Name           From             To               Type       Offset     Qcoeff     Gated    CloseTime
;;-------------- ---------------- ---------------- ---------- ---------- ---------- -------- ----------
202              O-25             O-25A            SIDE       0          0.650      NO       0

[XSECTIONS]
;;Link           Shape        Geom1      Geom2      Geom3      Geom4      Barrels
;;-------------- ------------ ---------- ---------- ---------- ---------- ----------
201              CIRCULAR     2.00       0          0          0          1
204              CIRCULAR     2.00       0          0          0          1
206              CIRCULAR     2.00       0          0          0          1
208              CIRCULAR     2.00       0          0          0          1
210              CIRCULAR     2.00       0          0          0          1
212              CIRCULAR     2.00       0          0          0          1
214              CIRCULAR     2.00       0          0          0          1
216              CIRCULAR     2.00       0          0          0          1
218              CIRCULAR     2.00       0          0          0          1
220              CIRCULAR     2.00       0          0          0          1
222              CIRCULAR     2.00       0          0          0          1
224              CIRCULAR     0.83       0          0          0          1
226              CIRCULAR     2.00       0          0          0          1
228              CIRCULAR     2.00       0          0          0          1
230              CIRCULAR     2.00       0          0          0          1
232              CIRCULAR     2.00       0          0          0          1
234              CIRCULAR     2.00       0          0          0          1
236              CIRCULAR     2.00       0          0          0          1
238              CIRCULAR     2.00       0          0          0          1
240              CIRCULAR     1.33       0          0          0          1
242              CIRCULAR     2.00       0          0          0          1
244              CIRCULAR     2.00       0          0          0          1
246              CIRCULAR     2.00       0          0          0          1
248              CIRCULAR     2.00       0          0          0          1
250              CIRCULAR     2.00       0          0          0          1
252              CIRCULAR     0.83       0          0          0          1
254              CIRCULAR     2.00       0          0          0          1
256              CIRCULAR     2.00       0          0          0          1
258              CIRCULAR     2.00       0          0          0          1
260              CIRCULAR     1.50       0          0          0          1
262              CIRCULAR     1.50       0          0          0          1
202              RECT_CLOSED  1.33       1.33       0          0

[LOSSES]
;;Link           Inlet      Outlet     Average    Flap Gate
;;-------------- ---------- ---------- ---------- ----------
201              0          0          0          NO
204              0          0          0          NO
206              0          0          0          NO
208              0          0          0          NO
210              0          0          0          NO
212              0          0          0          NO
214              0          0          0          NO
216              0          0          0          NO
218              0          0          0          NO
220              0          0          0          NO
222              0          0          0          NO
224              0          0          0          NO
226              0          0          0          NO
228              0          0          0          NO
230              0          0          0          NO
232              0          0          0          NO
234              0          0          0          NO
236              0          0          0          NO
238              0          0          0          NO
240              0          0          0          NO
242              0          0          0          NO
244              0          0          0          NO
246              0          0          0          NO
248              0          0          0          NO
250              0          0          0          NO
252              0          0          0          NO
254              0          0          0          NO
256              0          0          0          NO
258              0          0          0          NO
260              0          0          0          NO
262              0          0          0          NO

[INFLOWS]
;;Node           Constituent  Time Series      Type     Mfactor  Sfactor  Baseline Pattern
;;-------------- ------------ ---------------- -------- -------- -------- -------- --------
;; SYNTHETIC TEST INFLOWS — the source .xp carried no constant inflows
;; and RUNF hydrology is not converted; 1.00 CFS is applied at each
;; headwater node so the network runs wet for QA. Replace with real
;; hydrology or inflow hydrographs before using results.
MH-D2            FLOW         ""               FLOW     1.0      1.0      1.00
MH-L2            FLOW         ""               FLOW     1.0      1.0      1.00
MHBR-4A          FLOW         ""               FLOW     1.0      1.0      1.00
MHB-4            FLOW         ""               FLOW     1.0      1.0      1.00
MHR-4            FLOW         ""               FLOW     1.0      1.0      1.00

[COORDINATES]
;;Node           X-Coord            Y-Coord
;;-------------- ------------------ ------------------
MH-1             -427049.62         1328515.67        
O-25             -427059.71         1328523.89        
MH-2             -427028.75         1328524.58        
MH-3             -427026.00         1328547.07        
MH-4             -427125.03         1328654.03        
MH-5             -427263.60         1328803.05        
MH-6             -427577.51         1328826.06        
MH-7             -427624.15         1328885.75        
MH-8             -427635.26         1328918.72        
A-10             -427756.06         1329069.45        
A-9              -427895.16         1329247.60        
MH-D1            -427895.26         1329248.10        
MH-D2            -427895.36         1329248.20        
A-8              -427890.18         1329542.61        
A-7              -427960.96         1329733.96        
A-6              -428235.13         1329730.71        
A-5              -428386.33         1329749.04        
A-4              -428471.69         1329825.63        
A-3              -428516.02         1329885.34        
MH-L1            -428516.02         1329885.34        
MH-L2            -428515.82         1329884.64        
A-2              -428583.25         1329981.29        
A-1              -428694.86         1330080.96        
MHBR-6           -428844.51         1330148.01        
MHBR-5           -428992.52         1330121.40        
MHBR-4           -429115.90         1330073.40        
MHBR-4A          -429162.13         1330028.61        
MHBR-3           -429173.58         1330073.40        
MHBR-2           -429270.72         1330109.03        
MHBR-1           -429365.98         1330148.43        
MHB-4            -429456.47         1330189.01        
MHR-4            -429535.19         1330237.21        
O-25A            -427059.81         1328523.69        

[MAP]
DIMENSIONS -429535.19 1328515.67 -427026.00 1330237.21
Units      None

[REPORT]
SUBCATCHMENTS ALL
NODES ALL
LINKS ALL
