;; SWMM5 .inp converted from XPSWMM .xp file
;; Generated by XPSWMM Card Reader
;; Source format: XP_CARD | Original title: (none)
;; NOTE: 5 link(s) dropped (missing endpoint): 201_2, 206_2, 210_2, 216, 211

[TITLE]
;;Project Title/Notes
Converted from XPSWMM .xp file

[OPTIONS]
FLOW_UNITS           CMS
INFILTRATION         HORTON
FLOW_ROUTING         DYNWAVE
LINK_OFFSETS         DEPTH
MIN_SLOPE            0.0
ALLOW_PONDING        NO
SKIP_STEADY_STATE    NO
ROUTING_STEP         00:01:00
VARIABLE_STEP        0.75
INERTIAL_DAMPING     PARTIAL
NORMAL_FLOW_LIMITED  BOTH
START_DATE           01/01/2001
START_TIME           00:00:00
REPORT_START_DATE    01/01/2001
REPORT_START_TIME    00:00:00
END_DATE             01/02/2001
END_TIME             00:00:00
SWEEP_START          01/01
SWEEP_END            12/31
DRY_DAYS             0
REPORT_STEP          00:15:00
WET_STEP             00:05:00
DRY_STEP             01:00:00

[JUNCTIONS]
;;Name           Elev       MaxDepth   InitDepth  SurDepth   Aponded
;;-------------- ---------- ---------- ---------- ---------- ----------
Area             0          0          0          0          0
Outlet           0          0          0          0          0
Area_2           0          0          0          0          0
Outlet_2         0          0          0          0          0
Area_3           5.00       0          0          0          0
Outlet_3         5.00       0          0          0          0
Sweeping         0          0          0          0          0
NoSweeping       0          0          0          0          0
Erosion          0          0          0          0          0

[OUTFALLS]
;;Name           Elev       Type       Stage      Gated
;;-------------- ---------- ---------- ---------- -----
NoErosion        0          FREE                  NO

[CONDUITS]
;;Name           From             To               Length     Roughness  InOffset   OutOffset  InitFlow   MaxFlow
;;-------------- ---------------- ---------------- ---------- ---------- ---------- ---------- ---------- ----------
201              Area             Outlet           100.00     0.0140     0          0          0          0
206              Area             Outlet           100.00     0.0140     0          0          0          0
210              Area             Outlet           100.00     0.0140     0.75       0          0          0
221              Erosion          NoErosion        100.00     0.0130     0          0          0          0

[XSECTIONS]
;;Link           Shape        Geom1      Geom2      Geom3      Geom4      Barrels
;;-------------- ------------ ---------- ---------- ---------- ---------- ----------
201              RECT_CLOSED  4.00       6.00       0          0          1
206              RECT_CLOSED  4.00       6.00       0          0          1
210              RECT_CLOSED  4.00       6.00       0          0          1
221              CIRCULAR     1.00       0          0          0          1

[LOSSES]
;;Link           Inlet      Outlet     Average    Flap Gate
;;-------------- ---------- ---------- ---------- ----------
201              0          0          0          NO
206              0          0          0          NO
210              0          0          0          NO
221              0          0          0          NO

[COORDINATES]
;;Node           X-Coord            Y-Coord
;;-------------- ------------------ ------------------
Area             -23.25             40.90             
Outlet           -23.73             237.17            
Area_2           -4.85              40.70             
Outlet_2         -5.34              236.97            
Area_3           13.35              40.50             
Outlet_3         13.26              237.60            
Sweeping         57.62              66.41             
NoSweeping       58.08              99.47             
Erosion          57.39              157.33            
NoErosion        57.85              190.39            

[MAP]
DIMENSIONS -23.73 40.50 58.08 237.60
Units      None

[REPORT]
SUBCATCHMENTS ALL
NODES ALL
LINKS ALL
