;; SWMM5 .inp converted from XPSWMM .xp file
;; Generated by XPSWMM Card Reader
;; Source format: XP_CARD | Original title: (none)
;; Links parsed from source: 7 | Routable in this .inp: 7

[TITLE]
;;Project Title/Notes
Converted from XPSWMM .xp file

[OPTIONS]
FLOW_UNITS           CMS
INFILTRATION         HORTON
FLOW_ROUTING         DYNWAVE
LINK_OFFSETS         DEPTH
MIN_SLOPE            0.0
ALLOW_PONDING        NO
SKIP_STEADY_STATE    NO
ROUTING_STEP         00:00:01
VARIABLE_STEP        0.75
INERTIAL_DAMPING     PARTIAL
NORMAL_FLOW_LIMITED  BOTH
MAX_TRIALS           50
HEAD_TOLERANCE       0.0001
START_DATE           01/01/2001
START_TIME           00:00:00
REPORT_START_DATE    01/01/2001
REPORT_START_TIME    00:00:00
END_DATE             01/02/2001
END_TIME             00:00:00
SWEEP_START          01/01
SWEEP_END            12/31
DRY_DAYS             0
REPORT_STEP          00:15:00
WET_STEP             00:05:00
DRY_STEP             01:00:00

[JUNCTIONS]
;;Name           Elev       MaxDepth   InitDepth  SurDepth   Aponded
;;-------------- ---------- ---------- ---------- ---------- ----------
Outlet2          3.00       0          0          0          0
Outlet3          3.00       0          0          0          0

[OUTFALLS]
;;Name           Elev       Type       Stage      Gated
;;-------------- ---------- ---------- ---------- -----
Outlet1          3.00       FREE                  NO

[STORAGE]
;;Name           Elev       MaxDepth   InitDepth  Shape      Curve/Params
;;-------------- ---------- ---------- ---------- ---------- ----------
Basin1           3.00       10.00      0          FUNCTIONAL 1000.00 0          0
Lake1            3.00       10.00      0.10       FUNCTIONAL 1000.00 0          0
Basin2           3.00       10.00      0          FUNCTIONAL 1000.00 0          0
Lake2            3.00       10.00      0.10       FUNCTIONAL 1000.00 0          0
Basin3           3.00       10.00      0.00       FUNCTIONAL 1000.00 0          0
Lake3            3.00       10.00      0.10       FUNCTIONAL 1000.00 0          0
Outlet4          3.00       10.00      0          FUNCTIONAL 1000.00 0          0
Lake4            3.00       10.00      0.10       FUNCTIONAL 1000.00 0          0

[CONDUITS]
;;Name           From             To               Length     Roughness  InOffset   OutOffset  InitFlow   MaxFlow
;;-------------- ---------------- ---------------- ---------- ---------- ---------- ---------- ---------- ----------
Drain1           Lake1            Basin1           100.00     0.0250     0.32       0.32       0          0
Drain2           Basin1           Outlet1          100.00     0.0250     1.00       1.00       0          0
Drain4           Basin2           Outlet2          100.00     0.0250     1.00       1.00       0          0
Drain3           Lake2            Basin2           100.00     0.0250     0.32       0.32       0          0
Drain6           Basin3           Outlet3          100.00     0.0250     1.00       1.00       0          0
Drain5           Lake3            Basin3           100.00     0.0250     0.32       0.32       0          0
Drain7           Lake4            Outlet4          100.00     0.0250     0.32       0.32       0          0

[XSECTIONS]
;;Link           Shape        Geom1      Geom2      Geom3      Geom4      Barrels
;;-------------- ------------ ---------- ---------- ---------- ---------- ----------
Drain1           TRAPEZOIDAL  2.00       3.00       1          1          1
Drain2           TRAPEZOIDAL  1.00       3.00       1          1          1
Drain4           TRAPEZOIDAL  1.00       3.00       1          1          1
Drain3           TRAPEZOIDAL  2.00       3.00       1          1          1
Drain6           TRAPEZOIDAL  1.00       3.00       1          1          1
Drain5           TRAPEZOIDAL  2.00       3.00       1          1          1
Drain7           TRAPEZOIDAL  2.00       3.00       1          1          1

[LOSSES]
;;Link           Inlet      Outlet     Average    Flap Gate
;;-------------- ---------- ---------- ---------- ----------
Drain1           0          0          0          NO
Drain2           0          0          0          NO
Drain4           0          0          0          NO
Drain3           0          0          0          NO
Drain6           0          0          0          NO
Drain5           0          0          0          NO
Drain7           0          0          0          NO

[INFLOWS]
;;Node           Constituent  Time Series      Type     Mfactor  Sfactor  Baseline Pattern
;;-------------- ------------ ---------------- -------- -------- -------- -------- --------
;; SYNTHETIC TEST INFLOWS — the source .xp carried no constant inflows
;; and RUNF hydrology is not converted; 0.03 CMS is applied at each
;; headwater node so the network runs wet for QA. Replace with real
;; hydrology or inflow hydrographs before using results.
Lake1            FLOW         ""               FLOW     1.0      1.0      0.03
Lake2            FLOW         ""               FLOW     1.0      1.0      0.03
Lake3            FLOW         ""               FLOW     1.0      1.0      0.03
Lake4            FLOW         ""               FLOW     1.0      1.0      0.03

[COORDINATES]
;;Node           X-Coord            Y-Coord
;;-------------- ------------------ ------------------
Basin1           127.51             121.51            
Lake1            93.97              200.54            
Outlet1          127.55             74.57             
Outlet2          163.63             79.26             
Basin2           163.59             126.21            
Lake2            130.05             205.23            
Outlet3          195.64             78.15             
Basin3           195.60             125.09            
Lake3            162.06             204.12            
Outlet4          233.11             126.88            
Lake4            199.57             205.91            

[MAP]
DIMENSIONS 93.97 74.57 233.11 205.91
Units      None

[REPORT]
SUBCATCHMENTS ALL
NODES ALL
LINKS ALL
