;; SWMM5 .inp converted from XPSWMM .xp file
;; Generated by XPSWMM Card Reader
;; Source format: XP_CARD | Original title: USA - UPPER ROCK CREEK
;; Links parsed from source: 17 | Routable in this .inp: 18

[TITLE]
;;Project Title/Notes
USA - UPPER ROCK CREEK

[OPTIONS]
FLOW_UNITS           CFS
INFILTRATION         HORTON
FLOW_ROUTING         DYNWAVE
LINK_OFFSETS         DEPTH
MIN_SLOPE            0.0
ALLOW_PONDING        NO
SKIP_STEADY_STATE    NO
ROUTING_STEP         00:00:15
VARIABLE_STEP        0.75
INERTIAL_DAMPING     PARTIAL
NORMAL_FLOW_LIMITED  BOTH
START_DATE           01/01/2001
START_TIME           00:00:00
REPORT_START_DATE    01/01/2001
REPORT_START_TIME    00:00:00
END_DATE             01/02/2001
END_TIME             00:00:00
SWEEP_START          01/01
SWEEP_END            12/31
DRY_DAYS             0
REPORT_STEP          00:15:00
WET_STEP             00:05:00
DRY_STEP             01:00:00

[JUNCTIONS]
;;Name           Elev       MaxDepth   InitDepth  SurDepth   Aponded
;;-------------- ---------- ---------- ---------- ---------- ----------
9070             14.30      0          0          0          0
9060             13.30      0          0          0          0
9000             13.30      0          0          0          0
9050             18.50      0          0          0          0
9040             15.50      0          0          0          0
9030             13.50      0          0          0          0
9020             13.70      0          0          0          0
9012             28.00      0          0          0          0
9010             20.00      0          0          0          0
9014             38.00      0          0          0          0
9022             20.90      0          0          0          0
9024             20.70      0          0          0          0
9032             18.50      0          0          0          0
9042             22.50      0          0          0          0
9052             21.50      0          0          0          0
9054             22.50      0          0          0          0
9062             13.90      0          0          0          0
9072             17.30      0          0          0          0

[OUTFALLS]
;;Name           Elev       Type       Stage      Gated
;;-------------- ---------- ---------- ---------- -----
OUT_SYNTH        12.30      FREE                  NO

[CONDUITS]
;;Name           From             To               Length     Roughness  InOffset   OutOffset  InitFlow   MaxFlow
;;-------------- ---------------- ---------------- ---------- ---------- ---------- ---------- ---------- ----------
8072             9072             9070             6000.00    0.0600     14.30      11.30      0          0
8070             9070             9060             10000.00   0.0600     11.30      10.30      0          0
8062             9062             9060             4000.00    0.0600     10.90      10.30      0          0
8060             9060             9000             6000.00    0.0600     10.30      10.00      0          0
8054             9054             9050             12000.00   0.0600     19.50      13.50      0          0
8052             9052             9050             10000.00   0.0600     18.50      13.50      0          0
8050             9050             9040             5000.00    0.0600     13.50      12.50      0          0
8042             9042             9040             10000.00   0.0600     19.50      12.50      0          0
8040             9040             9030             8000.00    0.0600     12.50      10.50      0          0
8032             9032             9030             5000.00    0.0600     15.50      10.50      0          0
8030             9030             9000             10000.00   0.0600     10.50      10.00      0          0
8024             9024             9020             10000.00   0.0600     17.70      10.70      0          0
8022             9022             9020             6000.00    0.0600     17.90      10.70      0          0
8020             9020             9000             7000.00    0.0600     10.70      10.00      0          0
8014             9014             9012             10000.00   0.0600     35.00      25.00      0          0
8012             9012             9010             10000.00   0.0600     25.00      17.00      0          0
8010             9010             9000             10000.00   0.0600     17.00      10.00      0          0
C_OUT_SYNTH      9000             OUT_SYNTH        50.00      0.0130     0          0          0          0

[XSECTIONS]
;;Link           Shape        Geom1      Geom2      Geom3      Geom4      Barrels
;;-------------- ------------ ---------- ---------- ---------- ---------- ----------
8072             TRAPEZOIDAL  30.00      1.00       1          1          1
8070             TRAPEZOIDAL  30.00      1.00       1          1          1
8062             TRAPEZOIDAL  30.00      1.00       1          1          1
8060             TRAPEZOIDAL  30.00      1.00       1          1          1
8054             TRAPEZOIDAL  30.00      1.00       1          1          1
8052             TRAPEZOIDAL  30.00      1.00       1          1          1
8050             TRAPEZOIDAL  30.00      1.00       1          1          1
8042             TRAPEZOIDAL  30.00      1.00       1          1          1
8040             TRAPEZOIDAL  30.00      1.00       1          1          1
8032             TRAPEZOIDAL  30.00      1.00       1          1          1
8030             TRAPEZOIDAL  30.00      1.00       1          1          1
8024             TRAPEZOIDAL  30.00      1.00       1          1          1
8022             TRAPEZOIDAL  30.00      1.00       1          1          1
8020             TRAPEZOIDAL  30.00      1.00       1          1          1
8014             TRAPEZOIDAL  30.00      1.00       1          1          1
8012             TRAPEZOIDAL  30.00      1.00       1          1          1
8010             TRAPEZOIDAL  30.00      1.00       1          1          1
C_OUT_SYNTH      CIRCULAR     3.00       0          0          0          1

[LOSSES]
;;Link           Inlet      Outlet     Average    Flap Gate
;;-------------- ---------- ---------- ---------- ----------
8072             0          0          0          NO
8070             0          0          0          NO
8062             0          0          0          NO
8060             0          0          0          NO
8054             0          0          0          NO
8052             0          0          0          NO
8050             0          0          0          NO
8042             0          0          0          NO
8040             0          0          0          NO
8032             0          0          0          NO
8030             0          0          0          NO
8024             0          0          0          NO
8022             0          0          0          NO
8020             0          0          0          NO
8014             0          0          0          NO
8012             0          0          0          NO
8010             0          0          0          NO
C_OUT_SYNTH      0          0          0          NO

[INFLOWS]
;;Node           Constituent  Time Series      Type     Mfactor  Sfactor  Baseline Pattern
;;-------------- ------------ ---------------- -------- -------- -------- -------- --------
;; SYNTHETIC TEST INFLOWS — the source .xp carried no constant inflows
;; and RUNF hydrology is not converted; 1.00 CFS is applied at each
;; headwater node so the network runs wet for QA. Replace with real
;; hydrology or inflow hydrographs before using results.
9014             FLOW         ""               FLOW     1.0      1.0      1.00
9022             FLOW         ""               FLOW     1.0      1.0      1.00
9024             FLOW         ""               FLOW     1.0      1.0      1.00
9032             FLOW         ""               FLOW     1.0      1.0      1.00
9042             FLOW         ""               FLOW     1.0      1.0      1.00
9052             FLOW         ""               FLOW     1.0      1.0      1.00
9054             FLOW         ""               FLOW     1.0      1.0      1.00
9062             FLOW         ""               FLOW     1.0      1.0      1.00
9072             FLOW         ""               FLOW     1.0      1.0      1.00

[COORDINATES]
;;Node           X-Coord            Y-Coord
;;-------------- ------------------ ------------------
9070             352.60             193.08            
9060             437.31             180.26            
9000             488.75             159.68            
9050             281.71             139.28            
9040             329.82             157.57            
9030             409.58             145.92            
9020             456.92             118.52            
9012             378.09             289.28            
9010             434.48             224.03            
9014             340.19             329.36            
9022             405.85             88.26             
9024             427.29             39.32             
9032             364.39             115.30            
9042             239.21             179.59            
9052             208.91             105.00            
9054             179.99             151.35            
9062             397.53             203.63            
9072             302.26             199.22            

[MAP]
DIMENSIONS 179.99 39.32 488.75 329.36
Units      None

[REPORT]
SUBCATCHMENTS ALL
NODES ALL
LINKS ALL
