;; SWMM5 .inp converted from XPSWMM .xp file
;; Generated by XPSWMM Card Reader
;; Source format: XP_CARD | Original title: (none)
;; Links parsed from source: 9 | Routable in this .inp: 9

[TITLE]
;;Project Title/Notes
Converted from XPSWMM .xp file

[OPTIONS]
FLOW_UNITS           CMS
INFILTRATION         HORTON
FLOW_ROUTING         DYNWAVE
LINK_OFFSETS         DEPTH
MIN_SLOPE            0.0
ALLOW_PONDING        NO
SKIP_STEADY_STATE    NO
ROUTING_STEP         00:00:30
VARIABLE_STEP        0.75
INERTIAL_DAMPING     PARTIAL
NORMAL_FLOW_LIMITED  BOTH
START_DATE           01/01/2001
START_TIME           00:00:00
REPORT_START_DATE    01/01/2001
REPORT_START_TIME    00:00:00
END_DATE             01/02/2001
END_TIME             00:00:00
SWEEP_START          01/01
SWEEP_END            12/31
DRY_DAYS             0
REPORT_STEP          00:15:00
WET_STEP             00:05:00
DRY_STEP             01:00:00

[JUNCTIONS]
;;Name           Elev       MaxDepth   InitDepth  SurDepth   Aponded
;;-------------- ---------- ---------- ---------- ---------- ----------
202              50.00      0          0          0          0
203              50.00      0          0          0          0
205              50.00      0          0          0          0
207              50.00      0          0          0          0
209              50.00      0          0          0          0
211              50.00      0          0          0          0
213              50.00      0          0          0          0
215              50.00      0          0          0          0
217              50.00      0          0          0          0

[OUTFALLS]
;;Name           Elev       Type       Stage      Gated
;;-------------- ---------- ---------- ---------- -----
219              50.00      FREE                  NO

[CONDUITS]
;;Name           From             To               Length     Roughness  InOffset   OutOffset  InitFlow   MaxFlow
;;-------------- ---------------- ---------------- ---------- ---------- ---------- ---------- ---------- ----------
204              202              203              100.00     0.0140     40.00      40.00      0          0
206              203              205              100.00     0.0140     40.00      40.00      0          0
208              205              207              100.00     0.0140     40.00      40.00      0          0
210              207              209              100.00     0.0140     40.00      40.00      0          0
212              209              211              100.00     0.0140     40.00      40.00      0          0
214              211              213              100.00     0.0140     40.00      40.00      0          0
216              213              215              100.00     0.0140     40.00      40.00      0          0
218              215              217              100.00     0.0140     40.00      40.00      0          0
220              217              219              100.00     0.0140     40.00      40.00      0          0

[XSECTIONS]
;;Link           Shape        Geom1      Geom2      Geom3      Geom4      Barrels
;;-------------- ------------ ---------- ---------- ---------- ---------- ----------
204              RECT_CLOSED  2.00       2.00       0          0          1
206              RECT_CLOSED  2.00       2.00       0          0          1
208              RECT_CLOSED  2.00       2.00       0          0          1
210              RECT_CLOSED  2.00       2.00       0          0          1
212              RECT_CLOSED  2.00       2.00       0          0          1
214              RECT_CLOSED  2.00       2.00       0          0          1
216              RECT_CLOSED  2.00       2.00       0          0          1
218              RECT_CLOSED  2.00       2.00       0          0          1
220              RECT_CLOSED  2.00       2.00       0          0          1

[LOSSES]
;;Link           Inlet      Outlet     Average    Flap Gate
;;-------------- ---------- ---------- ---------- ----------
204              0          0          0          NO
206              0          0          0          NO
208              0          0          0          NO
210              0          0          0          NO
212              0          0          0          NO
214              0          0          0          NO
216              0          0          0          NO
218              0          0          0          NO
220              0          0          0          NO

[INFLOWS]
;;Node           Constituent  Time Series      Type     Mfactor  Sfactor  Baseline Pattern
;;-------------- ------------ ---------------- -------- -------- -------- -------- --------
;; SYNTHETIC TEST INFLOWS — the source .xp carried no constant inflows
;; and RUNF hydrology is not converted; 0.03 CMS is applied at each
;; headwater node so the network runs wet for QA. Replace with real
;; hydrology or inflow hydrographs before using results.
202              FLOW         ""               FLOW     1.0      1.0      0.03

[COORDINATES]
;;Node           X-Coord            Y-Coord
;;-------------- ------------------ ------------------
202              45.29              107.62            
203              48.38              107.62            
205              52.00              107.90            
207              55.49              107.90            
209              58.51              107.73            
211              55.62              105.82            
213              54.50              103.91            
215              54.37              101.84            
217              54.24              97.74             
219              54.17              95.45             

[MAP]
DIMENSIONS 45.29 95.45 58.51 107.90
Units      None

[REPORT]
SUBCATCHMENTS ALL
NODES ALL
LINKS ALL
