;; SWMM5 .inp converted from XPSWMM .xp file
;; Generated by XPSWMM Card Reader
;; Source format: XP_CARD | Original title: CITY OF SACRAMENTO -HAGGINWOOD DRAINAGE STUDY - DEWANTE & STOWELL ENGRS
;; Links parsed from source: 152 | Routable in this .inp: 152

[TITLE]
;;Project Title/Notes
CITY OF SACRAMENTO -HAGGINWOOD DRAINAGE STUDY - DEWANTE & STOWELL ENGRS

[OPTIONS]
FLOW_UNITS           CFS
INFILTRATION         HORTON
FLOW_ROUTING         DYNWAVE
LINK_OFFSETS         DEPTH
MIN_SLOPE            0.0
ALLOW_PONDING        NO
SKIP_STEADY_STATE    NO
ROUTING_STEP         00:00:05
VARIABLE_STEP        0.75
INERTIAL_DAMPING     NONE
NORMAL_FLOW_LIMITED  BOTH
MAX_TRIALS           50
START_DATE           01/01/2001
START_TIME           00:00:00
REPORT_START_DATE    01/01/2001
REPORT_START_TIME    00:00:00
END_DATE             01/02/2001
END_TIME             00:00:00
SWEEP_START          01/01
SWEEP_END            12/31
DRY_DAYS             0
REPORT_STEP          00:15:00
WET_STEP             00:05:00
DRY_STEP             01:00:00

[JUNCTIONS]
;;Name           Elev       MaxDepth   InitDepth  SurDepth   Aponded
;;-------------- ---------- ---------- ---------- ---------- ----------
5038             45.00      0          0          0          0
5035             50.00      0          0          0          0
5034             55.00      0          0          0          0
5030             55.00      0          0          0          0
5029             48.40      0          0          0          0
5031             50.00      0          0          0          0
5130             50.00      0          0          0          0
5131             50.00      0          0          0          0
5132             50.00      0          0          0          0
5135             50.00      0          0          0          0
5136             47.00      0          0          0          0
5137             45.10      0          0          0          0
5138             45.20      0          0          0          0
5139             45.10      0          0          0          0
5140             45.10      0          0          0          0
5141             48.30      0          0          0          0
5144             49.00      0          0          0          0
5147             48.00      0          0          0          0
5149             48.00      0          0          0          0
5007             70.60      0          0          0          0
5008             70.40      0          0          0          0
5009             69.50      0          0          0          0
5010             68.20      0          0          0          0
5011             66.70      0          0          0          0
5017             68.30      0          0          0          0
5018             62.10      0          0          0          0
5019             59.00      0          0          0          0
5021             55.30      0          0          0          0
5907             56.00      0          0          0          0
5023             55.20      0          0          0          0
5026             52.80      0          0          0          0
5027             52.90      0          0          0          0
5028             52.50      0          0          0          0
5067             63.20      0          0          0          0
5066             65.00      0          0          0          0
5065             64.40      0          0          0          0
5064             65.30      0          0          0          0
5063             66.40      0          0          0          0
5062             69.40      0          0          0          0
5061             71.30      0          0          0          0
5945             69.60      0          0          0          0
5060             69.00      0          0          0          0
5946             71.00      0          0          0          0
5902             71.50      0          0          0          0
5099             50.00      0          0          0          0
5910             49.60      0          0          0          0
5101             48.50      0          0          0          0
5944             50.00      0          0          0          0
5098             50.00      0          0          0          0
5094             50.00      0          0          0          0
5093             51.00      0          0          0          0
5092             51.00      0          0          0          0
5091             51.30      0          0          0          0
5090             51.30      0          0          0          0
5908             52.60      0          0          0          0
5024             52.60      0          0          0          0
5022             65.50      0          0          0          0
5025             52.60      0          0          0          0
5953             54.72      0          0          0          0
5951             56.00      0          0          0          0
5020             56.05      0          0          0          0
5952             56.00      0          0          0          0
5082             57.90      0          0          0          0
5120             49.20      0          0          0          0
5113             49.40      0          0          0          0
5112             51.20      0          0          0          0
5111             52.27      0          0          0          0
5926             54.00      0          0          0          0
5119             51.00      0          0          0          0
5118             53.20      0          0          0          0
163              0          0          0          0          0
DUMMY2           0          0          0          0          0
169              0          0          0          0          0
DUMMY4           0          0          0          0          0
DUMMY5           0          0          0          0          0
DUMMY6           0          0          0          0          0
106              0          0          0          0          0
DUMMY8           0          0          0          0          0
113              0          0          0          0          0
DUMMY10          0          0          0          0          0
DUMMY11          0          0          0          0          0
DUMMY12          0          0          0          0          0
DUMMY13          0          0          0          0          0
DUMMY14          0          0          0          0          0
1013             0          0          0          0          0
DUMMY16          0          0          0          0          0
1012             0          0          0          0          0
DUMMY18          0          0          0          0          0
DUMMY19          0          0          0          0          0
1011             0          0          0          0          0
DUMMY21          0          0          0          0          0
DUMMY22          0          0          0          0          0
DUMMY23          0          0          0          0          0
104              0          0          0          0          0
DUMMY25          0          0          0          0          0
1052             0          0          0          0          0
DUMMY27          0          0          0          0          0
DUMMY28          0          0          0          0          0
1032             0          0          0          0          0
DUMMY30          0          0          0          0          0
DUMMY31          0          0          0          0          0
1022             0          0          0          0          0
DUMMY33          0          0          0          0          0
DUMMY34          0          0          0          0          0
DUMMY35          0          0          0          0          0
136              0          0          0          0          0
135              0          0          0          0          0
DUMMY38          0          0          0          0          0
134              0          0          0          0          0
DUMMY40          0          0          0          0          0
128              0          0          0          0          0
127              0          0          0          0          0
125              0          0          0          0          0
129              0          0          0          0          0
1241             0          0          0          0          0
123              0          0          0          0          0
DUMMY47          0          0          0          0          0
121              0          0          0          0          0
DUMMY49          0          0          0          0          0
1103             0          0          0          0          0
DUMMY51          0          0          0          0          0
DUMMY52          0          0          0          0          0
1102             0          0          0          0          0
DUMMY54          0          0          0          0          0
DUMMY55          0          0          0          0          0
DUMMY56          0          0          0          0          0
147              0          0          0          0          0
DUMMY58          0          0          0          0          0
160              0          0          0          0          0
1741             0          0          0          0          0
170              0          0          0          0          0
162              0          0          0          0          0
DUMMY63          0          0          0          0          0
1202             0          0          0          0          0
119              0          0          0          0          0
DUMMY66          0          0          0          0          0
DUMMY67          0          0          0          0          0
1051             0          0          0          0          0
1031             0          0          0          0          0
1033             0          0          0          0          0
1021             0          0          0          0          0
1762             0          0          0          0          0
124              0          0          0          0          0
1761             0          0          0          0          0
148              0          0          0          0          0
142              0          0          0          0          0
HW_201           27.45      0          0          0          0
21223            41.30      0          0          0          0
21232            41.17      0          0          0          0
21342            37.59      0          0          0          0

[OUTFALLS]
;;Name           Elev       Type       Stage      Gated
;;-------------- ---------- ---------- ---------- -----
5039             45.00      FREE                  NO

[STORAGE]
;;Name           Elev       MaxDepth   InitDepth  Shape      Curve/Params
;;-------------- ---------- ---------- ---------- ---------- ----------
5037             50.00      10.00      0          FUNCTIONAL 100.00 0          0
5146             48.00      10.00      0          FUNCTIONAL 1000.00 0          0
5148             48.00      10.00      0          FUNCTIONAL 1000.00 0          0

[CONDUITS]
;;Name           From             To               Length     Roughness  InOffset   OutOffset  InitFlow   MaxFlow
;;-------------- ---------------- ---------------- ---------- ---------- ---------- ---------- ---------- ----------
201              HW_201           5037             1185.00    0.0172     27.45      26.05      0          0
201_2            5037             5039             1185.00    0.0172     27.45      26.05      0          0
206              5035             5037             371.00     0.0360     28.72      28.35      0          0
208              5034             5035             1029.92    0.0180     29.75      28.72      0          0
210              5030             5034             589.00     0.0300     30.33      29.75      0          0
212              5029             5030             665.00     0.0302     31.30      30.33      0          0
210_2            5030             5031             322.00     0.0332     38.00      41.74      0          0
214              5031             5130             490.00     0.0197     41.74      41.50      0          0
216              5130             5131             380.00     0.0211     41.50      41.30      0          0
21221            21223            5132             250.00     0.0207     41.30      41.17      0          0
21231            21232            5135             188.00     0.0071     41.17      41.00      0          0
222              5135             5136             535.00     0.2400     42.50      40.00      0          0
224              5136             5137             190.00     0.1000     40.00      38.00      0          0
226              5137             5138             220.00     0.0108     38.00      37.90      0          0
228              5138             5139             220.00     0.0426     37.90      37.80      0          0
230              5139             5140             220.00     0.0102     37.80      37.75      0          0
232              5140             5141             180.00     0.0707     37.75      37.50      0          0
234              5141             5037             200.00     0.0178     37.50      37.45      0          0
201_3            5037             5144             100.00     0.0327     42.00      40.50      0          0
237              5144             5146             260.00     0.0500     40.50      37.59      0          0
21341            21342            5147             220.00     0.0193     37.59      37.48      0          0
241              5147             5148             875.00     0.0500     37.48      34.37      0          0
243              5148             5149             260.00     0.0121     34.37      34.11      0          0
247              5007             5008             210.00     0.0150     57.99      56.70      0          0
248              5008             5009             565.00     0.0150     56.70      53.60      0          0
250              5009             5010             470.00     0.0150     53.60      50.90      0          0
252              5010             5011             340.00     0.0150     50.90      50.00      0          0
254              5011             5017             700.00     0.0150     50.00      48.05      0          0
256              5017             5018             982.00     0.0150     45.53      43.50      0          0
258              5018             5019             885.00     0.0150     43.50      41.50      0          0
260              5019             5021             382.00     0.0150     41.50      40.78      0          0
262              5021             5907             80.00      0.0150     39.78      39.75      0          0
264              5907             5023             569.00     0.0150     39.75      39.13      0          0
266              5023             5026             1279.00    0.0150     39.13      36.41      0          0
268              5026             5027             708.00     0.0150     36.41      33.93      0          0
270              5027             5028             375.00     0.0150     33.93      32.63      0          0
272              5028             5029             430.00     0.0150     32.63      31.00      0          0
275              5067             5017             820.00     0.0150     46.17      45.53      0          0
277              5066             5067             660.00     0.0150     47.20      46.17      0          0
279              5065             5066             655.00     0.0150     48.13      47.20      0          0
281              5064             5065             310.00     0.0150     49.11      48.63      0          0
283              5063             5064             328.00     0.0150     49.69      49.11      0          0
285              5062             5063             432.00     0.0150     50.77      50.19      0          0
287              5061             5062             336.00     0.0150     51.23      50.77      0          0
289              5945             5061             385.00     0.0150     52.50      50.75      0          0
291              5060             5945             32.00      0.0300     64.00      56.95      0          0
293              5946             5060             17.00      0.0150     66.01      64.00      0          0
295              5902             5946             526.00     0.0150     67.72      66.01      0          0
297              5099             5910             200.00     0.0250     44.10      38.00      0          0
300              5101             5029             538.00     0.0150     34.07      33.00      0          0
298              5910             5101             466.00     0.0150     35.18      34.07      0          0
303              5944             5099             150.00     0.0180     44.15      44.10      0          0
305              5098             5944             360.00     0.0250     44.87      44.15      0          0
307              5094             5098             701.00     0.0250     45.69      44.15      0          0
309              5093             5094             510.00     0.0150     46.76      45.69      0          0
311              5092             5093             280.00     0.0150     47.18      46.76      0          0
313              5091             5092             130.00     0.0150     47.56      47.18      0          0
315              5090             5091             125.00     0.0200     48.16      47.56      0          0
317              5908             5090             360.00     0.0150     49.20      48.16      0          0
319              5024             5908             120.00     0.0104     49.36      49.20      0          0
321              5022             5024             670.00     0.0150     50.11      49.36      0          0
319_2            5024             5025             125.00     0.0250     49.36      48.86      0          0
323              5025             5091             330.00     0.0250     48.86      47.56      0          0
326              5953             5022             650.00     0.0050     51.72      50.11      0          0
328              5951             5021             38.00      0.0470     48.80      42.75      0          0
330              5020             5952             10.00      0.0200     51.40      51.00      0          0
333              5082             5020             235.00     0.0400     52.69      51.40      0          0
335              5120             5910             323.00     0.0150     38.03      37.10      0          0
337              5113             5120             392.00     0.0150     38.90      38.03      0          0
339              5112             5113             250.00     0.0150     41.15      40.35      0          0
341              5111             5112             295.00     0.0150     42.45      41.40      0          0
343              5926             5111             395.00     0.0150     44.56      42.45      0          0
345              5119             5113             470.00     0.0250     42.09      40.40      0          0
347              5118             5119             365.00     0.0250     43.47      42.09      0          0
409              160              163              110.00     0.0250     0          0          0          0
351              163              DUMMY2           90.00      0.0300     0          0          0          0
352              DUMMY2           169              40.00      0.0250     0          0          0          0
353              169              5137             420.00     0.0300     0          0          0          0
414              1741             DUMMY4           1900.00    0.0250     0          0          0          0
354              DUMMY4           5135             100.00     0.0300     0          0          0          0
417              170              5137             1650.00    0.0300     0          0          0          0
419              162              DUMMY5           370.00     0.0250     0          0          0          0
355              DUMMY5           DUMMY6           455.00     0.0250     0          0          0          0
356              DUMMY6           5141             480.00     0.0300     0          0          0          0
423              DUMMY63          106              280.00     0.0200     0          0          0          0
357              106              DUMMY8           317.00     0.0250     0          0          0          0
358              DUMMY8           113              244.00     0.0150     0          0          0          0
359              113              DUMMY10          240.00     0.0150     0          0          0          0
360              DUMMY10          5007             600.00     0.0150     0          0          0          0
429              1202             5011             320.00     0.0250     0          0          0          0
431              119              DUMMY11          110.00     0.0250     0          0          0          0
361              DUMMY11          5067             190.00     0.0250     0          0          0          0
362              DUMMY12          5902             90.00      0.0230     0          0          0          0
363              DUMMY13          DUMMY12          10.00      0.0560     0          0          0          0
364              DUMMY14          DUMMY13          100.00     0.0190     0          0          0          0
365              1013             DUMMY14          600.00     0.0150     0          0          0          0
366              DUMMY16          1013             50.00      0.0200     0          0          0          0
367              1012             DUMMY16          360.00     0.0150     0          0          0          0
368              DUMMY18          1012             270.00     0.0150     0          0          0          0
369              DUMMY19          DUMMY18          100.00     0.0280     0          0          0          0
370              1011             DUMMY19          420.00     0.0280     0          0          0          0
371              DUMMY21          1011             100.00     0.0280     0          0          0          0
372              DUMMY22          DUMMY21          275.00     0.0280     0          0          0          0
445              DUMMY66          DUMMY22          675.00     0.0280     0          0          0          0
373              DUMMY23          DUMMY13          230.00     0.0280     0          0          0          0
374              104              DUMMY23          360.00     0.0250     0          0          0          0
375              DUMMY25          104              150.00     0.0250     0          0          0          0
450              DUMMY67          DUMMY25          256.00     0.0200     0          0          0          0
452              1051             1052             880.00     0.0250     0          0          0          0
376              1052             DUMMY27          345.00     0.0150     0          0          0          0
377              DUMMY27          DUMMY23          155.00     0.0250     0          0          0          0
378              DUMMY28          DUMMY13          485.00     0.0260     0          0          0          0
379              1032             DUMMY28          455.00     0.0260     0          0          0          0
381              DUMMY31          1032             165.00     0.0260     0          0          0          0
380              DUMMY30          1032             410.00     0.0260     0          0          0          0
460              1031             DUMMY30          410.00     0.0260     0          0          0          0
462              1033             DUMMY31          100.00     0.0260     0          0          0          0
382              1022             DUMMY13          460.00     0.0250     0          0          0          0
465              1021             1022             535.00     0.0250     0          0          0          0
467              1762             DUMMY33          470.00     0.0250     0          0          0          0
383              DUMMY33          DUMMY34          280.00     0.0260     0          0          0          0
384              DUMMY34          DUMMY13          175.00     0.0260     0          0          0          0
385              DUMMY35          5082             80.00      0.0260     0          0          0          0
386              136              DUMMY35          170.00     0.0400     0          0          0          0
387              135              136              805.00     0.0150     0          0          0          0
388              DUMMY38          135              44.00      0.0125     0          0          0          0
389              134              DUMMY38          378.00     0.0150     0          0          0          0
390              DUMMY40          134              42.00      0.0125     0          0          0          0
391              128              DUMMY40          214.00     0.0150     0          0          0          0
392              127              128              42.00      0.0125     0          0          0          0
393              125              127              285.00     0.0150     0          0          0          0
394              129              125              578.00     0.0150     0          0          0          0
395              1241             129              48.00      0.0200     0          0          0          0
396              123              1241             208.00     0.0150     0          0          0          0
397              DUMMY47          123              44.00      0.0200     0          0          0          0
398              121              DUMMY47          754.00     0.0150     0          0          0          0
485              124              121              45.00      0.0200     0          0          0          0
399              DUMMY49          5065             635.00     0.0250     0          0          0          0
400              1103             DUMMY49          200.00     0.0300     0          0          0          0
401              DUMMY51          1103             420.00     0.0400     0          0          0          0
402              DUMMY52          DUMMY51          40.00      0.0370     0          0          0          0
403              1102             DUMMY52          420.00     0.0400     0          0          0          0
492              1761             1102             375.00     0.0400     0          0          0          0
404              DUMMY54          5926             45.47      0.0150     0          0          0          0
495              148              DUMMY54          47.22      0.0150     0          0          0          0
405              DUMMY55          5118             150.00     0.0250     0          0          0          0
406              DUMMY56          DUMMY55          160.00     0.0250     0          0          0          0
407              147              DUMMY56          245.00     0.0250     0          0          0          0
408              DUMMY58          147              240.00     0.0250     0          0          0          0
501              142              DUMMY58          230.00     0.0250     0          0          0          0

[WEIRS]
;;Name           From             To               Type       CrestHt    Qcoeff     Gated    EndCon   EndCoeff   Surcharge
;;-------------- ---------------- ---------------- ---------- ---------- ---------- -------- -------- ---------- ----------
330_2            5020             5951             V-NOTCH    51.70      1.840      NO       0        0          YES
331              5952             5953             TRANSVERSE 51.74      1.840      NO       0        0          YES

[XSECTIONS]
;;Link           Shape        Geom1      Geom2      Geom3      Geom4      Barrels
;;-------------- ------------ ---------- ---------- ---------- ---------- ----------
201              CIRCULAR     6.00       0          0          0          1
201_2            CIRCULAR     6.00       0          0          0          1
206              CIRCULAR     8.00       0          0          0          1
208              CIRCULAR     8.00       0          0          0          1
210              CIRCULAR     8.00       0          0          0          1
212              CIRCULAR     10.50      0          0          0          1
210_2            CIRCULAR     4.50       0          0          0          1
214              CIRCULAR     5.00       0          0          0          1
216              CIRCULAR     5.00       0          0          0          1
21221            CIRCULAR     3.50       0          0          0          1
21231            CIRCULAR     3.00       0          0          0          1
222              POWER        4.00       150.00     1.5        0          1
224              TRAPEZOIDAL  7.00       5.00       1          1          1
226              CIRCULAR     3.50       0          0          0          1
228              TRAPEZOIDAL  7.20       6.00       1          1          1
230              CIRCULAR     3.50       0          0          0          1
232              TRAPEZOIDAL  7.20       15.00      1          1          1
234              RECT_CLOSED  5.50       4.52       0          0          1
201_3            RECT_CLOSED  2.00       4.00       0          0          1
237              TRAPEZOIDAL  7.00       40.00      1          1          1
21341            CIRCULAR     4.00       0          0          0          1
241              TRAPEZOIDAL  7.00       10.00      1          1          1
243              CIRCULAR     4.00       0          0          0          1
247              CIRCULAR     3.50       0          0          0          1
248              CIRCULAR     3.50       0          0          0          1
250              CIRCULAR     3.50       0          0          0          1
252              CIRCULAR     3.50       0          0          0          1
254              CIRCULAR     3.50       0          0          0          1
256              CIRCULAR     6.00       0          0          0          1
258              CIRCULAR     6.00       0          0          0          1
260              CIRCULAR     6.00       0          0          0          1
262              CIRCULAR     7.00       0          0          0          1
264              CIRCULAR     7.00       0          0          0          1
266              CIRCULAR     7.00       0          0          0          1
268              CIRCULAR     7.00       0          0          0          1
270              CIRCULAR     7.00       0          0          0          1
272              CIRCULAR     7.00       0          0          0          1
275              CIRCULAR     5.50       0          0          0          1
277              CIRCULAR     5.50       0          0          0          1
279              CIRCULAR     5.50       0          0          0          1
281              CIRCULAR     5.00       0          0          0          1
283              CIRCULAR     5.00       0          0          0          1
285              CIRCULAR     4.50       0          0          0          1
287              CIRCULAR     4.50       0          0          0          1
289              CIRCULAR     4.50       0          0          0          1
291              CIRCULAR     4.00       0          0          0          1
293              TRAPEZOIDAL  4.00       6.00       1          1          1
295              TRAPEZOIDAL  1.50       6.00       1          1          1
297              CIRCULAR     4.50       0          0          0          1
300              CIRCULAR     6.00       0          0          0          1
298              CIRCULAR     5.00       0          0          0          1
303              RECT_CLOSED  3.00       8.00       0          0          1
305              CIRCULAR     4.17       0          0          0          1
307              CIRCULAR     3.50       0          0          0          1
309              TRAPEZOIDAL  4.00       10.00      1          1          1
311              CIRCULAR     3.50       0          0          0          1
313              CIRCULAR     3.50       0          0          0          1
315              RECT_CLOSED  2.00       10.00      0          0          1
317              TRAPEZOIDAL  3.00       5.00       1          1          1
319              TRAPEZOIDAL  2.00       10.00      1          1          1
321              TRAPEZOIDAL  3.00       5.00       1          1          1
319_2            CIRCULAR     3.00       0          0          0          1
323              CIRCULAR     3.00       0          0          0          1
326              CIRCULAR     3.00       0          0          0          1
328              CIRCULAR     4.50       0          0          0          1
330              TRAPEZOIDAL  4.30       8.00       1          1          1
333              TRAPEZOIDAL  4.30       9.00       1          1          1
335              CIRCULAR     4.00       0          0          0          1
337              CIRCULAR     4.00       0          0          0          1
339              CIRCULAR     2.50       0          0          0          1
341              CIRCULAR     2.25       0          0          0          1
343              CIRCULAR     2.00       0          0          0          1
345              CIRCULAR     3.00       0          0          0          1
347              CIRCULAR     3.00       0          0          0          1
409              CIRCULAR     2.00       0          0          0          1
351              TRAPEZOIDAL  2.00       2.00       1          1          1
352              CIRCULAR     2.00       0          0          0          1
353              TRAPEZOIDAL  2.00       4.00       1          1          1
414              TRAPEZOIDAL  4.00       4.00       1          1          1
354              CIRCULAR     2.00       0          0          0          1
417              TRAPEZOIDAL  2.00       4.00       1          1          1
419              CIRCULAR     2.00       0          0          0          1
355              CIRCULAR     2.50       0          0          0          1
356              TRAPEZOIDAL  1.50       6.00       1          1          1
423              TRAPEZOIDAL  2.00       1.00       1          1          1
357              CIRCULAR     2.00       0          0          0          1
358              CIRCULAR     2.00       0          0          0          1
359              CIRCULAR     2.00       0          0          0          1
360              CIRCULAR     3.00       0          0          0          1
429              CIRCULAR     2.00       0          0          0          1
431              CIRCULAR     2.00       0          0          0          1
361              CIRCULAR     2.00       0          0          0          1
362              TRAPEZOIDAL  2.50       6.00       1          1          1
363              TRAPEZOIDAL  2.50       6.00       1          1          1
364              CIRCULAR     2.50       0          0          0          1
365              CIRCULAR     2.25       0          0          0          1
366              CIRCULAR     1.75       0          0          0          1
367              CIRCULAR     1.50       0          0          0          1
368              CIRCULAR     1.50       0          0          0          1
369              CIRCULAR     2.50       0          0          0          1
370              CIRCULAR     2.00       0          0          0          1
371              CIRCULAR     2.00       0          0          0          1
372              CIRCULAR     2.00       0          0          0          1
445              CIRCULAR     1.25       0          0          0          1
373              CIRCULAR     2.25       0          0          0          1
374              CIRCULAR     2.00       0          0          0          1
375              CIRCULAR     1.50       0          0          0          1
450              TRAPEZOIDAL  3.50       3.00       1          1          1
452              CIRCULAR     2.00       0          0          0          1
376              CIRCULAR     2.00       0          0          0          1
377              CIRCULAR     2.50       0          0          0          1
378              CIRCULAR     2.50       0          0          0          1
379              CIRCULAR     2.50       0          0          0          1
381              CIRCULAR     1.75       0          0          0          1
380              CIRCULAR     1.33       0          0          0          1
460              CIRCULAR     1.33       0          0          0          1
462              CIRCULAR     1.33       0          0          0          1
382              CIRCULAR     1.50       0          0          0          1
465              CIRCULAR     1.00       0          0          0          1
467              CIRCULAR     1.50       0          0          0          1
383              CIRCULAR     1.50       0          0          0          1
384              CIRCULAR     1.50       0          0          0          1
385              TRAPEZOIDAL  3.00       4.00       1          1          1
386              TRAPEZOIDAL  4.30       7.00       1          1          1
387              TRAPEZOIDAL  4.00       5.00       1          1          1
388              CIRCULAR     2.37       0          0          0          1
389              TRAPEZOIDAL  4.00       5.00       1          1          1
390              CIRCULAR     2.37       0          0          0          1
391              TRAPEZOIDAL  4.00       5.00       1          1          1
392              CIRCULAR     2.37       0          0          0          1
393              TRAPEZOIDAL  4.00       5.00       1          1          1
394              CIRCULAR     4.00       0          0          0          1
395              TRAPEZOIDAL  2.00       6.00       1          1          1
396              TRAPEZOIDAL  2.00       2.00       1          1          1
397              TRAPEZOIDAL  2.00       6.00       1          1          1
398              TRAPEZOIDAL  3.00       3.00       1          1          1
485              TRAPEZOIDAL  2.00       6.00       1          1          1
399              CIRCULAR     2.25       0          0          0          1
400              CIRCULAR     2.00       0          0          0          1
401              TRAPEZOIDAL  3.00       3.00       1          1          1
402              CIRCULAR     2.00       0          0          0          1
403              CIRCULAR     2.00       0          0          0          1
492              CIRCULAR     2.00       0          0          0          1
404              CIRCULAR     2.00       0          0          0          1
495              CIRCULAR     1.75       0          0          0          1
405              CIRCULAR     3.00       0          0          0          1
406              CIRCULAR     3.00       0          0          0          1
407              CIRCULAR     3.00       0          0          0          1
408              CIRCULAR     3.00       0          0          0          1
501              CIRCULAR     3.00       0          0          0          1
330_2            TRIANGULAR   1.00       7.00       0          0
331              RECT_OPEN    1.00       8.50       0          0

[LOSSES]
;;Link           Inlet      Outlet     Average    Flap Gate
;;-------------- ---------- ---------- ---------- ----------
201              0          0          0          NO
201_2            0          0          0          NO
206              0          0          0          NO
208              0          0          0          NO
210              0          0          0          NO
212              0          0          0          NO
210_2            0          0          0          NO
214              0          0          0          NO
216              0          0          0          NO
21221            0          0          0          NO
21231            0          0          0          NO
222              0          0          0          NO
224              0          0          0          NO
226              0          0          0          NO
228              0          0          0          NO
230              0          0          0          NO
232              0          0          0          NO
234              0          0          0          NO
201_3            0          0          0          NO
237              0          0          0          NO
21341            0          0          0          NO
241              0          0          0          NO
243              0          0          0          NO
247              0          0          0          NO
248              0          0          0          NO
250              0          0          0          NO
252              0          0          0          NO
254              0          0          0          NO
256              0          0          0          NO
258              0          0          0          NO
260              0          0          0          NO
262              0          0          0          NO
264              0          0          0          NO
266              0          0          0          NO
268              0          0          0          NO
270              0          0          0          NO
272              0          0          0          NO
275              0          0          0          NO
277              0          0          0          NO
279              0          0          0          NO
281              0          0          0          NO
283              0          0          0          NO
285              0          0          0          NO
287              0          0          0          NO
289              0          0          0          NO
291              0          0          0          NO
293              0          0          0          NO
295              0          0          0          NO
297              0          0          0          NO
300              0          0          0          NO
298              0          0          0          NO
303              0          0          0          NO
305              0          0          0          NO
307              0          0          0          NO
309              0          0          0          NO
311              0          0          0          NO
313              0          0          0          NO
315              0          0          0          NO
317              0          0          0          NO
319              0          0          0          NO
321              0          0          0          NO
319_2            0          0          0          NO
323              0          0          0          NO
326              0          0          0          NO
328              0          0          0          NO
330              0          0          0          NO
333              0          0          0          NO
335              0          0          0          NO
337              0          0          0          NO
339              0          0          0          NO
341              0          0          0          NO
343              0          0          0          NO
345              0          0          0          NO
347              0          0          0          NO
409              0          0          0          NO
351              0          0          0          NO
352              0          0          0          NO
353              0          0          0          NO
414              0          0          0          NO
354              0          0          0          NO
417              0          0          0          NO
419              0          0          0          NO
355              0          0          0          NO
356              0          0          0          NO
423              0          0          0          NO
357              0          0          0          NO
358              0          0          0          NO
359              0          0          0          NO
360              0          0          0          NO
429              0          0          0          NO
431              0          0          0          NO
361              0          0          0          NO
362              0          0          0          NO
363              0          0          0          NO
364              0          0          0          NO
365              0          0          0          NO
366              0          0          0          NO
367              0          0          0          NO
368              0          0          0          NO
369              0          0          0          NO
370              0          0          0          NO
371              0          0          0          NO
372              0          0          0          NO
445              0          0          0          NO
373              0          0          0          NO
374              0          0          0          NO
375              0          0          0          NO
450              0          0          0          NO
452              0          0          0          NO
376              0          0          0          NO
377              0          0          0          NO
378              0          0          0          NO
379              0          0          0          NO
381              0          0          0          NO
380              0          0          0          NO
460              0          0          0          NO
462              0          0          0          NO
382              0          0          0          NO
465              0          0          0          NO
467              0          0          0          NO
383              0          0          0          NO
384              0          0          0          NO
385              0          0          0          NO
386              0          0          0          NO
387              0          0          0          NO
388              0          0          0          NO
389              0          0          0          NO
390              0          0          0          NO
391              0          0          0          NO
392              0          0          0          NO
393              0          0          0          NO
394              0          0          0          NO
395              0          0          0          NO
396              0          0          0          NO
397              0          0          0          NO
398              0          0          0          NO
485              0          0          0          NO
399              0          0          0          NO
400              0          0          0          NO
401              0          0          0          NO
402              0          0          0          NO
403              0          0          0          NO
492              0          0          0          NO
404              0          0          0          NO
495              0          0          0          NO
405              0          0          0          NO
406              0          0          0          NO
407              0          0          0          NO
408              0          0          0          NO
501              0          0          0          NO

[INFLOWS]
;;Node           Constituent  Time Series      Type     Mfactor  Sfactor  Baseline Pattern
;;-------------- ------------ ---------------- -------- -------- -------- -------- --------
;; SYNTHETIC TEST INFLOWS — the source .xp carried no constant inflows
;; and RUNF hydrology is not converted; 1.00 CFS is applied at each
;; headwater node so the network runs wet for QA. Replace with real
;; hydrology or inflow hydrographs before using results.
160              FLOW         ""               FLOW     1.0      1.0      1.00
1741             FLOW         ""               FLOW     1.0      1.0      1.00
170              FLOW         ""               FLOW     1.0      1.0      1.00
162              FLOW         ""               FLOW     1.0      1.0      1.00
DUMMY63          FLOW         ""               FLOW     1.0      1.0      1.00
1202             FLOW         ""               FLOW     1.0      1.0      1.00
119              FLOW         ""               FLOW     1.0      1.0      1.00
DUMMY66          FLOW         ""               FLOW     1.0      1.0      1.00
DUMMY67          FLOW         ""               FLOW     1.0      1.0      1.00
1051             FLOW         ""               FLOW     1.0      1.0      1.00
1031             FLOW         ""               FLOW     1.0      1.0      1.00
1033             FLOW         ""               FLOW     1.0      1.0      1.00
1021             FLOW         ""               FLOW     1.0      1.0      1.00
1762             FLOW         ""               FLOW     1.0      1.0      1.00
124              FLOW         ""               FLOW     1.0      1.0      1.00
1761             FLOW         ""               FLOW     1.0      1.0      1.00
148              FLOW         ""               FLOW     1.0      1.0      1.00
142              FLOW         ""               FLOW     1.0      1.0      1.00
HW_201           FLOW         ""               FLOW     1.0      1.0      1.00
21223            FLOW         ""               FLOW     1.0      1.0      1.00
21232            FLOW         ""               FLOW     1.0      1.0      1.00
21342            FLOW         ""               FLOW     1.0      1.0      1.00

[COORDINATES]
;;Node           X-Coord            Y-Coord
;;-------------- ------------------ ------------------
5037             1171.35            139.86            
5038             1191.35            139.86            
5039             1211.35            139.86            
5035             1151.35            139.86            
5034             1131.35            139.86            
5030             891.35             139.86            
5029             871.35             139.86            
5031             911.35             139.86            
5130             931.35             139.86            
5131             951.35             139.86            
5132             971.35             139.86            
5135             991.35             139.86            
5136             1011.35            139.86            
5137             1031.35            139.86            
5138             1051.35            139.86            
5139             1071.35            139.86            
5140             1091.35            139.86            
5141             1111.35            139.86            
5144             1231.35            139.86            
5146             1251.35            139.86            
5147             1271.35            139.86            
5148             1291.35            139.86            
5149             1311.35            139.86            
5007             557.41             135.90            
5008             577.41             135.90            
5009             597.41             135.90            
5010             617.41             135.90            
5011             637.41             135.90            
5017             657.41             135.90            
5018             677.41             135.90            
5019             697.41             135.90            
5021             751.35             139.86            
5907             771.35             139.86            
5023             791.35             139.86            
5026             811.35             139.86            
5027             831.35             139.86            
5028             851.35             139.86            
5067             657.41             115.90            
5066             664.25             97.11             
5065             671.09             78.31             
5064             683.95             62.99             
5063             696.80             47.67             
5062             709.66             32.35             
5061             722.51             17.03             
5945             735.37             1.71              
5060             748.23             -13.61            
5946             761.08             -28.93            
5902             773.94             -44.26            
5099             671.35             139.86            
5910             691.35             139.86            
5101             711.35             139.86            
5944             651.35             139.86            
5098             631.35             139.86            
5094             611.35             139.86            
5093             591.35             139.86            
5092             571.35             139.86            
5091             551.35             139.86            
5090             531.35             139.86            
5908             511.35             139.86            
5024             491.35             139.86            
5022             471.35             139.86            
5025             551.35             119.86            
5953             451.35             139.86            
5951             731.35             139.86            
5020             717.41             175.90            
5952             359.93             153.09            
5082             717.41             195.90            
5120             691.35             159.86            
5113             691.35             179.86            
5112             684.51             198.65            
5111             677.67             217.45            
5926             670.83             236.24            
5119             698.19             198.65            
5118             705.03             217.45            
163              988.93             182.28            
DUMMY2           1003.07            168.14            
169              1017.21            154.00            
DUMMY4           991.35             119.86            
DUMMY5           1111.35            179.86            
DUMMY6           1111.35            159.86            
106              477.41             135.90            
DUMMY8           497.41             135.90            
113              517.41             135.90            
DUMMY10          537.41             135.90            
DUMMY11          650.57             97.11             
DUMMY12          786.79             -59.58            
DUMMY13          799.65             -74.90            
DUMMY14          819.35             -78.37            
1013             839.04             -81.84            
DUMMY16          858.74             -85.32            
1012             878.43             -88.79            
DUMMY18          898.13             -92.26            
DUMMY19          917.83             -95.74            
1011             937.52             -99.21            
DUMMY21          957.22             -102.68           
DUMMY22          976.91             -106.15           
DUMMY23          816.97             -84.90            
104              836.67             -88.37            
DUMMY25          856.36             -91.84            
1052             842.68             -115.54           
DUMMY27          829.83             -100.22           
DUMMY28          812.50             -90.22            
1032             825.36             -105.54           
DUMMY30          832.20             -124.33           
DUMMY31          842.68             -115.54           
1022             806.49             -93.69            
DUMMY33          799.65             -114.90           
DUMMY34          799.65             -94.90            
DUMMY35          717.41             215.90            
136              717.41             235.90            
135              717.41             255.90            
DUMMY38          717.41             275.90            
134              717.41             295.90            
DUMMY40          717.41             315.90            
128              717.41             335.90            
127              717.41             355.90            
125              717.41             375.90            
129              717.41             395.90            
1241             717.41             415.90            
123              717.41             435.90            
DUMMY47          717.41             455.90            
121              717.41             475.90            
DUMMY49          671.09             58.31             
1103             671.09             38.31             
DUMMY51          671.09             18.31             
DUMMY52          671.09             -1.69             
1102             671.09             -21.69            
DUMMY54          663.99             255.03            
DUMMY55          711.87             236.24            
DUMMY56          718.72             255.03            
147              725.56             273.83            
DUMMY58          732.40             292.62            
160              974.79             196.43            
1741             991.35             99.86             
170              1031.35            119.86            
162              1111.35            199.86            
DUMMY63          457.41             135.90            
1202             637.41             155.90            
119              643.73             78.31             
DUMMY66          996.61             -109.63           
DUMMY67          876.06             -95.32            
1051             855.54             -130.86           
1031             839.04             -143.13           
1033             860.00             -125.54           
1021             813.33             -112.48           
1762             799.65             -134.90           
124              717.41             495.90            
1761             671.09             -41.69            
148              657.15             273.83            
142              739.24             311.42            

[MAP]
DIMENSIONS 359.93 -143.13 1311.35 495.90
Units      None

[REPORT]
SUBCATCHMENTS ALL
NODES ALL
LINKS ALL
