;; SWMM5 .inp converted from XPSWMM .xp file
;; Generated by XPSWMM Card Reader
;; Source format: XP_CARD | Original title: Wastewater Information Management System : Honolulu
;; Links parsed from source: 470 | Routable in this .inp: 470

[TITLE]
;;Project Title/Notes
Wastewater Information Management System : Honolulu

[OPTIONS]
FLOW_UNITS           CFS
INFILTRATION         HORTON
FLOW_ROUTING         DYNWAVE
LINK_OFFSETS         DEPTH
MIN_SLOPE            0.0
ALLOW_PONDING        NO
SKIP_STEADY_STATE    NO
ROUTING_STEP         00:00:15
VARIABLE_STEP        0.75
INERTIAL_DAMPING     PARTIAL
NORMAL_FLOW_LIMITED  BOTH
MAX_TRIALS           50
HEAD_TOLERANCE       0.0033
START_DATE           01/01/2001
START_TIME           00:00:00
REPORT_START_DATE    01/01/2001
REPORT_START_TIME    00:00:00
END_DATE             01/02/2001
END_TIME             00:00:00
SWEEP_START          01/01
SWEEP_END            12/31
DRY_DAYS             0
REPORT_STEP          00:15:00
WET_STEP             00:05:00
DRY_STEP             01:00:00

[JUNCTIONS]
;;Name           Elev       MaxDepth   InitDepth  SurDepth   Aponded
;;-------------- ---------- ---------- ---------- ---------- ----------
30530038         17.00      0          0          0          0
30530063         16.88      0          0          0          0
30530134         14.80      0          0          0          0
30530136         14.68      0          0          0          0
30530200         12.50      0          0          0          0
30530221         11.53      0          0          0          0
30530236         11.30      0          0          0          0
30530241         11.70      0          0          0          0
30530243         11.80      0          0          0          0
30530290         7.00       0          0          0          0
30530308         7.00       0          0          0          0
30530396         10.30      0          0          0          0
30530494         11.50      0          0          0          0
30530604         11.60      0          0          0          0
30530715         9.90       0          0          0          0
30531552         12.50      0          0          0          0
30540097         5.02       0          0          0          0
30540150         6.52       0          0          0          0
30540207         7.92       0          0          0          0
30540270         10.00      0          0          0          0
30540289         8.97       0          0          0          0
30540312         8.97       0          0          0          0
30540331         9.76       0          0          0          0
30540409         7.94       0          0          0          0
30540432         7.00       0          0          0          0
30540458         6.83       0          0          0          0
30540479         6.83       0          0          0          0
30540622         4.81       0          0          0          0
30540745         5.11       0          0          0          0
30540912         6.08       0          0          0          0
30541077         9.98       0          0          0          0
30541204         12.40      0          0          0          0
30541434         8.35       0          0          0          0
30541441         7.66       0          0          0          0
26520143         7.68       0          0          0          0
26520157         7.60       0          0          0          0
26520202         6.63       0          0          0          0
26520285         8.27       0          0          0          0
26520304         7.33       0          0          0          0
26530297         6.80       0          0          0          0
26530319         5.83       0          0          0          0
26530348         6.56       0          0          0          0
27520028         10.51      0          0          0          0
27520039         10.81      0          0          0          0
27520121         10.01      0          0          0          0
27520232         7.92       0          0          0          0
27520546         9.12       0          0          0          0
27520560         7.20       0          0          0          0
27520578         6.81       0          0          0          0
27520697         6.14       0          0          0          0
27520797         7.87       0          0          0          0
27520887         6.05       0          0          0          0
27521026         6.06       0          0          0          0
27521158         6.52       0          0          0          0
27521335         6.14       0          0          0          0
27530144         8.56       0          0          0          0
27530172         8.55       0          0          0          0
27530191         8.57       0          0          0          0
27530197         8.96       0          0          0          0
27530206         8.95       0          0          0          0
27530229         9.50       0          0          0          0
27530268         9.48       0          0          0          0
27530312         9.69       0          0          0          0
27530334         9.42       0          0          0          0
27530373         9.29       0          0          0          0
27530400         9.31       0          0          0          0
27530443         9.46       0          0          0          0
27530495         9.22       0          0          0          0
27530552         10.86      0          0          0          0
27530580         11.51      0          0          0          0
27530647         11.50      0          0          0          0
27530677         12.05      0          0          0          0
27530693         12.26      0          0          0          0
27530751         12.05      0          0          0          0
27530780         12.12      0          0          0          0
27530852         10.84      0          0          0          0
28520128         5.73       0          0          0          0
28520280         7.70       0          0          0          0
28520371         8.00       0          0          0          0
28520574         8.76       0          0          0          0
28520701         8.65       0          0          0          0
28520733         8.61       0          0          0          0
28520787         8.51       0          0          0          0
28520862         8.32       0          0          0          0
28520988         8.00       0          0          0          0
28521120         8.40       0          0          0          0
28521166         8.22       0          0          0          0
28521269         7.79       0          0          0          0
28521316         7.60       0          0          0          0
28521361         7.45       0          0          0          0
28521461         7.00       0          0          0          0
28521562         7.00       0          0          0          0
28521626         7.04       0          0          0          0
28521764         6.40       0          0          0          0
28521830         7.13       0          0          0          0
28521873         7.70       0          0          0          0
28521963         8.55       0          0          0          0
28521980         8.62       0          0          0          0
28522075         8.92       0          0          0          0
28522174         8.44       0          0          0          0
28530050         9.68       0          0          0          0
28530069         9.84       0          0          0          0
28530178         10.76      0          0          0          0
28530242         10.59      0          0          0          0
28530320         9.29       0          0          0          0
28530342         9.21       0          0          0          0
28530462         9.00       0          0          0          0
28530542         8.63       0          0          0          0
28530644         8.69       0          0          0          0
28530717         9.04       0          0          0          0
28530770         9.40       0          0          0          0
28530809         9.62       0          0          0          0
28530910         9.36       0          0          0          0
28530977         9.36       0          0          0          0
28531133         12.04      0          0          0          0
28531190         10.92      0          0          0          0
28531322         10.04      0          0          0          0
28531383         9.94       0          0          0          0
28531497         8.98       0          0          0          0
28531605         9.39       0          0          0          0
28531639         9.34       0          0          0          0
28531740         9.94       0          0          0          0
28531844         10.38      0          0          0          0
28532007         10.66      0          0          0          0
28532028         10.47      0          0          0          0
28532120         9.31       0          0          0          0
28532303         7.80       0          0          0          0
28532445         7.90       0          0          0          0
28532556         7.90       0          0          0          0
28532640         7.90       0          0          0          0
28532791         8.90       0          0          0          0
28532887         8.50       0          0          0          0
28540032         9.40       0          0          0          0
28540039         9.23       0          0          0          0
28540070         8.14       0          0          0          0
28540097         5.04       0          0          0          0
28540102         9.18       0          0          0          0
28540120         7.66       0          0          0          0
28540128         8.63       0          0          0          0
28540140         6.25       0          0          0          0
28540142         8.48       0          0          0          0
28540147         7.59       0          0          0          0
28540176         8.69       0          0          0          0
28540178         11.31      0          0          0          0
28540227         12.47      0          0          0          0
28540241         11.24      0          0          0          0
29520076         8.60       0          0          0          0
29520078         8.48       0          0          0          0
29520118         7.81       0          0          0          0
29520144         6.60       0          0          0          0
29520190         5.90       0          0          0          0
29520209         4.50       0          0          0          0
29520241         26.20      0          0          0          0
29520242         34.70      0          0          0          0
29520243         42.20      0          0          0          0
29520244         51.20      0          0          0          0
29520245         53.40      0          0          0          0
29520246         55.70      0          0          0          0
29520248         63.20      0          0          0          0
29520254         71.20      0          0          0          0
29520258         74.00      0          0          0          0
29530494         5.80       0          0          0          0
29530561         7.80       0          0          0          0
29530590         0          0          0          0          0
29530599         6.60       0          0          0          0
29530606         10.00      0          0          0          0
29530611         9.63       0          0          0          0
29530614         9.20       0          0          0          0
29530615         9.58       0          0          0          0
29530620         10.30      0          0          0          0
29530635         8.62       0          0          0          0
29530641         12.40      0          0          0          0
29530643         12.50      0          0          0          0
29530655         13.20      0          0          0          0
29530679         14.50      0          0          0          0
29530683         9.40       0          0          0          0
29530697         15.60      0          0          0          0
29530700         8.29       0          0          0          0
29530705         6.72       0          0          0          0
29530710         17.60      0          0          0          0
29530727         6.24       0          0          0          0
29530765         7.16       0          0          0          0
29530781         5.06       0          0          0          0
29530826         8.20       0          0          0          0
29530827         8.60       0          0          0          0
29530828         8.60       0          0          0          0
29530852         11.80      0          0          0          0
29530864         7.60       0          0          0          0
29530900         6.20       0          0          0          0
29530901         11.60      0          0          0          0
29530942         7.20       0          0          0          0
29531026         8.10       0          0          0          0
29531035         7.30       0          0          0          0
29531039         7.39       0          0          0          0
29531109         7.95       0          0          0          0
29531185         6.11       0          0          0          0
29531220         12.78      0          0          0          0
29540053         5.42       0          0          0          0
29540097         11.76      0          0          0          0
29540120         6.31       0          0          0          0
29540121         6.63       0          0          0          0
29540142         5.23       0          0          0          0
29540164         11.97      0          0          0          0
29540175         4.85       0          0          0          0
29540231         11.83      0          0          0          0
29540284         6.15       0          0          0          0
29540319         9.82       0          0          0          0
29540328         6.62       0          0          0          0
29540341         8.49       0          0          0          0
29540357         6.16       0          0          0          0
29540361         12.00      0          0          0          0
29540374         8.11       0          0          0          0
29540407         6.49       0          0          0          0
29540447         7.48       0          0          0          0
29540466         11.16      0          0          0          0
29540471         9.11       0          0          0          0
29540476         7.95       0          0          0          0
29540542         11.36      0          0          0          0
29540608         9.82       0          0          0          0
29540716         9.12       0          0          0          0
29540872         8.49       0          0          0          0
29540973         8.68       0          0          0          0
29541113         8.80       0          0          0          0
29541136         7.56       0          0          0          0
29541377         5.99       0          0          0          0
29541383         7.00       0          0          0          0
29541427         6.83       0          0          0          0
29541429         7.20       0          0          0          0
29541466         6.31       0          0          0          0
29541632         6.03       0          0          0          0
29541828         6.90       0          0          0          0
29542022         4.73       0          0          0          0
29542174         6.27       0          0          0          0
29542277         4.79       0          0          0          0
29550002         38.80      0          0          0          0
29550009         32.30      0          0          0          0
29550015         20.10      0          0          0          0
29550018         13.40      0          0          0          0
29550108         8.49       0          0          0          0
29550128         38.00      0          0          0          0
29550165         8.91       0          0          0          0
29550173         8.76       0          0          0          0
29550178         8.88       0          0          0          0
29550203         8.67       0          0          0          0
29550234         8.49       0          0          0          0
29550258         8.43       0          0          0          0
29550297         8.27       0          0          0          0
29550349         8.39       0          0          0          0
29550383         7.86       0          0          0          0
29550427         8.06       0          0          0          0
29550469         7.90       0          0          0          0
29550501         7.93       0          0          0          0
29550531         7.69       0          0          0          0
29550581         7.39       0          0          0          0
29550636         8.54       0          0          0          0
25460024         44.60      0          0          0          0
25460026         44.60      0          0          0          0
25460045         46.80      0          0          0          0
25460048         47.00      0          0          0          0
25460055         56.85      0          0          0          0
25460058         56.96      0          0          0          0
25460079         57.20      0          0          0          0
25460083         52.32      0          0          0          0
25460086         55.01      0          0          0          0
25460095         55.37      0          0          0          0
25460097         51.50      0          0          0          0
25460098         51.80      0          0          0          0
25460136         54.97      0          0          0          0
25460173         57.57      0          0          0          0
25460204         59.15      0          0          0          0
25460236         61.78      0          0          0          0
25460244         62.80      0          0          0          0
25460271         67.95      0          0          0          0
25460277         73.11      0          0          0          0
25460296         77.85      0          0          0          0
25460310         80.40      0          0          0          0
25460325         82.10      0          0          0          0
25460370         85.45      0          0          0          0
26480431         88.00      0          0          0          0
26480465         80.00      0          0          0          0
26480803         5.87       0          0          0          0
26480815         84.00      0          0          0          0
26481089         88.83      0          0          0          0
26481292         90.63      0          0          0          0
26481379         92.25      0          0          0          0
26481384         92.04      0          0          0          0
27480074         87.60      0          0          0          0
27480182         88.46      0          0          0          0
27480285         89.91      0          0          0          0
27480309         91.02      0          0          0          0
27480332         95.36      0          0          0          0
27480352         95.20      0          0          0          0
27480382         91.26      0          0          0          0
27480460         89.04      0          0          0          0
27480494         93.01      0          0          0          0
27480506         97.46      0          0          0          0
27480515         105.07     0          0          0          0
27480549         86.12      0          0          0          0
27480633         94.10      0          0          0          0
27480685         93.97      0          0          0          0
27480724         85.82      0          0          0          0
27480730         81.71      0          0          0          0
27480734         96.01      0          0          0          0
27480742         85.54      0          0          0          0
27480750         80.06      0          0          0          0
27480773         60.29      0          0          0          0
27480788         75.84      0          0          0          0
27480813         62.30      0          0          0          0
27480825         70.42      0          0          0          0
27480827         73.68      0          0          0          0
27480843         63.51      0          0          0          0
27480858         67.79      0          0          0          0
27480894         67.14      0          0          0          0
27481554         43.31      0          0          0          0
27481558         38.50      0          0          0          0
27481565         41.78      0          0          0          0
27481578         42.49      0          0          0          0
27481588         43.21      0          0          0          0
27481639         45.10      0          0          0          0
27481659         40.62      0          0          0          0
27481669         38.67      0          0          0          0
27481720         42.23      0          0          0          0
27481752         42.45      0          0          0          0
27481792         44.47      0          0          0          0
27481858         50.54      0          0          0          0
27481967         48.39      0          0          0          0
27482027         49.74      0          0          0          0
27482112         53.73      0          0          0          0
27482155         51.80      0          0          0          0
27490698         55.87      0          0          0          0
27490710         56.02      0          0          0          0
27490726         59.22      0          0          0          0
27490734         58.49      0          0          0          0
27490753         57.34      0          0          0          0
27490769         61.09      0          0          0          0
27490772         61.81      0          0          0          0
27490845         56.99      0          0          0          0
27490865         58.65      0          0          0          0
27490981         55.96      0          0          0          0
27490990         54.13      0          0          0          0
27491053         61.91      0          0          0          0
27491224         62.81      0          0          0          0
27491320         59.75      0          0          0          0
27491359         56.68      0          0          0          0
27491432         54.98      0          0          0          0
27491481         64.60      0          0          0          0
27491538         57.52      0          0          0          0
27491718         57.11      0          0          0          0
27491827         43.60      0          0          0          0
27491878         35.94      0          0          0          0
27491987         34.15      0          0          0          0
27492018         30.00      0          0          0          0
27492042         29.70      0          0          0          0
27492057         24.79      0          0          0          0
27492064         33.75      0          0          0          0
27492066         30.63      0          0          0          0
27492071         35.79      0          0          0          0
27492089         37.57      0          0          0          0
27492216         21.11      0          0          0          0
27492284         21.15      0          0          0          0
27492290         18.10      0          0          0          0
27492306         22.00      0          0          0          0
27492316         18.40      0          0          0          0
27492333         18.40      0          0          0          0
27492435         23.32      0          0          0          0
27492446         24.00      0          0          0          0
27492454         16.54      0          0          0          0
27492460         18.50      0          0          0          0
27492471         17.80      0          0          0          0
27492473         11.30      0          0          0          0
27492487         17.00      0          0          0          0
27492541         10.02      0          0          0          0
27492548         14.40      0          0          0          0
27492596         9.09       0          0          0          0
27492600         14.00      0          0          0          0
27492670         10.09      0          0          0          0
27492679         12.70      0          0          0          0
27492683         7.95       0          0          0          0
27492688         5.99       0          0          0          0
27492692         5.63       0          0          0          0
27492694         5.12       0          0          0          0
27492700         5.03       0          0          0          0
27492746         12.24      0          0          0          0
27492783         11.38      0          0          0          0
27500012         5.93       0          0          0          0
27500021         7.29       0          0          0          0
27500033         5.57       0          0          0          0
27500049         6.24       0          0          0          0
27500057         8.04       0          0          0          0
27500084         7.37       0          0          0          0
27500091         8.23       0          0          0          0
27500095         7.29       0          0          0          0
27500098         6.71       0          0          0          0
27500099         6.00       0          0          0          0
27500101         6.40       0          0          0          0
27500107         6.00       0          0          0          0
27500145         8.31       0          0          0          0
27500199         6.03       0          0          0          0
27500207         9.68       0          0          0          0
27500212         9.98       0          0          0          0
27500219         6.50       0          0          0          0
27500238         5.83       0          0          0          0
27500241         19.80      0          0          0          0
27500255         4.68       0          0          0          0
27500263         17.20      0          0          0          0
27500271         4.64       0          0          0          0
27500336         6.16       0          0          0          0
27500411         6.13       0          0          0          0
27500447         6.03       0          0          0          0
27500526         6.71       0          0          0          0
27500588         6.73       0          0          0          0
27500660         6.93       0          0          0          0
27500677         6.50       0          0          0          0
27510388         34.48      0          0          0          0
27510422         34.14      0          0          0          0
27510454         32.22      0          0          0          0
27510497         27.56      0          0          0          0
27510499         12.20      0          0          0          0
27510530         4.47       0          0          0          0
27510558         3.98       0          0          0          0
27510613         4.20       0          0          0          0
28480124         53.44      0          0          0          0
28480244         57.04      0          0          0          0
28480388         60.54      0          0          0          0
28480555         64.64      0          0          0          0
28480701         68.74      0          0          0          0
28480886         71.54      0          0          0          0
28481023         72.91      0          0          0          0
28481150         74.28      0          0          0          0
28481217         73.51      0          0          0          0
28481384         78.00      0          0          0          0
28481399         78.06      0          0          0          0
28481449         78.11      0          0          0          0
28481550         86.75      0          0          0          0
28481637         88.11      0          0          0          0
28481721         89.64      0          0          0          0
28481841         90.54      0          0          0          0
28481946         96.83      0          0          0          0
28482052         96.12      0          0          0          0
28482111         99.97      0          0          0          0
28482183         98.23      0          0          0          0
28482261         99.93      0          0          0          0
28482400         106.49     0          0          0          0
28483699         97.09      0          0          0          0
28482543         98.99      0          0          0          0
28490066         19.37      0          0          0          0
28490155         13.40      0          0          0          0
28500045         7.09       0          0          0          0
28500047         7.25       0          0          0          0
28500123         7.18       0          0          0          0
29480069         109.60     0          0          0          0
29480135         112.00     0          0          0          0
29480195         114.41     0          0          0          0
29480267         116.30     0          0          0          0
29480362         119.52     0          0          0          0
29480402         119.62     0          0          0          0
29480416         121.00     0          0          0          0
29480421         120.71     0          0          0          0
29480423         121.42     0          0          0          0
29481469         109.99     0          0          0          0
27510797         3.40       0          0          0          0
27510798         33.00      0          0          0          0
27482125         49.69      0          0          0          0
28480102         52.71      0          0          0          0
27492710         17.50      0          0          0          0
kaneohe          17.00      0          0          0          0
kk01xa1860       9.20       0          0          0          0
25460377         88.00      0          0          0          0
kk20bb2010       55.39      0          0          0          0
kk30ga1210       90.62      0          0          0          0
HW_31            -10.39     0          0          0          0
HW_32            -10.28     0          0          0          0
HW_33            -9.83      0          0          0          0
HW_34            -9.52      0          0          0          0
HW_35            -9.18      0          0          0          0
HW_20            0.73       0          0          0          0
HW_28            -3.17      0          0          0          0
HW_90            -7.18      0          0          0          0
HW_73            -10.89     0          0          0          0
HW_74            -10.80     0          0          0          0
HW_75            -10.78     0          0          0          0
HW_76            -10.71     0          0          0          0
HW_23            -7.82      0          0          0          0
HW_78            -10.56     0          0          0          0
HW_77            -10.65     0          0          0          0
HW_24            -6.64      0          0          0          0
HW_25            -6.43      0          0          0          0
HW_71            -11.04     0          0          0          0
HW_27            -4.00      0          0          0          0
HW_70            -11.16     0          0          0          0
HW_29            -5.77      0          0          0          0
HW_30            -5.39      0          0          0          0
HW_79            -8.27      0          0          0          0
HW_80            -8.00      0          0          0          0
HW_81            -7.91      0          0          0          0
HW_82            -7.74      0          0          0          0
HW_83            -7.65      0          0          0          0
HW_84            -7.61      0          0          0          0
HW_85            -7.59      0          0          0          0
HW_86            -7.52      0          0          0          0
HW_87            -7.41      0          0          0          0
HW_88            -7.30      0          0          0          0
HW_45            -6.72      0          0          0          0
HW_26            -6.21      0          0          0          0
HW_20_2          -8.56      0          0          0          0
HW_49            -9.68      0          0          0          0
HW_50            -9.57      0          0          0          0
HW_51            -9.49      0          0          0          0
HW_18            -8.82      0          0          0          0
HW_52            -9.26      0          0          0          0
HW_53            -9.13      0          0          0          0
HW_54            -8.95      0          0          0          0
HW_55            -8.64      0          0          0          0
HW_56            -8.48      0          0          0          0
HW_19            -8.67      0          0          0          0
HW_57            -8.42      0          0          0          0
HW_72            -11.00     0          0          0          0
HW_48            -13.59     0          0          0          0
HW_91            -7.14      0          0          0          0
HW_21            -8.17      0          0          0          0
HW_59            -13.51     0          0          0          0
HW_60            -13.47     0          0          0          0
HW_61            -13.46     0          0          0          0
HW_62            -13.43     0          0          0          0
HW_63            -13.39     0          0          0          0
HW_64            -13.32     0          0          0          0
HW_65            -11.73     0          0          0          0
HW_66            -11.68     0          0          0          0
HW_67            -11.52     0          0          0          0
HW_68            -11.45     0          0          0          0
HW_69            -11.39     0          0          0          0
HW_22            -7.90      0          0          0          0
HW_58            -13.57     0          0          0          0
HW_35_2          -3.75      0          0          0          0
HW_34_2          -4.10      0          0          0          0
HW_31_2          -5.09      0          0          0          0
HW_18_2          -8.93      0          0          0          0
HW_19_2          -8.63      0          0          0          0
HW_20_3          -8.58      0          0          0          0
HW_21_2          -8.51      0          0          0          0
HW_22_2          -8.44      0          0          0          0
HW_23_2          -8.42      0          0          0          0
HW_24_2          -8.35      0          0          0          0
HW_25_2          -8.26      0          0          0          0
HW_26_2          -7.84      0          0          0          0
HW_28_2          -7.70      0          0          0          0
HW_16            -9.10      0          0          0          0
HW_30_2          -5.46      0          0          0          0
HW_31_3          -5.38      0          0          0          0
HW_32_2          -5.32      0          0          0          0
HW_33_2          -5.21      0          0          0          0
HW_34_3          -5.12      0          0          0          0
HW_35_3          -7.51      0          0          0          0
HW_36            -7.46      0          0          0          0
HW_37            -7.25      0          0          0          0
HW_36_2          -2.34      0          0          0          0
HW_39            -6.97      0          0          0          0
HW_38            -5.36      0          0          0          0
HW_41            -6.89      0          0          0          0
HW_42            -5.55      0          0          0          0
HW_27_2          -7.82      0          0          0          0
HW_32_3          -4.72      0          0          0          0
HW_92            -7.10      0          0          0          0
HW_93            -6.99      0          0          0          0
HW_94            -6.87      0          0          0          0
HW_95            -6.29      0          0          0          0
HW_96            -6.14      0          0          0          0
HW_97            -6.07      0          0          0          0
HW_98            -6.01      0          0          0          0
HW_99            -5.92      0          0          0          0
HW_00            -5.90      0          0          0          0
HW_01            -5.79      0          0          0          0
HW_02            -5.69      0          0          0          0
HW_17            -8.98      0          0          0          0
HW_89            -7.26      0          0          0          0
HW_15            -9.16      0          0          0          0
HW_33_3          -4.22      0          0          0          0
HW_03            -10.37     0          0          0          0
HW_04            -10.21     0          0          0          0
HW_05            -10.14     0          0          0          0
HW_06            -10.01     0          0          0          0
HW_07            -9.92      0          0          0          0
HW_08            -9.79      0          0          0          0
HW_09            -9.69      0          0          0          0
HW_10            -9.61      0          0          0          0
HW_11            -9.51      0          0          0          0
HW_12            -9.43      0          0          0          0
HW_13            -9.38      0          0          0          0
HW_14            -9.31      0          0          0          0
HW_AalaFMt       33.50      0          0          0          0
HW_AliiFM        82.30      0          0          0          0
HW_HeeiFM        81.00      0          0          0          0
HW_Kan2FM        1.95       0          0          0          0
HW_Kan3FM        29.90      0          0          0          0
62696            -1.96      0          0          0          0
61066            -1.97      0          0          0          0
HW_Kan4          6.00       0          0          0          0
HW_129933        0          0          0          0          0
HW_134935        -5.66      0          0          0          0
HW_136937        74.00      0          0          0          0
HW_138940        45.39      0          0          0          0
HW_141942        81.62      0          0          0          0
HW_06_2          70.04      0          0          0          0

[OUTFALLS]
;;Name           Elev       Type       Stage      Gated
;;-------------- ---------- ---------- ---------- -----
30540041         5.06       FREE                  NO

[CONDUITS]
;;Name           From             To               Length     Roughness  InOffset   OutOffset  InitFlow   MaxFlow
;;-------------- ---------------- ---------------- ---------- ---------- ---------- ---------- ---------- ----------
604              27500238         27500255         186.00     0.0130     0          0          0          0
561              27492216         27492290         79.00      0.0130     7.70       7.40       0          0
623              27510613         27500107         243.09     0.0130     0          0          0          0
593              27500091         27500057         99.50      0.0130     0          0          0          0
594              27500095         27500091         20.00      0.0130     0          0          0          0
595              27500098         27500095         96.40      0.0130     0.96       0          0          0
597              27500101         27500099         22.50      0.0130     0          0          0          0
598              27500107         27500101         124.78     0.0130     0          0          0          0
599              27500145         27500207         100.00     0.0130     0          0          0          0
600              27500199         27500212         39.30      0.0130     0          0          0          0
601              27500207         27500199         121.44     0.0130     0          0          0          0
591              27500057         27500021         130.50     0.0130     0          0          0          0
603              27500219         27500238         277.89     0.0130     0          0          0          0
589              27500033         27500049         164.76     0.0130     0          0          0          0
605              27500241         27500263         223.84     0.0130     0          0          0          0
608              27500271         27500219         171.15     0.0130     0          0          0          0
606              27500255         27500336         175.07     0.0130     0          0          0          0
607              27500263         27500271         96.61      0.0130     0          0          0          0
609              27500336         27500411         173.31     0.0130     0          0          0          0
610              27500411         27500447         153.84     0.0130     0          0          0          0
611              27500447         27500526         243.64     0.0130     0          0          0          0
612              27500526         27500588         198.00     0.0130     0          0          0          0
613              27500588         27500660         217.00     0.0130     0          0          0          0
590              27500049         27500084         180.69     0.0130     0          0          0          0
616              27510388         27510422         89.05      0.0130     28.85      27.85      0          0
209              30530241         30530236         38.00      0.0130     0          0          0          0
618              27510454         27510497         125.94     0.0130     25.41      10.00      0          0
602              27500212         27500241         287.44     0.0130     0          0          0          0
574              27492541         27492596         289.39     0.0130     2.02       1.39       0          0
562              27492284         27492306         360.00     0.0130     9.15       8.07       0          0
212              30530308         30530290         64.18      0.0130     0          0          0          0
564              27492306         27492333         359.57     0.0130     8.07       6.99       0          0
565              27492316         27492435         178.67     0.0130     7.20       3.37       0          0
566              27492333         27492446         180.57     0.0130     6.99       3.56       0          0
567              27492435         27492454         190.66     0.0130     3.37       3.04       0          0
568              27492446         27492460         147.33     0.0130     3.56       3.24       0          0
569              27492454         27492473         153.72     0.0130     3.04       2.60       0          0
570              27492460         27492487         200.00     0.0130     3.24       2.72       0          0
571              27492471         27492460         27.00      0.0130     12.20      3.24       0          0
572              27492473         27492541         268.09     0.0130     2.60       2.02       0          0
592              27500084         27500145         155.00     0.0130     0          0          0          0
619              27510497         27510499         84.66      0.0130     10.00      0          0          0
575              27492548         27492600         277.30     0.0130     2.11       1.42       0          0
576              27492596         27492670         134.98     0.0130     1.39       1.09       0          0
577              27492600         27492679         136.36     0.0130     1.42       1.03       0          0
578              27492670         27492683         194.86     0.0130     1.09       0.45       0          0
579              27492679         27492694         451.25     0.0130     1.03       0.02       0          0
580              27492683         27492688         284.82     0.0130     0.45       0          0          0
581              27492688         27492692         300.00     0.0130     0          0          0          0
582              27492692         27492700         25.00      0.0130     0          0          0          0
585              27492746         27492679         226.37     0.0130     2.94       1.03       0          0
586              27492783         27492746         87.00      0.0130     3.18       2.94       0          0
583              27492694         27492700         451.00     0.0130     0.02       0          0          0
587              27500012         27500033         178.66     0.0130     0          0          0          0
588              27500021         27500012         180.51     0.0130     0          0          0          0
573              27492487         27492548         277.31     0.0130     2.72       2.11       0          0
660              29480421         29480416         15.00      0.0130     107.21     106.80     0          0
617              27510422         27510454         84.05      0.0130     27.85      25.41      0          0
614              27500660         28500045         268.00     0.0130     0          0          0          0
651              28500047         27500677         15.63      0.0130     0          0          0          0
650              28500045         28500123         122.00     0.0130     0          0          0          0
652              28500123         28500047         140.00     0.0130     0          0          0          0
662              29481469         28482400         300.00     0.0130     97.49      91.49      0          0
654              29480135         29480069         127.00     0.0130     100.13     97.30      0          0
655              29480195         29480135         183.00     0.0130     103.69     100.13     0          0
656              29480267         29480195         146.63     0.0130     104.69     103.69     0          0
657              29480362         29480267         194.97     0.0130     106.02     104.69     0          0
648              28490066         27492783         311.98     0.0130     4.17       3.18       0          0
659              29480416         29480402         72.00      0.0130     106.80     106.62     0          0
216              30530715         30530604         300.00     0.0130     0          0          0          0
661              29480423         29480421         103.76     0.0130     107.92     107.21     0          0
653              29480069         29481469         40.00      0.0130     98.38      97.49      0          0
237              26520143         26520157         373.38     0.0130     0          0          0          0
239              26520202         26520143         408.25     0.0130     0          0          0          0
240              26520285         26520202         542.96     0.0130     0          0          0          0
241              26520304         26520285         269.91     0.0130     0          0          0          0
242              26530297         26520304         239.00     0.0130     0          0          0          0
243              26530319         26530297         342.56     0.0130     0          0          0          0
244              26530348         26530319         606.78     0.0130     0          0          0          0
245              27520028         26530348         558.62     0.0130     0          0          0          0
246              27520039         27520028         18.31      0.0130     0          0          0          0
217              30531552         30530134         279.00     0.0130     0          0          0          0
663              27510797         27510798         11.00      0.0130     0          0          0          0
658              29480402         29480362         88.30      0.0130     106.62     106.02     0          0
635              28481449         28481399         113.65     0.0130     71.61      70.26      0          0
621              27510530         27510558         95.06      0.0130     0          0          0          0
622              27510558         27510613         70.00      0.0130     0          0          0          0
666              28480102         27482125         261.26     0.0130     44.41      39.09      0          0
624              28480124         27482155         231.05     0.0130     44.94      40.39      0          0
625              28480244         28480124         260.00     0.0130     47.54      44.94      0          0
626              28480388         28480244         250.18     0.0130     50.04      47.54      0          0
627              28480555         28480388         289.91     0.0130     54.94      50.04      0          0
628              28480701         28480555         280.00     0.0130     57.74      54.94      0          0
629              28480886         28480701         280.00     0.0130     60.54      57.74      0          0
630              28481023         28480886         167.40     0.0130     62.21      60.54      0          0
631              28481150         28481023         177.44     0.0130     63.98      62.21      0          0
649              28490155         28490066         226.00     0.0130     4.80       4.17       0          0
634              28481399         28481384         32.42      0.0130     70.26      70.00      0          0
620              27510499         27510530         90.50      0.0130     0          0          0          0
636              28481550         28481449         205.19     0.0130     73.25      71.61      0          0
637              28481637         28481550         232.77     0.0130     75.11      73.25      0          0
638              28481721         28481637         255.02     0.0130     76.64      75.11      0          0
639              28481841         28481721         203.72     0.0130     77.84      76.64      0          0
640              28481946         28481841         164.66     0.0130     78.83      77.84      0          0
641              28482052         28481946         215.00     0.0130     80.12      78.83      0          0
646              28483699         28482052         114.96     0.0130     81.59      80.12      0          0
643              28482183         28482111         137.50     0.0130     83.73      81.97      0          0
647              28482543         28482183         137.18     0.0130     85.49      83.73      0          0
645              28482400         28482261         278.00     0.0130     91.49      85.93      0          0
642              28482111         28483699         29.41      0.0130     81.97      81.59      0          0
633              28481384         28481217         474.53     0.0130     70.00      65.01      0          0
644              28482261         28482543         22.00      0.0130     85.93      85.49      0          0
632              28481217         28481150         103.07     0.0130     65.01      63.98      0          0
491              27480285         27480309         156.00     0.0130     77.51      77.02      0          0
560              27492089         27492071         216.11     0.0130     16.77      15.39      0          0
480              25460370         25460325         278.44     0.0130     71.25      69.80      0          0
213              30530396         30530308         300.00     0.0130     0          0          0          0
482              26480465         26480431         45.00      0.0130     68.62      63.12      0          0
485              26481089         26481292         290.00     0.0130     81.33      80.63      0          0
483              26480803         26480815         24.00      0.0130     0          0          0          0
486              26481292         26481379         286.00     0.0130     80.63      80.05      0          0
214              30530494         30530396         300.00     0.0130     0          0          0          0
488              26481384         27480074         280.00     0.0130     79.94      79.10      0          0
487              26481379         26481384         43.00      0.0130     80.05      79.94      0          0
478              25460310         25460296         181.60     0.0130     69.11      67.35      0          0
490              27480182         27480285         256.00     0.0130     78.26      77.51      0          0
477              25460296         25460277         348.00     0.0130     67.35      64.91      0          0
492              27480309         27480332         154.00     0.0130     77.02      76.56      0          0
496              27480460         27480549         300.00     0.0130     75.54      74.52      0          0
495              27480382         27480352         184.00     0.0130     84.06      78.20      0          0
497              27480494         27480382         250.00     0.0130     85.71      84.06      0          0
498              27480506         27480494         200.00     0.0130     86.96      85.71      0          0
499              27480515         27480506         130.00     0.0130     87.77      86.96      0          0
500              27480549         27480633         197.00     0.0130     74.52      73.85      0          0
501              27480633         27480750         238.00     0.0130     73.85      71.56      0          0
502              27480685         27480633         204.72     0.0130     78.17      73.85      0          0
503              27480724         27480788         104.54     0.0130     68.82      63.34      0          0
504              27480730         27480742         121.00     0.0130     70.71      70.04      0          0
563              27492290         27492316         24.00      0.0130     7.40       7.20       0          0
489              27480074         27480182         280.00     0.0130     79.10      78.26      0          0
463              25460058         25460079         192.00     0.0130     50.46      49.50      0          0
202              30530038         29531220         216.00     0.0130     0          0          0          0
203              30530063         30530038         84.00      0.0130     0          0          0          0
205              30530136         30530063         300.00     0.0130     0          0          0          0
204              30530134         30530136         9.00       0.0130     0          0          0          0
206              30530200         30531552         12.00      0.0130     0          0          0          0
207              30530221         30530200         150.00     0.0130     0          0          0          0
208              30530236         30530221         210.00     0.0130     0          0          0          0
210              30530243         30530241         14.00      0.0130     0          0          0          0
211              30530290         30530243         234.00     0.0130     0          0          0          0
458              25460024         25460026         20.00      0.0130     36.01      35.97      0          0
459              25460026         25460048         11.00      0.0130     35.97      35.95      0          0
479              25460325         25460310         168.40     0.0130     69.80      69.11      0          0
462              25460055         25460058         13.00      0.0130     51.85      50.46      0          0
509              27480788         27480827         90.00      0.0130     63.34      62.68      0          0
465              25460083         25460098         12.00      0.0130     44.12      40.50      0          0
466              25460086         25460083         74.00      0.0130     45.21      44.12      0          0
467              25460095         25460098         227.00     0.0130     44.17      40.50      0          0
468              25460097         25460045         215.00     0.0130     40.32      38.00      0          0
469              25460098         25460097         22.00      0.0130     40.50      40.32      0          0
470              25460136         25460098         219.67     0.0130     46.57      40.50      0          0
471              25460173         25460136         200.30     0.0130     48.57      46.57      0          0
472              25460204         25460173         135.00     0.0130     53.75      48.57      0          0
473              25460236         25460204         133.41     0.0130     55.08      53.75      0          0
474              25460244         25460236         51.39      0.0130     55.60      55.08      0          0
475              25460271         25460244         298.61     0.0130     62.45      55.60      0          0
476              25460277         25460271         352.00     0.0130     64.91      62.45      0          0
460              25460045         25460024         130.13     0.0130     36.25      36.01      0          0
546              27491359         27491432         247.76     0.0130     39.68      39.18      0          0
505              27480734         27480685         200.08     0.0130     87.81      78.17      0          0
535              27490734         27490753         181.65     0.0130     47.49      45.34      0          0
536              27490753         27490710         148.14     0.0130     45.34      43.02      0          0
537              27490769         27490734         172.45     0.0130     49.59      47.49      0          0
538              27490772         27490726         201.60     0.0130     52.31      50.72      0          0
539              27490845         27490865         63.13      0.0130     41.99      41.65      0          0
540              27490865         27490990         260.19     0.0130     41.65      41.13      0          0
541              27490981         27490990         45.00      0.0130     42.96      41.13      0          0
542              27490990         27491053         112.00     0.0130     41.13      40.91      0          0
543              27491053         27491224         300.00     0.0130     40.91      40.31      0          0
533              27490710         27490845         257.90     0.0130     43.02      41.99      0          0
545              27491320         27491359         134.91     0.0130     39.95      39.68      0          0
532              27490698         27490710         18.33      0.0130     44.37      43.02      0          0
547              27491432         27491481         100.00     0.0130     38.98      38.78      0          0
548              27491481         27491538         130.00     0.0130     38.78      38.52      0          0
549              27491538         27491718         206.00     0.0130     38.52      38.11      0          0
550              27491718         27491827         120.00     0.0130     38.11      26.30      0          0
551              27491827         27491878         51.00      0.0130     26.30      25.94      0          0
552              27491878         27491987         137.99     0.0130     25.94      25.25      0          0
553              27491987         27492018         130.00     0.0130     25.25      24.50      0          0
554              27492018         27492042         12.00      0.0130     24.50      11.10      0          0
555              27492042         27492216         190.00     0.0130     11.10      7.70       0          0
556              27492057         27492284         224.43     0.0130     11.39      9.15       0          0
557              27492064         27492066         164.00     0.0130     14.05      13.03      0          0
558              27492066         27492057         240.00     0.0130     13.03      11.39      0          0
559              27492071         27492064         212.00     0.0130     15.39      14.05      0          0
544              27491224         27491320         178.87     0.0130     40.31      39.95      0          0
525              27481752         27481720         92.29      0.0130     23.95      20.43      0          0
510              27480813         27480773         163.00     0.0130     54.80      53.59      0          0
511              27480825         27480858         288.00     0.0130     61.92      59.79      0          0
512              27480827         27480825         103.05     0.0130     62.68      61.92      0          0
513              27480843         27480813         163.00     0.0130     56.01      54.80      0          0
514              27480858         27480894         290.00     0.0130     59.79      57.64      0          0
515              27480894         27480843         220.65     0.0130     57.64      56.01      0          0
516              27481554         27481565         25.82      0.0130     37.91      24.98      0          0
518              27481565         27481720         251.29     0.0130     24.98      20.43      0          0
519              27481578         27481565         74.18      0.0130     33.99      24.98      0          0
520              27481588         27481578         122.08     0.0130     34.71      33.99      0          0
521              27481639         27481588         174.44     0.0130     35.40      34.71      0          0
534              27490726         27490769         85.61      0.0130     50.72      49.59      0          0
524              27481720         27481659         326.87     0.0130     20.43      19.28      0          0
507              27480750         27480730         154.00     0.0130     71.56      70.71      0          0
526              27481792         27481752         134.28     0.0130     26.77      23.95      0          0
527              27481858         27481792         290.10     0.0130     33.04      26.77      0          0
528              27481967         27481858         208.17     0.0130     35.89      33.04      0          0
529              27482027         27481967         116.44     0.0130     36.24      35.89      0          0
530              27482112         27482027         163.46     0.0130     36.73      36.24      0          0
665              27482125         27482112         182.40     0.0130     39.09      36.73      0          0
531              27482155         27482112         94.05      0.0130     40.39      36.73      0          0
522              27481659         27481669         342.59     0.0130     19.28      18.07      0          0
493              27480332         27480460         300.00     0.0130     76.56      75.54      0          0
494              27480352         27480332         77.00      0.0130     78.20      76.56      0          0
215              30530604         30530494         300.00     0.0130     0          0          0          0
508              27480773         27490772         173.22     0.0130     53.59      52.31      0          0
517              27481558         27492089         85.00      0.0130     17.30      16.77      0          0
523              27481669         27481558         192.35     0.0130     18.07      17.30      0          0
396              29531039         29531035         19.00      0.0130     0          0          0          0
343              28540142         28540128         112.67     0.0130     0          0          0          0
377              29530679         29530655         140.00     0.0130     7.03       5.49       0          0
378              29530683         29530635         280.33     0.0130     0          0          0          0
380              29530700         29530683         212.10     0.0130     0          0          0          0
381              29530705         29530700         221.27     0.0130     0          0          0          0
382              29530710         29530697         136.00     0.0130     10.00      8.50       0          0
383              29530727         29530705         300.00     0.0130     0          0          0          0
384              29530765         29530727         300.00     0.0130     0          0          0          0
385              29530781         29530765         300.22     0.0130     0          0          0          0
386              29530826         29530781         300.00     0.0130     0          0          0          0
375              29530643         29530641         30.00      0.0130     4.52       4.19       0          0
389              29530852         29530828         180.00     0.0130     0          0          0          0
374              29530641         29530620         201.00     0.0130     4.19       0.92       0          0
397              29531109         29531039         271.50     0.0130     0          0          0          0
398              29531185         29531109         263.83     0.0130     0          0          0          0
399              29531220         29531185         300.00     0.0130     0          0          0          0
365              29530561         29530590         267.42     0.0130     0          0          0          0
388              29530828         29530827         13.00      0.0130     0          0          0          0
395              29531035         29531026         30.00      0.0130     0          0          0          0
367              29530599         29530590         67.00      0.0130     0          0          0          0
379              29530697         29530679         134.00     0.0130     8.50       7.03       0          0
400              29540053         28540241         182.00     0.0130     0          0          0          0
401              29540097         28540227         300.00     0.0130     0          0          0          0
402              29540120         29540121         66.41      0.0130     0          0          0          0
344              28540147         28540120         129.16     0.0130     0          0          0          0
406              29540175         29540142         120.40     0.0130     0          0          0          0
387              29530827         29530826         25.00      0.0130     0          0          0          0
358              29520244         29520243         313.00     0.0130     44.00      36.80      0          0
247              27520121         27520039         443.07     0.0130     0          0          0          0
346              28540178         28540147         117.21     0.0130     0          0          0          0
347              28540227         28540176         191.83     0.0130     0          0          0          0
348              28540241         28540178         289.87     0.0130     0          0          0          0
340              28540120         28540097         224.84     0.0130     0          0          0          0
350              29520078         29520076         20.44      0.0130     0          0          0          0
351              29520118         29520078         338.00     0.0130     0          0          0          0
352              29520144         29520118         212.71     0.0130     0          0          0          0
353              29520190         29520144         372.51     0.0130     0          0          0          0
354              29520209         29520190         200.00     0.0130     0          0          0          0
355              29520241         29530710         345.00     0.0130     17.00      10.00      0          0
376              29530655         29530643         88.00      0.0130     5.49       4.52       0          0
357              29520243         29520242         192.00     0.0130     31.80      25.75      0          0
405              29540164         29540097         220.25     0.0130     0          0          0          0
359              29520245         29520244         72.00      0.0130     44.80      44.00      0          0
360              29520246         29520245         66.00      0.0130     45.53      44.80      0          0
361              29520248         29520246         211.00     0.0130     53.18      46.53      0          0
362              29520254         29520248         240.00     0.0130     63.20      56.86      0          0
363              29520258         29520254         73.00      0.0130     64.00      63.20      0          0
349              29520076         28532887         572.00     0.0130     0          0          0          0
364              29530494         29520209         171.12     0.0130     0          0          0          0
KRdFM_Rd         29530590         29530494         950.00     0.0130     0          0          0          0
368              29530606         29530561         313.87     0.0130     0          0          0          0
369              29530611         29530606         40.00      0.0130     0          0          0          0
371              29530615         29530611         54.58      0.0130     0          0          0          0
370              29530614         29530599         218.30     0.0130     0          0          0          0
373              29530635         29530615         213.84     0.0130     0          0          0          0
356              29520242         29520241         214.00     0.0130     24.75      18.00      0          0
450              29550349         29550297         256.08     0.0130     0          0          0          0
404              29540142         29540120         124.43     0.0130     0          0          0          0
437              29550002         29550009         204.00     0.0130     32.50      26.00      0          0
438              29550009         29550015         230.00     0.0130     26.00      14.00      0          0
439              29550015         29550018         88.00      0.0130     14.00      7.00       0          0
441              29550108         29550128         80.00      0.0130     0          0          0          0
443              29550165         29550108         335.59     0.0130     0          0          0          0
444              29550173         29550165         75.44      0.0130     0          0          0          0
445              29550178         29550173         58.21      0.0130     0          0          0          0
446              29550203         29550178         152.00     0.0130     0          0          0          0
447              29550234         29550203         161.01     0.0130     0          0          0          0
440              29550018         29540319         142.00     0.0130     7.00       3.82       0          0
449              29550297         29550258         214.09     0.0130     0          0          0          0
436              29542277         29542174         201.72     0.0130     0          0          0          0
451              29550383         29550349         204.00     0.0130     0          0          0          0
452              29550427         29550383         213.62     0.0130     0          0          0          0
453              29550469         29550427         227.55     0.0130     0          0          0          0
454              29550501         29550469         187.54     0.0130     0          0          0          0
455              29550531         29550501         200.00     0.0130     0.49       0          0          0
456              29550581         29550531         215.00     0.0130     1.09       0.49       0          0
457              29550636         29550581         250.00     0.0130     1.74       1.09       0          0
390              29530864         29530852         110.70     0.0130     0          0          0          0
372              29530620         29530614         125.19     0.0130     0          0          0          0
394              29531026         29530942         336.02     0.0130     0          0          0          0
393              29530942         29530901         336.07     0.0130     0          0          0          0
392              29530901         29530900         96.58      0.0130     0          0          0          0
391              29530900         29530864         280.74     0.0130     0          0          0          0
448              29550258         29550234         167.55     0.0130     0          0          0          0
422              29540716         29540608         227.00     0.0130     0          0          0          0
409              29540319         29540341         68.00      0.0130     3.82       1.79       0          0
410              29540328         29540284         128.00     0.0130     0          0          0          0
411              29540341         29540374         75.00      0.0130     1.79       1.61       0          0
412              29540357         29540328         95.27      0.0130     0          0          0          0
413              29540361         29540231         223.20     0.0130     0          0          0          0
414              29540374         29540471         200.00     0.0130     1.61       1.11       0          0
415              29540407         29540357         133.73     0.0130     0          0          0          0
416              29540447         29540407         117.00     0.0130     0.08       0          0          0
417              29540466         29540361         189.15     0.0130     0          0          0          0
418              29540471         29540542         150.12     0.0130     1.11       0.73       0          0
419              29540476         29540447         69.00      0.0130     0.25       0.08       0          0
407              29540231         29540164         163.00     0.0130     0          0          0          0
421              29540608         29540466         265.14     0.0130     0          0          0          0
408              29540284         29540175         297.00     0.0130     0          0          0          0
423              29540872         29540716         230.00     0.0130     0          0          0          0
424              29540973         29540872         230.00     0.0130     0          0          0          0
425              29541113         29540973         227.83     0.0130     0          0          0          0
995.1            29541136         29541113         300.00     0.0130     0          0          0          0
KhtsFM           29541383         29541136         900.00     0.0130     0          0          0          0
427              29541377         29541383         21.10      0.0130     0          0          0          0
429              29541427         29541377         166.45     0.0130     0          0          0          0
430              29541429         29541427         41.75      0.0130     0          0          0          0
31               HW_31            29541429         150.00     0.0130     0          0          0          0
32               HW_32            29541466         246.41     0.0130     0          0          0          0
33               HW_33            29541632         311.70     0.0130     0          0          0          0
34               HW_34            29541828         315.70     0.0130     0          0          0          0
35               HW_35            29542022         228.79     0.0130     0          0          0          0
20               HW_20            29540476         190.00     0.0130     0.73       0.25       0          0
28               HW_28            30540432         150.00     0.0130     0          0          0          0
90               HW_90            28521166         162.00     0.0130     0          0          0          0
73               HW_73            27530580         275.23     0.0130     0          0          0          0
74               HW_74            27530647         149.30     0.0130     0          0          0          0
75               HW_75            27530677         55.00      0.0130     0          0          0          0
76               HW_76            27530693         181.85     0.0130     0          0          0          0
23               HW_23            30540270         78.56      0.0130     0          0          0          0
78               HW_78            27530780         232.89     0.0130     0          0          0          0
77               HW_77            27530751         164.60     0.0130     0          0          0          0
24               HW_24            30540289         102.99     0.0130     0          0          0          0
25               HW_25            30540312         114.80     0.0130     0          0          0          0
71               HW_71            27530495         292.49     0.0130     0          0          0          0
27               HW_27            30540409         191.00     0.0130     0          0          0          0
70               HW_70            27530443         204.59     0.0130     0          0          0          0
29               HW_29            30540409         157.00     0.0130     0          0          0          0
30               HW_30            30540479         318.00     0.0130     0          0          0          0
79               HW_79            27521335         594.17     0.0130     0          0          0          0
80               HW_80            28520128         546.03     0.0130     0          0          0          0
81               HW_81            28520280         170.73     0.0130     0          0          0          0
82               HW_82            28520371         326.24     0.0130     0          0          0          0
83               HW_83            28520574         176.50     0.0130     0          0          0          0
84               HW_84            28520701         69.78      0.0130     0          0          0          0
85               HW_85            28520733         63.72      0.0130     0          0          0          0
86               HW_86            28520787         125.00     0.0130     0          0          0          0
87               HW_87            28520862         207.59     0.0130     0          0          0          0
88               HW_88            28520988         227.00     0.0130     0          0          0          0
45               HW_45            28540142         331.59     0.0130     0          0          0          0
26               HW_26            30540331         216.99     0.0130     0          0          0          0
20_2             HW_20_2          30540097         232.62     0.0130     0          0          0          0
49               HW_49            27530268         332.00     0.0130     0          0          0          0
50               HW_50            27520546         111.00     0.0130     0          0          0          0
51               HW_51            27520560         83.87      0.0130     0          0          0          0
18               HW_18            29542277         155.69     0.0130     0          0          0          0
52               HW_52            27520578         486.00     0.0130     0          0          0          0
53               HW_53            27520697         340.00     0.0130     0          0          0          0
54               HW_54            27520797         362.00     0.0130     0          0          0          0
55               HW_55            27520887         544.00     0.0130     0          0          0          0
56               HW_56            27521026         360.00     0.0130     0          0          0          0
19               HW_19            30540041         146.04     0.0130     0          0          0          0
57               HW_57            27521158         461.08     0.0130     0          0          0          0
72               HW_72            27530552         96.72      0.0130     0          0          0          0
48               HW_48            27520121         456.93     0.0130     0          0          0          0
91               HW_91            28521269         71.93      0.0130     0          0          0          0
21               HW_21            30540150         277.25     0.0130     0          0          0          0
59               HW_59            27530144         177.00     0.0130     0          0          0          0
60               HW_60            27530172         85.00      0.0130     0          0          0          0
61               HW_61            27530191         47.42      0.0130     0          0          0          0
62               HW_62            27530197         58.46      0.0130     0          0          0          0
63               HW_63            27530206         101.99     0.0130     0          0          0          0
64               HW_64            27530229         198.41     0.0130     0          0          0          0
65               HW_65            27530268         217.22     0.0130     0          0          0          0
66               HW_66            27530312         117.72     0.0130     0          0          0          0
67               HW_67            27530334         284.43     0.0130     0          0          0          0
68               HW_68            27530373         177.00     0.0130     0          0          0          0
69               HW_69            27530400         220.79     0.0130     0          0          0          0
22               HW_22            30540207         270.00     0.0130     0          0          0          0
58               HW_58            27520232         297.07     0.0130     0          0          0          0
35_2             HW_35_2          30541204         290.60     0.0130     0          0          0          0
34_2             HW_34_2          30541077         162.80     0.0130     0          0          0          0
31_2             HW_31_2          30540622         250.06     0.0130     0          0          0          0
18_2             HW_18_2          28531133         135.22     0.0130     0          0          0          0
19_2             HW_19_2          28531190         185.91     0.0130     0          0          0          0
20_3             HW_20_3          28531322         119.36     0.0130     0          0          0          0
21_2             HW_21_2          28531383         216.25     0.0130     0          0          0          0
22_2             HW_22_2          28531497         179.70     0.0130     0          0          0          0
23_2             HW_23_2          28531605         60.53      0.0130     0          0          0          0
24_2             HW_24_2          28531639         179.74     0.0130     0          0          0          0
25_2             HW_25_2          28531740         254.04     0.0130     0          0          0          0
26_2             HW_26_2          28531844         284.26     0.0130     0          0          0          0
28_2             HW_28_2          28532028         312.52     0.0130     0          0          0          0
16               HW_16            28530910         157.25     0.0130     0          0          0          0
30_2             HW_30_2          28532303         167.00     0.0130     0          0          0          0
31_3             HW_31_3          28532445         152.00     0.0130     0          0          0          0
32_2             HW_32_2          28532556         108.00     0.0130     0          0          0          0
33_2             HW_33_2          28532640         202.06     0.0130     0          0          0          0
34_3             HW_34_3          28532791         147.50     0.0130     0          0          0          0
35_3             HW_35_3          28532120         470.31     0.0130     0          0          0          0
36               HW_36            28540032         133.89     0.0130     0          0          0          0
37               HW_37            28540039         312.27     0.0130     0          0          0          0
36_2             HW_36_2          30541434         15.00      0.0130     0          0          0          0
39               HW_39            28540070         312.68     0.0130     0          0          0          0
38               HW_38            28540140         188.00     0.0130     0          0          0          0
41               HW_41            28540102         209.88     0.0130     0          0          0          0
42               HW_42            28540176         175.00     0.0130     0          0          0          0
27_2             HW_27_2          28532007         45.60      0.0130     0          0          0          0
32_3             HW_32_3          30540745         304.97     0.0130     0          0          0          0
92               HW_92            28521316         80.07      0.0130     0          0          0          0
93               HW_93            28521361         233.09     0.0130     0          0          0          0
94               HW_94            28521461         242.16     0.0130     0          0          0          0
95               HW_95            28521562         140.00     0.0130     0          0          0          0
96               HW_96            28521626         250.00     0.0130     0          0          0          0
97               HW_97            28521764         136.00     0.0130     0          0          0          0
98               HW_98            28521830         106.00     0.0130     0          0          0          0
99               HW_99            28521873         158.00     0.0130     0          0          0          0
00               HW_00            28521963         52.00      0.0130     0          0          0          0
01               HW_01            28521980         207.00     0.0130     0          0          0          0
02               HW_02            28522075         193.00     0.0130     0          0          0          0
17               HW_17            28530977         291.87     0.0130     0          0          0          0
89               HW_89            28521120         70.41      0.0130     0          0          0          0
15               HW_15            28530809         234.61     0.0130     0          0          0          0
33_3             HW_33_3          30540912         224.21     0.0130     0          0          0          0
03               HW_03            27530852         209.16     0.0130     0          0          0          0
04               HW_04            28530050         86.65      0.0130     0          0          0          0
05               HW_05            28530069         338.85     0.0130     0          0          0          0
06               HW_06            28530178         157.38     0.0130     0          0          0          0
07               HW_07            28530242         216.02     0.0130     0          0          0          0
08               HW_08            28530320         74.55      0.0130     0          0          0          0
09               HW_09            28530342         246.10     0.0130     0          0          0          0
10               HW_10            28530462         200.85     0.0130     0          0          0          0
11               HW_11            28530542         245.00     0.0130     0          0          0          0
12               HW_12            28530644         180.75     0.0130     0          0          0          0
13               HW_13            28530717         142.00     0.0130     0          0          0          0
14               HW_14            28530770         80.45      0.0130     0          0          0          0
329              28532303         kk01xa1860       185.00     0.0130     0          0          0          0
AalaFMt          HW_AalaFMt       29550002         33.00      0.0140     33.50      32.50      0          0
AliiFM           HW_AliiFM        26481089         33.00      0.0140     82.30      81.33      0          0
HeeiFM           HW_HeeiFM        26481384         33.00      0.0140     81.00      79.94      0          0
Kan2FM           HW_Kan2FM        27500098         33.00      0.0140     1.95       0.96       0          0
Kan3FM           HW_Kan3FM        27510388         33.00      0.0140     29.90      28.85      0          0
62695            62696            61066            262.00     0.0130     0          0          0          0
Kan1FM           27500677         27492710         33.00      0.0140     0          0          0          0
584              27492700         27492710         24.00      0.0130     0          0          0          0
Kan4             HW_Kan4          kaneohe          33.00      0.0140     6.00       5.00       0          0
AhuiFM           25460048         kaneohe          333.00     0.0140     34.25      5.00       0          0
129933           HW_129933        26520157         100.00     0.0130     0          0          0          0
134935           HW_134935        28522174         35.00      0.0140     0          0          0          0
136937           HW_136937        25460370         79.00      0.0140     74.00      71.25      0          0
464              25460079         kk20bb2010       200.00     0.0140     49.50      45.39      0          0
138940           HW_138940        25460086         138.00     0.0140     45.39      45.21      0          0
141942           HW_141942        28481637         142.00     0.0140     81.62      75.11      0          0
06_2             HW_06_2          27480724         110.00     0.0140     70.04      68.82      0          0

[XSECTIONS]
;;Link           Shape        Geom1      Geom2      Geom3      Geom4      Barrels
;;-------------- ------------ ---------- ---------- ---------- ---------- ----------
604              CIRCULAR     2.25       0          0          0          1
561              CIRCULAR     3.00       0          0          0          1
623              CIRCULAR     1.50       0          0          0          1
593              CIRCULAR     1.75       0          0          0          1
594              CIRCULAR     1.75       0          0          0          1
595              CIRCULAR     1.75       0          0          0          1
597              CIRCULAR     2.00       0          0          0          1
598              CIRCULAR     1.75       0          0          0          1
599              CIRCULAR     2.00       0          0          0          1
600              CIRCULAR     2.00       0          0          0          1
601              CIRCULAR     2.00       0          0          0          1
591              CIRCULAR     1.75       0          0          0          1
603              CIRCULAR     2.25       0          0          0          1
589              CIRCULAR     1.75       0          0          0          1
605              CIRCULAR     2.25       0          0          0          1
608              CIRCULAR     2.25       0          0          0          1
606              CIRCULAR     2.25       0          0          0          1
607              CIRCULAR     2.25       0          0          0          1
609              CIRCULAR     2.25       0          0          0          1
610              CIRCULAR     2.25       0          0          0          1
611              CIRCULAR     2.25       0          0          0          1
612              CIRCULAR     2.25       0          0          0          1
613              CIRCULAR     2.25       0          0          0          1
590              CIRCULAR     1.75       0          0          0          1
616              CIRCULAR     1.25       0          0          0          1
209              CIRCULAR     2.00       0          0          0          1
618              CIRCULAR     1.25       0          0          0          1
602              CIRCULAR     2.00       0          0          0          1
574              CIRCULAR     3.00       0          0          0          1
562              CIRCULAR     2.50       0          0          0          1
212              CIRCULAR     2.00       0          0          0          1
564              CIRCULAR     2.50       0          0          0          1
565              CIRCULAR     3.00       0          0          0          1
566              CIRCULAR     3.00       0          0          0          1
567              CIRCULAR     3.00       0          0          0          1
568              CIRCULAR     3.00       0          0          0          1
569              CIRCULAR     3.00       0          0          0          1
570              CIRCULAR     3.00       0          0          0          1
571              CIRCULAR     0.83       0          0          0          1
572              CIRCULAR     3.00       0          0          0          1
592              CIRCULAR     1.75       0          0          0          1
619              CIRCULAR     1.25       0          0          0          1
575              CIRCULAR     3.00       0          0          0          1
576              CIRCULAR     3.00       0          0          0          1
577              CIRCULAR     3.00       0          0          0          1
578              CIRCULAR     3.00       0          0          0          1
579              CIRCULAR     3.00       0          0          0          1
580              CIRCULAR     3.00       0          0          0          1
581              CIRCULAR     3.00       0          0          0          1
582              CIRCULAR     3.00       0          0          0          1
585              CIRCULAR     1.75       0          0          0          1
586              CIRCULAR     1.75       0          0          0          1
583              CIRCULAR     3.00       0          0          0          1
587              CIRCULAR     1.75       0          0          0          1
588              CIRCULAR     1.75       0          0          0          1
573              CIRCULAR     3.00       0          0          0          1
660              CIRCULAR     2.00       0          0          0          1
617              CIRCULAR     1.25       0          0          0          1
614              CIRCULAR     2.25       0          0          0          1
651              CIRCULAR     2.25       0          0          0          1
650              CIRCULAR     2.25       0          0          0          1
652              CIRCULAR     2.25       0          0          0          1
662              CIRCULAR     1.75       0          0          0          1
654              CIRCULAR     1.75       0          0          0          1
655              CIRCULAR     1.75       0          0          0          1
656              CIRCULAR     2.00       0          0          0          1
657              CIRCULAR     2.00       0          0          0          1
648              CIRCULAR     1.75       0          0          0          1
659              CIRCULAR     2.00       0          0          0          1
216              CIRCULAR     2.00       0          0          0          1
661              CIRCULAR     2.00       0          0          0          1
653              CIRCULAR     1.75       0          0          0          1
237              CIRCULAR     5.50       0          0          0          1
239              CIRCULAR     5.50       0          0          0          1
240              CIRCULAR     5.50       0          0          0          1
241              CIRCULAR     5.50       0          0          0          1
242              CIRCULAR     5.50       0          0          0          1
243              CIRCULAR     5.50       0          0          0          1
244              CIRCULAR     5.50       0          0          0          1
245              CIRCULAR     5.50       0          0          0          1
246              CIRCULAR     5.50       0          0          0          1
217              CIRCULAR     2.00       0          0          0          1
663              CIRCULAR     1.50       0          0          0          1
658              CIRCULAR     2.00       0          0          0          1
635              CIRCULAR     2.00       0          0          0          1
621              CIRCULAR     1.25       0          0          0          1
622              CIRCULAR     1.25       0          0          0          1
666              CIRCULAR     0.67       0          0          0          1
624              CIRCULAR     2.00       0          0          0          1
625              CIRCULAR     2.00       0          0          0          1
626              CIRCULAR     2.00       0          0          0          1
627              CIRCULAR     2.00       0          0          0          1
628              CIRCULAR     2.00       0          0          0          1
629              CIRCULAR     2.00       0          0          0          1
630              CIRCULAR     2.00       0          0          0          1
631              CIRCULAR     2.00       0          0          0          1
649              CIRCULAR     1.75       0          0          0          1
634              CIRCULAR     2.00       0          0          0          1
620              CIRCULAR     1.25       0          0          0          1
636              CIRCULAR     2.00       0          0          0          1
637              CIRCULAR     2.00       0          0          0          1
638              CIRCULAR     2.00       0          0          0          1
639              CIRCULAR     2.00       0          0          0          1
640              CIRCULAR     2.00       0          0          0          1
641              CIRCULAR     2.00       0          0          0          1
646              CIRCULAR     1.75       0          0          0          1
643              CIRCULAR     1.75       0          0          0          1
647              CIRCULAR     1.75       0          0          0          1
645              CIRCULAR     1.75       0          0          0          1
642              CIRCULAR     1.75       0          0          0          1
633              CIRCULAR     2.00       0          0          0          1
644              CIRCULAR     1.75       0          0          0          1
632              CIRCULAR     2.00       0          0          0          1
491              CIRCULAR     2.25       0          0          0          1
560              CIRCULAR     2.25       0          0          0          1
480              CIRCULAR     1.25       0          0          0          1
213              CIRCULAR     2.00       0          0          0          1
482              CIRCULAR     0.67       0          0          0          1
485              CIRCULAR     2.25       0          0          0          1
483              CIRCULAR     0.83       0          0          0          1
486              CIRCULAR     2.25       0          0          0          1
214              CIRCULAR     2.00       0          0          0          1
488              CIRCULAR     2.25       0          0          0          1
487              CIRCULAR     2.25       0          0          0          1
478              CIRCULAR     1.25       0          0          0          1
490              CIRCULAR     2.25       0          0          0          1
477              CIRCULAR     1.25       0          0          0          1
492              CIRCULAR     2.25       0          0          0          1
496              CIRCULAR     2.25       0          0          0          1
495              CIRCULAR     1.00       0          0          0          1
497              CIRCULAR     1.00       0          0          0          1
498              CIRCULAR     1.00       0          0          0          1
499              CIRCULAR     1.00       0          0          0          1
500              CIRCULAR     2.25       0          0          0          1
501              CIRCULAR     2.25       0          0          0          1
502              CIRCULAR     1.00       0          0          0          1
503              CIRCULAR     2.25       0          0          0          1
504              CIRCULAR     2.25       0          0          0          1
563              CIRCULAR     3.00       0          0          0          1
489              CIRCULAR     2.25       0          0          0          1
463              CIRCULAR     1.00       0          0          0          1
202              CIRCULAR     2.00       0          0          0          1
203              CIRCULAR     2.00       0          0          0          1
205              CIRCULAR     2.00       0          0          0          1
204              CIRCULAR     2.00       0          0          0          1
206              CIRCULAR     2.00       0          0          0          1
207              CIRCULAR     2.00       0          0          0          1
208              CIRCULAR     2.00       0          0          0          1
210              CIRCULAR     2.00       0          0          0          1
211              CIRCULAR     2.00       0          0          0          1
458              CIRCULAR     2.00       0          0          0          1
459              CIRCULAR     2.00       0          0          0          1
479              CIRCULAR     1.25       0          0          0          1
462              CIRCULAR     1.00       0          0          0          1
509              CIRCULAR     2.25       0          0          0          1
465              CIRCULAR     1.00       0          0          0          1
466              CIRCULAR     1.00       0          0          0          1
467              CIRCULAR     0.83       0          0          0          1
468              CIRCULAR     2.00       0          0          0          1
469              CIRCULAR     2.00       0          0          0          1
470              CIRCULAR     1.25       0          0          0          1
471              CIRCULAR     1.25       0          0          0          1
472              CIRCULAR     1.25       0          0          0          1
473              CIRCULAR     1.25       0          0          0          1
474              CIRCULAR     1.25       0          0          0          1
475              CIRCULAR     1.25       0          0          0          1
476              CIRCULAR     1.25       0          0          0          1
460              CIRCULAR     2.00       0          0          0          1
546              CIRCULAR     3.00       0          0          0          1
505              CIRCULAR     0.83       0          0          0          1
535              CIRCULAR     2.25       0          0          0          1
536              CIRCULAR     2.25       0          0          0          1
537              CIRCULAR     3.00       0          0          0          1
538              CIRCULAR     2.25       0          0          0          1
539              CIRCULAR     3.00       0          0          0          1
540              CIRCULAR     3.00       0          0          0          1
541              CIRCULAR     1.25       0          0          0          1
542              CIRCULAR     3.00       0          0          0          1
543              CIRCULAR     3.00       0          0          0          1
533              CIRCULAR     3.00       0          0          0          1
545              CIRCULAR     3.00       0          0          0          1
532              CIRCULAR     1.00       0          0          0          1
547              CIRCULAR     3.00       0          0          0          1
548              CIRCULAR     3.00       0          0          0          1
549              CIRCULAR     3.00       0          0          0          1
550              CIRCULAR     3.00       0          0          0          1
551              CIRCULAR     3.00       0          0          0          1
552              CIRCULAR     3.00       0          0          0          1
553              CIRCULAR     3.00       0          0          0          1
554              CIRCULAR     3.00       0          0          0          1
555              CIRCULAR     3.00       0          0          0          1
556              CIRCULAR     2.25       0          0          0          1
557              CIRCULAR     2.25       0          0          0          1
558              CIRCULAR     2.25       0          0          0          1
559              CIRCULAR     2.25       0          0          0          1
544              CIRCULAR     3.00       0          0          0          1
525              CIRCULAR     2.00       0          0          0          1
510              CIRCULAR     2.25       0          0          0          1
511              CIRCULAR     2.25       0          0          0          1
512              CIRCULAR     2.25       0          0          0          1
513              CIRCULAR     2.25       0          0          0          1
514              CIRCULAR     2.25       0          0          0          1
515              CIRCULAR     2.25       0          0          0          1
516              CIRCULAR     1.25       0          0          0          1
518              CIRCULAR     2.00       0          0          0          1
519              CIRCULAR     1.50       0          0          0          1
520              CIRCULAR     1.50       0          0          0          1
521              CIRCULAR     1.50       0          0          0          1
534              CIRCULAR     2.25       0          0          0          1
524              CIRCULAR     2.50       0          0          0          1
507              CIRCULAR     2.25       0          0          0          1
526              CIRCULAR     2.00       0          0          0          1
527              CIRCULAR     2.00       0          0          0          1
528              CIRCULAR     2.00       0          0          0          1
529              CIRCULAR     2.50       0          0          0          1
530              CIRCULAR     2.50       0          0          0          1
665              CIRCULAR     0.67       0          0          0          1
531              CIRCULAR     2.00       0          0          0          1
522              CIRCULAR     2.50       0          0          0          1
493              CIRCULAR     2.25       0          0          0          1
494              CIRCULAR     1.00       0          0          0          1
215              CIRCULAR     2.00       0          0          0          1
508              CIRCULAR     2.25       0          0          0          1
517              CIRCULAR     2.25       0          0          0          1
523              CIRCULAR     2.50       0          0          0          1
396              CIRCULAR     2.25       0          0          0          1
343              CIRCULAR     3.00       0          0          0          1
377              CIRCULAR     1.50       0          0          0          1
378              CIRCULAR     2.25       0          0          0          1
380              CIRCULAR     2.25       0          0          0          1
381              CIRCULAR     2.25       0          0          0          1
382              CIRCULAR     1.50       0          0          0          1
383              CIRCULAR     2.25       0          0          0          1
384              CIRCULAR     2.25       0          0          0          1
385              CIRCULAR     2.25       0          0          0          1
386              CIRCULAR     2.25       0          0          0          1
375              CIRCULAR     1.50       0          0          0          1
389              CIRCULAR     2.25       0          0          0          1
374              CIRCULAR     1.50       0          0          0          1
397              CIRCULAR     2.25       0          0          0          1
398              CIRCULAR     2.25       0          0          0          1
399              CIRCULAR     2.00       0          0          0          1
365              CIRCULAR     3.00       0          0          0          1
388              CIRCULAR     2.25       0          0          0          1
395              CIRCULAR     2.25       0          0          0          1
367              CIRCULAR     3.00       0          0          0          1
379              CIRCULAR     1.50       0          0          0          1
400              CIRCULAR     1.75       0          0          0          1
401              CIRCULAR     2.00       0          0          0          1
402              CIRCULAR     1.75       0          0          0          1
344              CIRCULAR     1.75       0          0          0          1
406              CIRCULAR     1.75       0          0          0          1
387              CIRCULAR     2.25       0          0          0          1
358              CIRCULAR     1.50       0          0          0          1
247              CIRCULAR     4.50       0          0          0          1
346              CIRCULAR     1.75       0          0          0          1
347              CIRCULAR     2.00       0          0          0          1
348              CIRCULAR     1.75       0          0          0          1
340              CIRCULAR     1.75       0          0          0          1
350              CIRCULAR     3.50       0          0          0          1
351              CIRCULAR     3.50       0          0          0          1
352              CIRCULAR     3.50       0          0          0          1
353              CIRCULAR     3.00       0          0          0          1
354              CIRCULAR     3.00       0          0          0          1
355              CIRCULAR     1.50       0          0          0          1
376              CIRCULAR     1.50       0          0          0          1
357              CIRCULAR     1.50       0          0          0          1
405              CIRCULAR     2.00       0          0          0          1
359              CIRCULAR     1.50       0          0          0          1
360              CIRCULAR     1.50       0          0          0          1
361              CIRCULAR     1.50       0          0          0          1
362              CIRCULAR     1.50       0          0          0          1
363              CIRCULAR     1.50       0          0          0          1
349              CIRCULAR     3.50       0          0          0          1
364              CIRCULAR     3.00       0          0          0          1
KRdFM_Rd         CIRCULAR     1.67       0          0          0          1
368              CIRCULAR     3.00       0          0          0          1
369              CIRCULAR     2.25       0          0          0          1
371              CIRCULAR     2.25       0          0          0          1
370              CIRCULAR     1.50       0          0          0          1
373              CIRCULAR     2.25       0          0          0          1
356              CIRCULAR     1.50       0          0          0          1
450              CIRCULAR     1.00       0          0          0          1
404              CIRCULAR     1.75       0          0          0          1
437              CIRCULAR     0.83       0          0          0          1
438              CIRCULAR     0.83       0          0          0          1
439              CIRCULAR     0.83       0          0          0          1
441              CIRCULAR     1.50       0          0          0          1
443              CIRCULAR     1.25       0          0          0          1
444              CIRCULAR     1.25       0          0          0          1
445              CIRCULAR     1.25       0          0          0          1
446              CIRCULAR     1.25       0          0          0          1
447              CIRCULAR     1.25       0          0          0          1
440              CIRCULAR     0.83       0          0          0          1
449              CIRCULAR     1.00       0          0          0          1
436              CIRCULAR     2.00       0          0          0          1
451              CIRCULAR     1.00       0          0          0          1
452              CIRCULAR     1.00       0          0          0          1
453              CIRCULAR     1.00       0          0          0          1
454              CIRCULAR     1.00       0          0          0          1
455              CIRCULAR     1.00       0          0          0          1
456              CIRCULAR     1.00       0          0          0          1
457              CIRCULAR     1.00       0          0          0          1
390              CIRCULAR     2.25       0          0          0          1
372              CIRCULAR     1.50       0          0          0          1
394              CIRCULAR     2.25       0          0          0          1
393              CIRCULAR     2.25       0          0          0          1
392              CIRCULAR     2.25       0          0          0          1
391              CIRCULAR     2.25       0          0          0          1
448              CIRCULAR     1.25       0          0          0          1
422              CIRCULAR     2.00       0          0          0          1
409              CIRCULAR     0.83       0          0          0          1
410              CIRCULAR     1.50       0          0          0          1
411              CIRCULAR     1.50       0          0          0          1
412              CIRCULAR     1.50       0          0          0          1
413              CIRCULAR     2.00       0          0          0          1
414              CIRCULAR     1.50       0          0          0          1
415              CIRCULAR     1.50       0          0          0          1
416              CIRCULAR     1.50       0          0          0          1
417              CIRCULAR     2.00       0          0          0          1
418              CIRCULAR     1.50       0          0          0          1
419              CIRCULAR     1.50       0          0          0          1
407              CIRCULAR     2.00       0          0          0          1
421              CIRCULAR     2.00       0          0          0          1
408              CIRCULAR     1.75       0          0          0          1
423              CIRCULAR     2.00       0          0          0          1
424              CIRCULAR     2.00       0          0          0          1
425              CIRCULAR     2.00       0          0          0          1
995.1            CIRCULAR     2.00       0          0          0          1
KhtsFM           CIRCULAR     1.17       0          0          0          1
427              CIRCULAR     2.50       0          0          0          1
429              CIRCULAR     2.00       0          0          0          1
430              CIRCULAR     2.00       0          0          0          1
31               CIRCULAR     2.00       0          0          0          1
32               CIRCULAR     2.00       0          0          0          1
33               CIRCULAR     2.00       0          0          0          1
34               CIRCULAR     2.00       0          0          0          1
35               CIRCULAR     2.00       0          0          0          1
20               CIRCULAR     1.50       0          0          0          1
28               CIRCULAR     0.83       0          0          0          1
90               CIRCULAR     4.00       0          0          0          1
73               CIRCULAR     3.00       0          0          0          1
74               CIRCULAR     3.00       0          0          0          1
75               CIRCULAR     3.00       0          0          0          1
76               CIRCULAR     3.00       0          0          0          1
23               CIRCULAR     2.00       0          0          0          1
78               CIRCULAR     3.00       0          0          0          1
77               CIRCULAR     3.00       0          0          0          1
24               CIRCULAR     2.00       0          0          0          1
25               CIRCULAR     2.00       0          0          0          1
71               CIRCULAR     3.00       0          0          0          1
27               CIRCULAR     0.83       0          0          0          1
70               CIRCULAR     3.00       0          0          0          1
29               CIRCULAR     1.75       0          0          0          1
30               CIRCULAR     1.75       0          0          0          1
79               CIRCULAR     4.00       0          0          0          1
80               CIRCULAR     4.00       0          0          0          1
81               CIRCULAR     4.00       0          0          0          1
82               CIRCULAR     4.00       0          0          0          1
83               CIRCULAR     4.00       0          0          0          1
84               CIRCULAR     4.00       0          0          0          1
85               CIRCULAR     4.00       0          0          0          1
86               CIRCULAR     4.00       0          0          0          1
87               CIRCULAR     4.00       0          0          0          1
88               CIRCULAR     4.00       0          0          0          1
45               CIRCULAR     3.00       0          0          0          1
26               CIRCULAR     2.00       0          0          0          1
20_2             CIRCULAR     2.00       0          0          0          1
49               CIRCULAR     3.50       0          0          0          1
50               CIRCULAR     4.00       0          0          0          1
51               CIRCULAR     4.00       0          0          0          1
18               CIRCULAR     2.00       0          0          0          1
52               CIRCULAR     4.00       0          0          0          1
53               CIRCULAR     4.00       0          0          0          1
54               CIRCULAR     4.00       0          0          0          1
55               CIRCULAR     4.00       0          0          0          1
56               CIRCULAR     4.00       0          0          0          1
19               CIRCULAR     2.00       0          0          0          1
57               CIRCULAR     4.00       0          0          0          1
72               CIRCULAR     3.00       0          0          0          1
48               CIRCULAR     4.50       0          0          0          1
91               CIRCULAR     4.00       0          0          0          1
21               CIRCULAR     2.00       0          0          0          1
59               CIRCULAR     4.50       0          0          0          1
60               CIRCULAR     4.50       0          0          0          1
61               CIRCULAR     4.50       0          0          0          1
62               CIRCULAR     4.50       0          0          0          1
63               CIRCULAR     4.50       0          0          0          1
64               CIRCULAR     4.50       0          0          0          1
65               CIRCULAR     3.00       0          0          0          1
66               CIRCULAR     3.00       0          0          0          1
67               CIRCULAR     3.00       0          0          0          1
68               CIRCULAR     3.00       0          0          0          1
69               CIRCULAR     3.00       0          0          0          1
22               CIRCULAR     2.00       0          0          0          1
58               CIRCULAR     4.50       0          0          0          1
35_2             CIRCULAR     1.75       0          0          0          1
34_2             CIRCULAR     1.75       0          0          0          1
31_2             CIRCULAR     1.75       0          0          0          1
18_2             CIRCULAR     3.00       0          0          0          1
19_2             CIRCULAR     3.00       0          0          0          1
20_3             CIRCULAR     3.00       0          0          0          1
21_2             CIRCULAR     3.00       0          0          0          1
22_2             CIRCULAR     3.00       0          0          0          1
23_2             CIRCULAR     3.00       0          0          0          1
24_2             CIRCULAR     3.00       0          0          0          1
25_2             CIRCULAR     3.00       0          0          0          1
26_2             CIRCULAR     3.00       0          0          0          1
28_2             CIRCULAR     3.00       0          0          0          1
16               CIRCULAR     3.00       0          0          0          1
30_2             CIRCULAR     3.50       0          0          0          1
31_3             CIRCULAR     3.50       0          0          0          1
32_2             CIRCULAR     3.50       0          0          0          1
33_2             CIRCULAR     3.50       0          0          0          1
34_3             CIRCULAR     3.50       0          0          0          1
35_3             CIRCULAR     3.00       0          0          0          1
36               CIRCULAR     3.00       0          0          0          1
37               CIRCULAR     3.00       0          0          0          1
36_2             CIRCULAR     1.75       0          0          0          1
39               CIRCULAR     3.00       0          0          0          1
38               CIRCULAR     1.75       0          0          0          1
41               CIRCULAR     3.00       0          0          0          1
42               CIRCULAR     1.75       0          0          0          1
27_2             CIRCULAR     3.00       0          0          0          1
32_3             CIRCULAR     1.75       0          0          0          1
92               CIRCULAR     4.00       0          0          0          1
93               CIRCULAR     4.00       0          0          0          1
94               CIRCULAR     4.00       0          0          0          1
95               CIRCULAR     3.50       0          0          0          1
96               CIRCULAR     3.50       0          0          0          1
97               CIRCULAR     3.50       0          0          0          1
98               CIRCULAR     3.50       0          0          0          1
99               CIRCULAR     3.50       0          0          0          1
00               CIRCULAR     3.50       0          0          0          1
01               CIRCULAR     3.50       0          0          0          1
02               CIRCULAR     3.50       0          0          0          1
17               CIRCULAR     3.00       0          0          0          1
89               CIRCULAR     4.00       0          0          0          1
15               CIRCULAR     3.00       0          0          0          1
33_3             CIRCULAR     1.75       0          0          0          1
03               CIRCULAR     3.00       0          0          0          1
04               CIRCULAR     3.00       0          0          0          1
05               CIRCULAR     3.00       0          0          0          1
06               CIRCULAR     3.00       0          0          0          1
07               CIRCULAR     3.00       0          0          0          1
08               CIRCULAR     3.00       0          0          0          1
09               CIRCULAR     3.00       0          0          0          1
10               CIRCULAR     3.00       0          0          0          1
11               CIRCULAR     3.00       0          0          0          1
12               CIRCULAR     3.00       0          0          0          1
13               CIRCULAR     3.00       0          0          0          1
14               CIRCULAR     3.00       0          0          0          1
329              CIRCULAR     3.50       0          0          0          1
AalaFMt          CIRCULAR     1.00       0          0          0          1
AliiFM           CIRCULAR     1.00       0          0          0          1
HeeiFM           CIRCULAR     1.00       0          0          0          1
Kan2FM           CIRCULAR     1.00       0          0          0          1
Kan3FM           CIRCULAR     1.00       0          0          0          1
62695            CIRCULAR     1.75       0          0          0          1
Kan1FM           CIRCULAR     1.00       0          0          0          1
584              CIRCULAR     3.50       0          0          0          1
Kan4             CIRCULAR     1.50       0          0          0          1
AhuiFM           CIRCULAR     1.00       0          0          0          1
129933           CIRCULAR     1.00       0          0          0          1
134935           CIRCULAR     3.50       0          0          0          1
136937           CIRCULAR     0.67       0          0          0          1
464              CIRCULAR     1.00       0          0          0          1
138940           CIRCULAR     1.00       0          0          0          1
141942           CIRCULAR     0.67       0          0          0          1
06_2             CIRCULAR     2.25       0          0          0          1

[LOSSES]
;;Link           Inlet      Outlet     Average    Flap Gate
;;-------------- ---------- ---------- ---------- ----------
604              0          0          0          NO
561              0          0          0          NO
623              0          0          0          NO
593              0          0          0          NO
594              0          0          0          NO
595              0          0          0          NO
597              0          0          0          NO
598              0          0          0          NO
599              0          0          0          NO
600              0          0          0          NO
601              0          0          0          NO
591              0          0          0          NO
603              0          0          0          NO
589              0          0          0          NO
605              0          0          0          NO
608              0          0          0          NO
606              0          0          0          NO
607              0          0          0          NO
609              0          0          0          NO
610              0          0          0          NO
611              0          0          0          NO
612              0          0          0          NO
613              0          0          0          NO
590              0          0          0          NO
616              0          0          0          NO
209              0          0          0          NO
618              0          0          0          NO
602              0          0          0          NO
574              0          0          0          NO
562              0          0          0          NO
212              0          0          0          NO
564              0          0          0          NO
565              0          0          0          NO
566              0          0          0          NO
567              0          0          0          NO
568              0          0          0          NO
569              0          0          0          NO
570              0          0          0          NO
571              0          0          0          NO
572              0          0          0          NO
592              0          0          0          NO
619              0          0          0          NO
575              0          0          0          NO
576              0          0          0          NO
577              0          0          0          NO
578              0          0          0          NO
579              0          0          0          NO
580              0          0          0          NO
581              0          0          0          NO
582              0          0          0          NO
585              0          0          0          NO
586              0          0          0          NO
583              0          0          0          NO
587              0          0          0          NO
588              0          0          0          NO
573              0          0          0          NO
660              0          0          0          NO
617              0          0          0          NO
614              0          0          0          NO
651              0          0          0          NO
650              0          0          0          NO
652              0          0          0          NO
662              0          0          0          NO
654              0          0          0          NO
655              0          0          0          NO
656              0          0          0          NO
657              0          0          0          NO
648              0          0          0          NO
659              0          0          0          NO
216              0          0          0          NO
661              0          0          0          NO
653              0          0          0          NO
237              0          0          0          NO
239              0          0          0          NO
240              0          0          0          NO
241              0          0          0          NO
242              0          0          0          NO
243              0          0          0          NO
244              0          0          0          NO
245              0          0          0          NO
246              0          0          0          NO
217              0          0          0          NO
663              0          0          0          NO
658              0          0          0          NO
635              0          0          0          NO
621              0          0          0          NO
622              0          0          0          NO
666              0          0          0          NO
624              0          0          0          NO
625              0          0          0          NO
626              0          0          0          NO
627              0          0          0          NO
628              0          0          0          NO
629              0          0          0          NO
630              0          0          0          NO
631              0          0          0          NO
649              0          0          0          NO
634              0          0          0          NO
620              0          0          0          NO
636              0          0          0          NO
637              0          0          0          NO
638              0          0          0          NO
639              0          0          0          NO
640              0          0          0          NO
641              0          0          0          NO
646              0          0          0          NO
643              0          0          0          NO
647              0          0          0          NO
645              0          0          0          NO
642              0          0          0          NO
633              0          0          0          NO
644              0          0          0          NO
632              0          0          0          NO
491              0          0          0          NO
560              0          0          0          NO
480              0          0          0          NO
213              0          0          0          NO
482              0          0          0          NO
485              0          0          0          NO
483              0          0          0          NO
486              0          0          0          NO
214              0          0          0          NO
488              0          0          0          NO
487              0          0          0          NO
478              0          0          0          NO
490              0          0          0          NO
477              0          0          0          NO
492              0          0          0          NO
496              0          0          0          NO
495              0          0          0          NO
497              0          0          0          NO
498              0          0          0          NO
499              0          0          0          NO
500              0          0          0          NO
501              0          0          0          NO
502              0          0          0          NO
503              0          0          0          NO
504              0          0          0          NO
563              0          0          0          NO
489              0          0          0          NO
463              0          0          0          NO
202              0          0          0          NO
203              0          0          0          NO
205              0          0          0          NO
204              0          0          0          NO
206              0          0          0          NO
207              0          0          0          NO
208              0          0          0          NO
210              0          0          0          NO
211              0          0          0          NO
458              0          0          0          NO
459              0          0          0          NO
479              0          0          0          NO
462              0          0          0          NO
509              0          0          0          NO
465              0          0          0          NO
466              0          0          0          NO
467              0          0          0          NO
468              0          0          0          NO
469              0          0          0          NO
470              0          0          0          NO
471              0          0          0          NO
472              0          0          0          NO
473              0          0          0          NO
474              0          0          0          NO
475              0          0          0          NO
476              0          0          0          NO
460              0          0          0          NO
546              0          0          0          NO
505              0          0          0          NO
535              0          0          0          NO
536              0          0          0          NO
537              0          0          0          NO
538              0          0          0          NO
539              0          0          0          NO
540              0          0          0          NO
541              0          0          0          NO
542              0          0          0          NO
543              0          0          0          NO
533              0          0          0          NO
545              0          0          0          NO
532              0          0          0          NO
547              0          0          0          NO
548              0          0          0          NO
549              0          0          0          NO
550              0          0          0          NO
551              0          0          0          NO
552              0          0          0          NO
553              0          0          0          NO
554              0          0          0          NO
555              0          0          0          NO
556              0          0          0          NO
557              0          0          0          NO
558              0          0          0          NO
559              0          0          0          NO
544              0          0          0          NO
525              0          0          0          NO
510              0          0          0          NO
511              0          0          0          NO
512              0          0          0          NO
513              0          0          0          NO
514              0          0          0          NO
515              0          0          0          NO
516              0          0          0          NO
518              0          0          0          NO
519              0          0          0          NO
520              0          0          0          NO
521              0          0          0          NO
534              0          0          0          NO
524              0          0          0          NO
507              0          0          0          NO
526              0          0          0          NO
527              0          0          0          NO
528              0          0          0          NO
529              0          0          0          NO
530              0          0          0          NO
665              0          0          0          NO
531              0          0          0          NO
522              0          0          0          NO
493              0          0          0          NO
494              0          0          0          NO
215              0          0          0          NO
508              0          0          0          NO
517              0          0          0          NO
523              0          0          0          NO
396              0          0          0          NO
343              0          0          0          NO
377              0          0          0          NO
378              0          0          0          NO
380              0          0          0          NO
381              0          0          0          NO
382              0          0          0          NO
383              0          0          0          NO
384              0          0          0          NO
385              0          0          0          NO
386              0          0          0          NO
375              0          0          0          NO
389              0          0          0          NO
374              0          0          0          NO
397              0          0          0          NO
398              0          0          0          NO
399              0          0          0          NO
365              0          0          0          NO
388              0          0          0          NO
395              0          0          0          NO
367              0          0          0          NO
379              0          0          0          NO
400              0          0          0          NO
401              0          0          0          NO
402              0          0          0          NO
344              0          0          0          NO
406              0          0          0          NO
387              0          0          0          NO
358              0          0          0          NO
247              0          0          0          NO
346              0          0          0          NO
347              0          0          0          NO
348              0          0          0          NO
340              0          0          0          NO
350              0          0          0          NO
351              0          0          0          NO
352              0          0          0          NO
353              0          0          0          NO
354              0          0          0          NO
355              0          0          0          NO
376              0          0          0          NO
357              0          0          0          NO
405              0          0          0          NO
359              0          0          0          NO
360              0          0          0          NO
361              0          0          0          NO
362              0          0          0          NO
363              0          0          0          NO
349              0          0          0          NO
364              0          0          0          NO
KRdFM_Rd         0          0          0          NO
368              0          0          0          NO
369              0          0          0          NO
371              0          0          0          NO
370              0          0          0          NO
373              0          0          0          NO
356              0          0          0          NO
450              0          0          0          NO
404              0          0          0          NO
437              0          0          0          NO
438              0          0          0          NO
439              0          0          0          NO
441              0          0          0          NO
443              0          0          0          NO
444              0          0          0          NO
445              0          0          0          NO
446              0          0          0          NO
447              0          0          0          NO
440              0          0          0          NO
449              0          0          0          NO
436              0          0          0          NO
451              0          0          0          NO
452              0          0          0          NO
453              0          0          0          NO
454              0          0          0          NO
455              0          0          0          NO
456              0          0          0          NO
457              0          0          0          NO
390              0          0          0          NO
372              0          0          0          NO
394              0          0          0          NO
393              0          0          0          NO
392              0          0          0          NO
391              0          0          0          NO
448              0          0          0          NO
422              0          0          0          NO
409              0          0          0          NO
410              0          0          0          NO
411              0          0          0          NO
412              0          0          0          NO
413              0          0          0          NO
414              0          0          0          NO
415              0          0          0          NO
416              0          0          0          NO
417              0          0          0          NO
418              0          0          0          NO
419              0          0          0          NO
407              0          0          0          NO
421              0          0          0          NO
408              0          0          0          NO
423              0          0          0          NO
424              0          0          0          NO
425              0          0          0          NO
995.1            0          0          0          NO
KhtsFM           0          0          0          NO
427              0          0          0          NO
429              0          0          0          NO
430              0          0          0          NO
31               0          0          0          NO
32               0          0          0          NO
33               0          0          0          NO
34               0          0          0          NO
35               0          0          0          NO
20               0          0          0          NO
28               0          0          0          NO
90               0          0          0          NO
73               0          0          0          NO
74               0          0          0          NO
75               0          0          0          NO
76               0          0          0          NO
23               0          0          0          NO
78               0          0          0          NO
77               0          0          0          NO
24               0          0          0          NO
25               0          0          0          NO
71               0          0          0          NO
27               0          0          0          NO
70               0          0          0          NO
29               0          0          0          NO
30               0          0          0          NO
79               0          0          0          NO
80               0          0          0          NO
81               0          0          0          NO
82               0          0          0          NO
83               0          0          0          NO
84               0          0          0          NO
85               0          0          0          NO
86               0          0          0          NO
87               0          0          0          NO
88               0          0          0          NO
45               0          0          0          NO
26               0          0          0          NO
20_2             0          0          0          NO
49               0          0          0          NO
50               0          0          0          NO
51               0          0          0          NO
18               0          0          0          NO
52               0          0          0          NO
53               0          0          0          NO
54               0          0          0          NO
55               0          0          0          NO
56               0          0          0          NO
19               0          0          0          NO
57               0          0          0          NO
72               0          0          0          NO
48               0          0          0          NO
91               0          0          0          NO
21               0          0          0          NO
59               0          0          0          NO
60               0          0          0          NO
61               0          0          0          NO
62               0          0          0          NO
63               0          0          0          NO
64               0          0          0          NO
65               0          0          0          NO
66               0          0          0          NO
67               0          0          0          NO
68               0          0          0          NO
69               0          0          0          NO
22               0          0          0          NO
58               0          0          0          NO
35_2             0          0          0          NO
34_2             0          0          0          NO
31_2             0          0          0          NO
18_2             0          0          0          NO
19_2             0          0          0          NO
20_3             0          0          0          NO
21_2             0          0          0          NO
22_2             0          0          0          NO
23_2             0          0          0          NO
24_2             0          0          0          NO
25_2             0          0          0          NO
26_2             0          0          0          NO
28_2             0          0          0          NO
16               0          0          0          NO
30_2             0          0          0          NO
31_3             0          0          0          NO
32_2             0          0          0          NO
33_2             0          0          0          NO
34_3             0          0          0          NO
35_3             0          0          0          NO
36               0          0          0          NO
37               0          0          0          NO
36_2             0          0          0          NO
39               0          0          0          NO
38               0          0          0          NO
41               0          0          0          NO
42               0          0          0          NO
27_2             0          0          0          NO
32_3             0          0          0          NO
92               0          0          0          NO
93               0          0          0          NO
94               0          0          0          NO
95               0          0          0          NO
96               0          0          0          NO
97               0          0          0          NO
98               0          0          0          NO
99               0          0          0          NO
00               0          0          0          NO
01               0          0          0          NO
02               0          0          0          NO
17               0          0          0          NO
89               0          0          0          NO
15               0          0          0          NO
33_3             0          0          0          NO
03               0          0          0          NO
04               0          0          0          NO
05               0          0          0          NO
06               0          0          0          NO
07               0          0          0          NO
08               0          0          0          NO
09               0          0          0          NO
10               0          0          0          NO
11               0          0          0          NO
12               0          0          0          NO
13               0          0          0          NO
14               0          0          0          NO
329              0          0          0          NO
AalaFMt          0          0          0          NO
AliiFM           0          0          0          NO
HeeiFM           0          0          0          NO
Kan2FM           0          0          0          NO
Kan3FM           0          0          0          NO
62695            0          0          0          NO
Kan1FM           0          0          0          NO
584              0          0          0          NO
Kan4             0          0          0          NO
AhuiFM           0          0          0          NO
129933           0          0          0          NO
134935           0          0          0          NO
136937           0          0          0          NO
464              0          0          0          NO
138940           0          0          0          NO
141942           0          0          0          NO
06_2             0          0          0          NO

[INFLOWS]
;;Node           Constituent  Time Series      Type     Mfactor  Sfactor  Baseline Pattern
;;-------------- ------------ ---------------- -------- -------- -------- -------- --------
;; SYNTHETIC TEST INFLOWS — the source .xp carried no constant inflows
;; and RUNF hydrology is not converted; 1.00 CFS is applied at each
;; headwater node so the network runs wet for QA. Replace with real
;; hydrology or inflow hydrographs before using results.
30530715         FLOW         ""               FLOW     1.0      1.0      1.00
29520258         FLOW         ""               FLOW     1.0      1.0      1.00
29540053         FLOW         ""               FLOW     1.0      1.0      1.00
29550636         FLOW         ""               FLOW     1.0      1.0      1.00
25460055         FLOW         ""               FLOW     1.0      1.0      1.00
25460095         FLOW         ""               FLOW     1.0      1.0      1.00
26480465         FLOW         ""               FLOW     1.0      1.0      1.00
26480803         FLOW         ""               FLOW     1.0      1.0      1.00
27480515         FLOW         ""               FLOW     1.0      1.0      1.00
27480734         FLOW         ""               FLOW     1.0      1.0      1.00
27481554         FLOW         ""               FLOW     1.0      1.0      1.00
27481639         FLOW         ""               FLOW     1.0      1.0      1.00
27490698         FLOW         ""               FLOW     1.0      1.0      1.00
27490981         FLOW         ""               FLOW     1.0      1.0      1.00
27492471         FLOW         ""               FLOW     1.0      1.0      1.00
28490155         FLOW         ""               FLOW     1.0      1.0      1.00
29480423         FLOW         ""               FLOW     1.0      1.0      1.00
27510797         FLOW         ""               FLOW     1.0      1.0      1.00
28480102         FLOW         ""               FLOW     1.0      1.0      1.00
HW_31            FLOW         ""               FLOW     1.0      1.0      1.00
HW_32            FLOW         ""               FLOW     1.0      1.0      1.00
HW_33            FLOW         ""               FLOW     1.0      1.0      1.00
HW_34            FLOW         ""               FLOW     1.0      1.0      1.00
HW_35            FLOW         ""               FLOW     1.0      1.0      1.00
HW_20            FLOW         ""               FLOW     1.0      1.0      1.00
HW_28            FLOW         ""               FLOW     1.0      1.0      1.00
HW_90            FLOW         ""               FLOW     1.0      1.0      1.00
HW_73            FLOW         ""               FLOW     1.0      1.0      1.00
HW_74            FLOW         ""               FLOW     1.0      1.0      1.00
HW_75            FLOW         ""               FLOW     1.0      1.0      1.00
HW_76            FLOW         ""               FLOW     1.0      1.0      1.00
HW_23            FLOW         ""               FLOW     1.0      1.0      1.00
HW_78            FLOW         ""               FLOW     1.0      1.0      1.00
HW_77            FLOW         ""               FLOW     1.0      1.0      1.00
HW_24            FLOW         ""               FLOW     1.0      1.0      1.00
HW_25            FLOW         ""               FLOW     1.0      1.0      1.00
HW_71            FLOW         ""               FLOW     1.0      1.0      1.00
HW_27            FLOW         ""               FLOW     1.0      1.0      1.00
HW_70            FLOW         ""               FLOW     1.0      1.0      1.00
HW_29            FLOW         ""               FLOW     1.0      1.0      1.00
HW_30            FLOW         ""               FLOW     1.0      1.0      1.00
HW_79            FLOW         ""               FLOW     1.0      1.0      1.00
HW_80            FLOW         ""               FLOW     1.0      1.0      1.00
HW_81            FLOW         ""               FLOW     1.0      1.0      1.00
HW_82            FLOW         ""               FLOW     1.0      1.0      1.00
HW_83            FLOW         ""               FLOW     1.0      1.0      1.00
HW_84            FLOW         ""               FLOW     1.0      1.0      1.00
HW_85            FLOW         ""               FLOW     1.0      1.0      1.00
HW_86            FLOW         ""               FLOW     1.0      1.0      1.00
HW_87            FLOW         ""               FLOW     1.0      1.0      1.00
HW_88            FLOW         ""               FLOW     1.0      1.0      1.00
HW_45            FLOW         ""               FLOW     1.0      1.0      1.00
HW_26            FLOW         ""               FLOW     1.0      1.0      1.00
HW_20_2          FLOW         ""               FLOW     1.0      1.0      1.00
HW_49            FLOW         ""               FLOW     1.0      1.0      1.00
HW_50            FLOW         ""               FLOW     1.0      1.0      1.00
HW_51            FLOW         ""               FLOW     1.0      1.0      1.00
HW_18            FLOW         ""               FLOW     1.0      1.0      1.00
HW_52            FLOW         ""               FLOW     1.0      1.0      1.00
HW_53            FLOW         ""               FLOW     1.0      1.0      1.00
HW_54            FLOW         ""               FLOW     1.0      1.0      1.00
HW_55            FLOW         ""               FLOW     1.0      1.0      1.00
HW_56            FLOW         ""               FLOW     1.0      1.0      1.00
HW_19            FLOW         ""               FLOW     1.0      1.0      1.00
HW_57            FLOW         ""               FLOW     1.0      1.0      1.00
HW_72            FLOW         ""               FLOW     1.0      1.0      1.00
HW_48            FLOW         ""               FLOW     1.0      1.0      1.00
HW_91            FLOW         ""               FLOW     1.0      1.0      1.00
HW_21            FLOW         ""               FLOW     1.0      1.0      1.00
HW_59            FLOW         ""               FLOW     1.0      1.0      1.00
HW_60            FLOW         ""               FLOW     1.0      1.0      1.00
HW_61            FLOW         ""               FLOW     1.0      1.0      1.00
HW_62            FLOW         ""               FLOW     1.0      1.0      1.00
HW_63            FLOW         ""               FLOW     1.0      1.0      1.00
HW_64            FLOW         ""               FLOW     1.0      1.0      1.00
HW_65            FLOW         ""               FLOW     1.0      1.0      1.00
HW_66            FLOW         ""               FLOW     1.0      1.0      1.00
HW_67            FLOW         ""               FLOW     1.0      1.0      1.00
HW_68            FLOW         ""               FLOW     1.0      1.0      1.00
HW_69            FLOW         ""               FLOW     1.0      1.0      1.00
HW_22            FLOW         ""               FLOW     1.0      1.0      1.00
HW_58            FLOW         ""               FLOW     1.0      1.0      1.00
HW_35_2          FLOW         ""               FLOW     1.0      1.0      1.00
HW_34_2          FLOW         ""               FLOW     1.0      1.0      1.00
HW_31_2          FLOW         ""               FLOW     1.0      1.0      1.00
HW_18_2          FLOW         ""               FLOW     1.0      1.0      1.00
HW_19_2          FLOW         ""               FLOW     1.0      1.0      1.00
HW_20_3          FLOW         ""               FLOW     1.0      1.0      1.00
HW_21_2          FLOW         ""               FLOW     1.0      1.0      1.00
HW_22_2          FLOW         ""               FLOW     1.0      1.0      1.00
HW_23_2          FLOW         ""               FLOW     1.0      1.0      1.00
HW_24_2          FLOW         ""               FLOW     1.0      1.0      1.00
HW_25_2          FLOW         ""               FLOW     1.0      1.0      1.00
HW_26_2          FLOW         ""               FLOW     1.0      1.0      1.00
HW_28_2          FLOW         ""               FLOW     1.0      1.0      1.00
HW_16            FLOW         ""               FLOW     1.0      1.0      1.00
HW_30_2          FLOW         ""               FLOW     1.0      1.0      1.00
HW_31_3          FLOW         ""               FLOW     1.0      1.0      1.00
HW_32_2          FLOW         ""               FLOW     1.0      1.0      1.00
HW_33_2          FLOW         ""               FLOW     1.0      1.0      1.00
HW_34_3          FLOW         ""               FLOW     1.0      1.0      1.00
HW_35_3          FLOW         ""               FLOW     1.0      1.0      1.00
HW_36            FLOW         ""               FLOW     1.0      1.0      1.00
HW_37            FLOW         ""               FLOW     1.0      1.0      1.00
HW_36_2          FLOW         ""               FLOW     1.0      1.0      1.00
HW_39            FLOW         ""               FLOW     1.0      1.0      1.00
HW_38            FLOW         ""               FLOW     1.0      1.0      1.00
HW_41            FLOW         ""               FLOW     1.0      1.0      1.00
HW_42            FLOW         ""               FLOW     1.0      1.0      1.00
HW_27_2          FLOW         ""               FLOW     1.0      1.0      1.00
HW_32_3          FLOW         ""               FLOW     1.0      1.0      1.00
HW_92            FLOW         ""               FLOW     1.0      1.0      1.00
HW_93            FLOW         ""               FLOW     1.0      1.0      1.00
HW_94            FLOW         ""               FLOW     1.0      1.0      1.00
HW_95            FLOW         ""               FLOW     1.0      1.0      1.00
HW_96            FLOW         ""               FLOW     1.0      1.0      1.00
HW_97            FLOW         ""               FLOW     1.0      1.0      1.00
HW_98            FLOW         ""               FLOW     1.0      1.0      1.00
HW_99            FLOW         ""               FLOW     1.0      1.0      1.00
HW_00            FLOW         ""               FLOW     1.0      1.0      1.00
HW_01            FLOW         ""               FLOW     1.0      1.0      1.00
HW_02            FLOW         ""               FLOW     1.0      1.0      1.00
HW_17            FLOW         ""               FLOW     1.0      1.0      1.00
HW_89            FLOW         ""               FLOW     1.0      1.0      1.00
HW_15            FLOW         ""               FLOW     1.0      1.0      1.00
HW_33_3          FLOW         ""               FLOW     1.0      1.0      1.00
HW_03            FLOW         ""               FLOW     1.0      1.0      1.00
HW_04            FLOW         ""               FLOW     1.0      1.0      1.00
HW_05            FLOW         ""               FLOW     1.0      1.0      1.00
HW_06            FLOW         ""               FLOW     1.0      1.0      1.00
HW_07            FLOW         ""               FLOW     1.0      1.0      1.00
HW_08            FLOW         ""               FLOW     1.0      1.0      1.00
HW_09            FLOW         ""               FLOW     1.0      1.0      1.00
HW_10            FLOW         ""               FLOW     1.0      1.0      1.00
HW_11            FLOW         ""               FLOW     1.0      1.0      1.00
HW_12            FLOW         ""               FLOW     1.0      1.0      1.00
HW_13            FLOW         ""               FLOW     1.0      1.0      1.00
HW_14            FLOW         ""               FLOW     1.0      1.0      1.00
HW_AalaFMt       FLOW         ""               FLOW     1.0      1.0      1.00
HW_AliiFM        FLOW         ""               FLOW     1.0      1.0      1.00
HW_HeeiFM        FLOW         ""               FLOW     1.0      1.0      1.00
HW_Kan2FM        FLOW         ""               FLOW     1.0      1.0      1.00
HW_Kan3FM        FLOW         ""               FLOW     1.0      1.0      1.00
62696            FLOW         ""               FLOW     1.0      1.0      1.00
HW_Kan4          FLOW         ""               FLOW     1.0      1.0      1.00
HW_129933        FLOW         ""               FLOW     1.0      1.0      1.00
HW_134935        FLOW         ""               FLOW     1.0      1.0      1.00
HW_136937        FLOW         ""               FLOW     1.0      1.0      1.00
HW_138940        FLOW         ""               FLOW     1.0      1.0      1.00
HW_141942        FLOW         ""               FLOW     1.0      1.0      1.00
HW_06_2          FLOW         ""               FLOW     1.0      1.0      1.00

[COORDINATES]
;;Node           X-Coord            Y-Coord
;;-------------- ------------------ ------------------
30530038         -79726.33          587904.85         
30530063         -79660.82          587824.98         
30530134         -79462.28          587631.42         
30530136         -79458.10          587653.10         
30530200         -79231.22          587459.23         
30530221         -79105.22          587364.54         
30530236         -78933.39          587252.54         
30530241         -78885.34          587223.10         
30530243         -78866.93          587228.48         
30530290         -78658.99          587165.92         
30530308         -78575.97          587140.98         
30530396         -78278.19          587149.85         
30530494         -77985.88          587198.48         
30530604         -77691.72          587256.98         
30530715         -77416.93          587309.98         
30531552         -79281.57          587496.75         
30540041         -79715.47          590965.23         
30540097         -79576.00          590920.98         
30540150         -79391.54          590776.48         
30540207         -79214.94          591007.48         
30540270         -78988.88          591142.60         
30540289         -78917.88          591107.85         
30540312         -78822.50          591151.73         
30540331         -78767.82          591232.60         
30540409         -78550.77          591280.73         
30540432         -78500.18          591097.10         
30540458         -78444.40          590961.48         
30540479         -78397.82          591317.85         
30540622         -78077.58          591394.35         
30540745         -77838.55          591435.85         
30540912         -77529.69          591438.73         
30541077         -77289.71          591418.73         
30541204         -77131.35          591395.23         
30541434         -76853.90          591306.85         
30541441         -76842.75          591311.60         
26520143         -95282.77          584095.73         
26520157         -95242.16          583906.10         
26520202         -95012.02          584395.73         
26520285         -94642.94          584804.35         
26520304         -94484.99          585018.48         
26530297         -94338.94          585211.60         
26530319         -94125.27          585458.98         
26530348         -93640.65          585106.98         
27520028         -93203.57          584777.98         
27520039         -93154.32          584775.60         
27520121         -92740.22          584882.60         
27520232         -92303.77          584997.23         
27520546         -91283.77          584888.85         
27520560         -91229.60          584813.48         
27520578         -91161.94          584730.35         
27520697         -90768.74          584439.48         
27520797         -90496.08          584242.98         
27520887         -90206.79          584029.60         
27521026         -89768.25          583709.23         
27521158         -89478.61          583492.98         
27521335         -89106.02          583214.10         
27530144         -92024.13          585074.35         
27530172         -91842.24          585126.73         
27530191         -91763.00          585144.85         
27530197         -91723.08          585146.98         
27530206         -91668.86          585124.98         
27530229         -91567.74          585152.98         
27530268         -91372.10          585204.85         
27530312         -91167.38          585257.35         
27530334         -91051.35          585288.23         
27530373         -90773.18          585359.10         
27530400         -90608.11          585403.98         
27530443         -90395.11          585462.73         
27530495         -90199.65          585514.85         
27530552         -89918.90          585586.85         
27530580         -89829.82          585635.23         
27530647         -89586.29          585773.23         
27530677         -89466.22          585839.23         
27530693         -89402.16          585871.10         
27530751         -89243.94          585958.10         
27530780         -89101.88          586039.98         
27530852         -88904.69          586150.85         
28520128         -88632.90          582869.48         
28520280         -88315.32          583302.23         
28520371         -88177.46          583414.60         
28520574         -87871.96          583580.23         
28520701         -87715.33          583660.98         
28520733         -87656.11          583692.35         
28520787         -87586.97          583728.35         
28520862         -87479.83          583784.98         
28520988         -87295.91          583868.23         
28521120         -87097.60          583979.60         
28521166         -87028.30          584014.98         
28521269         -86889.63          584086.60         
28521316         -86824.94          584117.85         
28521361         -86752.88          584155.60         
28521461         -86545.68          584267.48         
28521562         -86334.43          584382.85         
28521626         -86221.77          584444.35         
28521764         -85992.36          584567.73         
28521830         -85872.19          584630.10         
28521873         -85774.68          584679.98         
28521963         -85635.43          584753.48         
28521980         -85595.02          584774.85         
28522075         -85412.49          584872.35         
28522174         -85238.44          584963.98         
28530050         -88720.33          586248.23         
28530069         -88640.32          586293.73         
28530178         -88347.85          586451.23         
28530242         -88201.99          586535.35         
28530320         -88017.44          586639.98         
28530342         -87960.68          586671.73         
28530462         -87743.19          586793.35         
28530542         -87566.90          586889.85         
28530644         -87356.05          587011.73         
28530717         -87195.32          587114.73         
28530770         -87077.60          587193.48         
28530809         -87013.83          587240.23         
28530910         -86826.91          587373.73         
28530977         -86702.10          587477.23         
28531133         -86482.61          587660.23         
28531190         -86385.80          587740.73         
28531322         -86231.63          587871.10         
28531383         -86146.57          587945.10         
28531497         -85979.61          588083.85         
28531605         -85846.93          588197.60         
28531639         -85800.58          588237.10         
28531740         -85681.79          588380.35         
28531844         -85525.15          588580.35         
28532007         -85350.49          588801.10         
28532028         -85328.50          588857.48         
28532120         -85216.93          589127.10         
28532303         -85016.65          585082.48         
28532445         -84861.30          585166.48         
28532556         -84742.50          585230.85         
28532640         -84642.22          585283.85         
28532791         -84460.52          585381.60         
28532887         -84359.21          585485.23         
28540032         -85038.85          589566.48         
28540039         -84992.07          589691.23         
28540070         -84870.85          589980.60         
28540097         -84771.79          591118.60         
28540102         -84753.63          590267.85         
28540120         -84695.38          591327.85         
28540128         -84673.52          590461.98         
28540140         -84631.80          590987.60         
28540142         -84630.40          590563.73         
28540147         -84618.33          591432.60         
28540176         -84506.19          590871.73         
28540178         -84500.25          591443.35         
28540227         -84358.05          590738.60         
28540241         -84352.14          591656.38         
29520076         -84078.21          585012.60         
29520078         -84068.63          584992.73         
29520118         -83910.50          584693.98         
29520144         -83787.13          584572.60         
29520190         -83549.79          584866.23         
29520209         -83421.91          585021.60         
29520241         -81982.61          584937.98         
29520242         -81773.58          584851.10         
29520243         -81614.16          584758.60         
29520244         -81369.00          584554.10         
29520245         -81316.32          584504.10         
29520246         -81277.47          584455.60         
29520248         -81107.68          584316.10         
29520254         -80916.07          584154.23         
29520258         -80873.18          584117.23         
29530494         -83433.30          585206.35         
29530561         -83252.79          585647.10         
29530590         -83114.57          585435.10         
29530599         -83061.63          585353.48         
29530606         -82993.86          585815.98         
29530611         -82954.16          585838.35         
29530614         -82910.82          585504.23         
29530615         -82906.18          585832.73         
29530620         -82795.43          585503.34         
29530635         -82736.35          585961.48         
29530641         -82710.24          585381.60         
29530643         -82704.33          585334.35         
29530655         -82650.36          585281.23         
29530679         -82542.77          585189.10         
29530683         -82534.05          586165.73         
29530697         -82431.72          585146.35         
29530700         -82386.65          586316.35         
29530705         -82326.99          586513.48         
29530710         -82290.18          585063.98         
29530727         -82232.18          586798.60         
29530765         -82135.91          587103.73         
29530781         -82012.52          587358.10         
29530826         -81755.65          587548.60         
29530827         -81734.87          587558.67         
29530828         -81726.27          587567.98         
29530852         -81558.43          587649.67         
29530864         -81491.30          587742.10         
29530900         -81253.85          587851.92         
29530901         -81158.36          587838.79         
29530942         -80837.65          587980.92         
29531026         -80532.96          588124.85         
29531035         -80507.15          588126.42         
29531039         -80500.19          588129.60         
29531109         -80248.46          588242.98         
29531185         -80019.75          588346.60         
29531220         -79874.30          588089.73         
29540053         -84233.68          591853.10         
29540097         -84145.41          590544.10         
29540120         -84086.24          592138.10         
29540121         -84082.22          592066.48         
29540142         -84021.94          592242.35         
29540164         -83983.85          590392.23         
29540175         -83963.54          592349.48         
29540231         -83877.15          590513.73         
29540284         -83789.65          592588.35         
29540319         -83720.99          593500.85         
29540328         -83714.96          592695.10         
29540341         -83695.61          593440.23         
29540357         -83657.47          592770.73         
29540361         -83652.08          590409.85         
29540374         -83637.24          593385.98         
29540407         -83579.50          592878.60         
29540447         -83511.08          592972.98         
29540466         -83481.35          590328.35         
29540471         -83476.65          593271.35         
29540476         -83470.08          593028.10         
29540542         -83359.90          593180.10         
29540608         -83229.61          590317.60         
29540716         -83003.88          590304.10         
29540872         -82776.38          590285.85         
29540973         -82543.50          590263.98         
29541113         -82313.94          590246.85         
29541136         -82254.25          590538.98         
29541377         -81486.46          590853.85         
29541383         -81479.02          590804.60         
29541427         -81315.38          590867.60         
29541429         -81305.27          590909.35         
29541466         -81152.69          590921.48         
29541632         -80914.38          590941.35         
29541828         -80605.61          590970.35         
29542022         -80289.63          591001.60         
29542174         -80066.83          591023.73         
29542277         -79868.15          591021.48         
29550002         -83896.00          594134.73         
29550009         -83811.40          593945.85         
29550015         -83714.77          593733.73         
29550018         -83700.80          593641.48         
29550108         -83334.15          594877.73         
29550128         -83269.13          594829.23         
29550165         -83135.16          595152.35         
29550173         -83090.15          595215.35         
29550178         -83067.47          595262.35         
29550203         -82954.86          595363.73         
29550234         -82833.93          595469.85         
29550258         -82695.54          595566.35         
29550297         -82513.77          595682.73         
29550349         -82305.32          595827.73         
29550383         -82142.65          595956.48         
29550427         -81981.29          596092.35         
29550469         -81819.19          596251.10         
29550501         -81689.63          596383.98         
29550531         -81555.30          596520.60         
29550581         -81404.80          596673.23         
29550636         -81219.10          596866.60         
25460024         -101480.27         556037.79         
25460026         -101479.88         556058.85         
25460045         -101352.53         556030.48         
25460048         -101324.33         556120.54         
25460055         -101262.00         555379.85         
25460058         -101249.99         555404.35         
25460079         -101166.36         555576.10         
25460083         -101156.58         555990.73         
25460086         -101155.75         555928.98         
25460095         -101147.29         555771.73         
25460097         -101146.36         556016.73         
25460098         -101145.38         556003.60         
25460136         -100924.14         556011.73         
25460173         -100726.94         556052.98         
25460204         -100610.79         556100.10         
25460236         -100483.55         556163.85         
25460244         -100439.68         556188.48         
25460271         -100195.47         556344.48         
25460277         -99891.69          556534.23         
25460296         -99592.60          556718.35         
25460310         -99447.38          556804.10         
25460325         -99279.08          556909.23         
25460370         -99063.79          557052.73         
26480431         -94718.75          564905.60         
26480465         -94672.40          564842.98         
26480803         -94229.71          567100.60         
26480815         -94218.85          567095.60         
26481089         -93945.65          565364.60         
26481292         -93689.10          565512.35         
26481379         -93476.82          565630.85         
26481384         -93452.74          565645.98         
27480074         -93211.55          565777.23         
27480182         -92961.40          565913.48         
27480285         -92733.40          566029.48         
27480309         -92663.97          565896.35         
27480332         -92592.43          565761.60         
27480352         -92554.40          565689.48         
27480382         -92469.08          565523.23         
27480460         -92321.83          565880.35         
27480494         -92208.72          565523.35         
27480506         -92172.29          565325.60         
27480515         -92150.36          565200.10         
27480549         -92058.29          566036.48         
27480633         -91885.29          566130.60         
27480685         -91799.16          565945.73         
27480724         -91720.93          566652.35         
27480730         -91714.11          566433.73         
27480734         -91709.15          565767.60         
27480742         -91695.00          566544.73         
27480750         -91685.52          566280.48         
27480773         -91654.68          567949.85         
27480788         -91633.32          566712.10         
27480813         -91579.24          567804.85         
27480825         -91560.40          566854.48         
27480827         -91559.05          566761.10         
27480843         -91538.13          567647.35         
27480858         -91522.75          567140.98         
27480894         -91480.80          567433.60         
27481554         -89947.44          567184.48         
27481558         -89943.11          567976.85         
27481565         -89937.02          567158.73         
27481578         -89913.69          567090.98         
27481588         -89897.55          566969.98         
27481639         -89817.07          566814.85         
27481659         -89789.86          567547.35         
27481669         -89768.91          567873.85         
27481720         -89703.94          567251.48         
27481752         -89664.44          567159.73         
27481792         -89590.96          567044.98         
27481858         -89410.97          566808.85         
27481967         -89243.19          566686.73         
27482027         -89138.90          566633.73         
27482112         -88985.71          566590.73         
27482155         -88892.52          566576.23         
27490698         -91854.54          568803.60         
27490710         -91841.38          568789.73         
27490726         -91821.13          568283.10         
27490734         -91806.25          568473.60         
27490753         -91783.74          568654.60         
27490769         -91743.80          568315.23         
27490772         -91732.07          568103.98         
27490845         -91591.32          568862.23         
27490865         -91554.18          568813.85         
27490981         -91341.10          568994.10         
27490990         -91333.05          568949.48         
27491053         -91236.21          569006.48         
27491224         -90982.90          569158.73         
27491320         -90834.44          569268.10         
27491359         -90763.46          569383.60         
27491432         -90644.50          569586.98         
27491481         -90553.21          569534.60         
27491538         -90467.22          569436.23         
27491718         -90264.63          569424.85         
27491827         -90159.29          569362.23         
27491878         -90113.47          569335.60         
27491987         -90003.77          569421.23         
27492018         -89969.32          569542.85         
27492042         -89945.97          569555.73         
27492057         -89936.65          568898.35         
27492064         -89932.10          568493.98         
27492066         -89931.08          568662.48         
27492071         -89927.97          568273.23         
27492089         -89920.96          568054.73         
27492216         -89790.44          569651.98         
27492284         -89723.30          568975.73         
27492290         -89715.27          569681.85         
27492306         -89707.11          569325.60         
27492316         -89699.21          569687.85         
27492333         -89686.32          569682.23         
27492435         -89561.79          569811.23         
27492446         -89550.54          569804.98         
27492454         -89542.44          569955.73         
27492460         -89531.85          569945.10         
27492471         -89519.41          569940.60         
27492473         -89517.13          570151.48         
27492487         -89505.74          570140.98         
27492541         -89431.65          570405.60         
27492548         -89416.24          570404.73         
27492596         -89343.15          570680.35         
27492600         -89336.16          570666.35         
27492670         -89246.44          570784.48         
27492679         -89235.47          570773.60         
27492683         -89234.60          571072.35         
27492688         -89227.63          571373.48         
27492692         -89221.52          571679.23         
27492694         -89214.29          571207.85         
27492700         -89203.47          571687.36         
27492746         -89065.46          570631.23         
27492783         -88986.79          570597.23         
27500012         -90040.52          575806.60         
27500021         -90022.30          575990.10         
27500033         -89991.90          575633.23         
27500049         -89951.90          575487.23         
27500057         -89936.66          576087.60         
27500084         -89867.90          575335.73         
27500091         -89846.82          576077.48         
27500095         -89836.35          576091.23         
27500098         -89828.50          576185.73         
27500099         -89826.63          576283.10         
27500101         -89818.04          576299.10         
27500107         -89805.36          576427.73         
27500145         -89746.80          575237.10         
27500199         -89677.60          575066.23         
27500207         -89665.13          575183.23         
27500212         -89649.36          575042.73         
27500219         -89635.97          574265.60         
27500238         -89616.96          573997.23         
27500241         -89611.41          574749.23         
27500255         -89596.13          573804.60         
27500263         -89587.44          574529.60         
27500271         -89572.40          574430.48         
27500336         -89435.66          573737.48         
27500411         -89272.54          573666.23         
27500447         -89204.96          573536.73         
27500526         -89096.00          573320.60         
27500588         -89004.77          573140.35         
27500660         -88906.70          572949.48         
27500677         -88891.11          572492.61         
27510388         -90491.46          577000.85         
27510422         -90442.47          576907.10         
27510454         -90370.22          576860.10         
27510497         -90251.04          576835.23         
27510499         -90244.21          576751.85         
27510530         -90151.50          576751.35         
27510558         -90075.33          576677.48         
27510613         -89933.35          576636.10         
28480124         -88667.16          566521.60         
28480244         -88414.94          566493.10         
28480388         -88161.40          566461.48         
28480555         -87871.05          566427.85         
28480701         -87593.36          566390.10         
28480886         -87324.61          566354.48         
28481023         -87156.96          566368.85         
28481150         -86989.16          566421.73         
28481217         -86886.05          566438.35         
28481384         -86494.93          566271.23         
28481399         -86459.72          566258.35         
28481449         -86364.25          566231.60         
28481550         -86163.68          566178.10         
28481637         -85932.75          566125.23         
28481721         -85679.00          566073.48         
28481841         -85478.18          566090.35         
28481946         -85320.41          566142.98         
28482052         -85118.36          566215.85         
28482111         -84993.54          566247.85         
28482183         -84860.90          566246.98         
28482261         -84703.33          566194.85         
28482400         -84454.24          566041.23         
28483699         -85018.44          566241.47         
28482543         -84727.90          566202.98         
28490066         -88704.86          570474.73         
28490155         -88499.57          570392.23         
28500045         -88805.42          572749.98         
28500047         -88804.42          572535.86         
28500123         -88694.25          572620.61         
29480069         -84119.77          565824.14         
29480135         -84095.19          565808.23         
29480195         -83948.55          565711.85         
29480267         -83816.44          565657.60         
29480362         -83620.21          565616.73         
29480402         -83541.00          565655.85         
29480416         -83504.24          565708.29         
29480421         -83492.44          565725.10         
29480423         -83486.44          565829.35         
29481469         -84203.07          565878.73         
27510797         -91144.23          578032.99         
27510798         -91124.04          578022.76         
27482125         -88965.54          566774.83         
28480102         -88691.22          566755.33         
27492710         -89021.33          572312.48         
kaneohe          -89160.27          572650.13         
kk01xa1860       -85164.16          585014.37         
25460377         -98923.07          557146.82         
kk20bb2010       -101162.64         555780.44         
kk30ga1210       -85953.05          565944.93         

[MAP]
DIMENSIONS -101480.27 555379.85 -76842.75 596866.60
Units      None

[REPORT]
SUBCATCHMENTS ALL
NODES ALL
LINKS ALL
