;; SWMM5 .inp converted from XPSWMM .xp file
;; Generated by XPSWMM Card Reader
;; Source format: XP_CARD | Original title: Inverted syphon example from Vanslambrouck et al. (1986)

[TITLE]
;;Project Title/Notes
Inverted syphon example from Vanslambrouck et al. (1986)

[OPTIONS]
FLOW_UNITS           CMS
INFILTRATION         HORTON
FLOW_ROUTING         DYNWAVE
LINK_OFFSETS         DEPTH
MIN_SLOPE            0.0
ALLOW_PONDING        NO
SKIP_STEADY_STATE    NO
ROUTING_STEP         00:00:30
VARIABLE_STEP        0.75
INERTIAL_DAMPING     FULL
NORMAL_FLOW_LIMITED  BOTH
MAX_TRIALS           100
HEAD_TOLERANCE       1e-3
START_DATE           01/01/2001
START_TIME           00:00:00
REPORT_START_DATE    01/01/2001
REPORT_START_TIME    00:00:00
END_DATE             01/02/2001
END_TIME             00:00:00
SWEEP_START          01/01
SWEEP_END            12/31
DRY_DAYS             0
REPORT_STEP          00:15:00
WET_STEP             00:05:00
DRY_STEP             01:00:00

[JUNCTIONS]
;;Name           Elev       MaxDepth   InitDepth  SurDepth   Aponded
;;-------------- ---------- ---------- ---------- ---------- ----------
Inflow           100.00     0          0          0          0
K4.2             100.00     0          0          0          0
Outfall          100.00     0          0          0          0
213              100.00     0          0          0          0
215              100.00     0          0          0          0
217              100.00     0          0          0          0
219              100.00     0          0          0          0
212.2            75.00      0          0          0          0
212.3            75.00      0          0          0          0

[OUTFALLS]
;;Name           Elev       Type       Stage      Gated
;;-------------- ---------- ---------- ---------- -----
K4.3             100.00     FREE                  NO

[CONDUITS]
;;Name           From             To               Length     Roughness  InOffset   OutOffset  InitFlow   MaxFlow
;;-------------- ---------------- ---------------- ---------- ---------- ---------- ---------- ---------- ----------
203              Inflow           213              200.00     0.0140     91.00      90.00      0          0
215              215              Outfall          100.00     0.0140     85.00      84.00      0          0
212.1            212.2            212.3            100.00     0.0140     75.00      75.00      0          0
213              213              K4.3             100.00     0.0140     90.00      75.00      0          0
205              K4.2             215              24.00      0.0140     75.00      85.00      0          0
213_2            213              217              100.00     0.0140     90.00      75.00      0          0
217              217              219              100.00     0.0140     75.00      75.00      0          0
219              219              215              100.00     0.0140     75.00      85.00      0          0

[XSECTIONS]
;;Link           Shape        Geom1      Geom2      Geom3      Geom4      Barrels
;;-------------- ------------ ---------- ---------- ---------- ---------- ----------
203              CIRCULAR     3.00       0          0          0          1
215              CIRCULAR     3.00       0          0          0          1
212.1            RECT_CLOSED  1.20       2.00       0          0          3
213              CIRCULAR     2.00       0          0          0          1
205              CIRCULAR     2.00       0          0          0          1
213_2            CIRCULAR     2.00       0          0          0          1
217              RECT_CLOSED  1.20       2.00       0          0          1
219              CIRCULAR     2.00       0          0          0          1

[LOSSES]
;;Link           Inlet      Outlet     Average    Flap Gate
;;-------------- ---------- ---------- ---------- ----------
203              0          0          0          NO
215              0          0          0          NO
212.1            0          0          0          NO
213              0          0          0          NO
205              0          0          0          NO
213_2            0          0          0          NO
217              0          0          0          NO
219              0          0          0          NO

[COORDINATES]
;;Node           X-Coord            Y-Coord
;;-------------- ------------------ ------------------
Inflow           -17.56             686.49            
K4.3             23.70              730.46            
K4.2             23.64              782.73            
Outfall          -9.47              838.29            
213              -18.24             728.72            
215              -8.92              789.74            
217              43.23              704.53            
219              41.86              805.46            

[MAP]
DIMENSIONS -18.24 686.49 43.23 838.29
Units      None

[REPORT]
SUBCATCHMENTS ALL
NODES ALL
LINKS ALL
