;; SWMM5 .inp converted from XPSWMM .xp file
;; Generated by XPSWMM Card Reader
;; Source format: XP_CARD | Original title: (none)
;; Links parsed from source: 16 | Routable in this .inp: 16

[TITLE]
;;Project Title/Notes
Converted from XPSWMM .xp file

[OPTIONS]
FLOW_UNITS           CFS
INFILTRATION         HORTON
FLOW_ROUTING         DYNWAVE
LINK_OFFSETS         DEPTH
MIN_SLOPE            0.0
ALLOW_PONDING        NO
SKIP_STEADY_STATE    NO
ROUTING_STEP         00:00:03
VARIABLE_STEP        0.75
INERTIAL_DAMPING     PARTIAL
NORMAL_FLOW_LIMITED  BOTH
START_DATE           01/01/2001
START_TIME           00:00:00
REPORT_START_DATE    01/01/2001
REPORT_START_TIME    00:00:00
END_DATE             01/02/2001
END_TIME             00:00:00
SWEEP_START          01/01
SWEEP_END            12/31
DRY_DAYS             0
REPORT_STEP          00:15:00
WET_STEP             00:05:00
DRY_STEP             01:00:00

[JUNCTIONS]
;;Name           Elev       MaxDepth   InitDepth  SurDepth   Aponded
;;-------------- ---------- ---------- ---------- ---------- ----------
Pond             161.50     0          0          0          0
Pond_2           161.50     0          0          0          0
Node4            157.00     0          0          0          0
ROW              162.93     0          0          0          0
Node6            163.29     0          0          0          0
MH               163.20     0          0          0          0
Node8            162.10     0          0          0          0
Node9            163.55     0          0          0          0
Node10           163.63     0          0          0          0
MH_2             163.25     0          0          0          0
Node12           162.28     0          0          0          0
Node13           164.46     0          0          0          0
Node14           164.38     0          0          0          0
MH_3             164.46     0          0          0          0
MH_4             162.17     0          0          0          0
Inlet            160.98     0          0          0          0

[OUTFALLS]
;;Name           Elev       Type       Stage      Gated
;;-------------- ---------- ---------- ---------- -----
Node3            160.00     FREE                  NO

[CONDUITS]
;;Name           From             To               Length     Roughness  InOffset   OutOffset  InitFlow   MaxFlow
;;-------------- ---------------- ---------------- ---------- ---------- ---------- ---------- ---------- ----------
205              Node4            Node3            110.00     0.0130     150.00     149.50     0          0
202              Pond             Pond             217.00     0.0130     150.22     150.00     0          0
209              ROW              Pond             152.00     0.0130     150.28     150.00     0          0
211              Node6            ROW              137.00     0.0130     150.53     150.28     0          0
213              MH               Node6            67.00      0.0130     150.65     150.53     0          0
215              Node8            MH               53.00      0.0130     151.56     151.40     0          0
217              Node9            Node8            106.00     0.0130     151.83     151.56     0          0
219              Node10           Node9            60.00      0.0130     151.98     151.83     0          0
221              MH               Node10           58.00      0.0130     155.10     155.00     0          0
223              Node12           Node10           12.00      0.0130     152.00     151.98     0          0
225              Node13           Node12           128.00     0.0130     153.29     153.06     0          0
226              Node14           Node13           7.00       0.0130     153.30     153.29     0          0
229              MH               Node14           178.00     0.0130     153.62     153.30     0          0
231              MH               MH               60.00      0.0130     153.73     153.62     0          0
233              Inlet            MH               133.00     0.0130     155.74     155.48     0          0

[WEIRS]
;;Name           From             To               Type       CrestHt    Qcoeff     Gated    EndCon   EndCoeff   Surcharge
;;-------------- ---------------- ---------------- ---------- ---------- ---------- -------- -------- ---------- ----------
203              Pond             Node4            TRANSVERSE 157.00     1.840      NO       0        0          YES

[XSECTIONS]
;;Link           Shape        Geom1      Geom2      Geom3      Geom4      Barrels
;;-------------- ------------ ---------- ---------- ---------- ---------- ----------
205              CIRCULAR     4.00       0          0          0          3
202              RECT_CLOSED  4.00       8.00       0          0          2
209              CIRCULAR     4.00       0          0          0          1
211              CIRCULAR     4.00       0          0          0          1
213              CIRCULAR     4.00       0          0          0          1
215              CIRCULAR     3.00       0          0          0          1
217              CIRCULAR     3.00       0          0          0          1
219              CIRCULAR     3.00       0          0          0          1
221              CIRCULAR     2.00       0          0          0          1
223              CIRCULAR     3.00       0          0          0          1
225              CIRCULAR     3.00       0          0          0          1
226              CIRCULAR     3.00       0          0          0          1
229              CIRCULAR     3.00       0          0          0          1
231              CIRCULAR     3.00       0          0          0          1
233              CIRCULAR     2.50       0          0          0          1
203              RECT_OPEN    1.00       23.00      0          0

[LOSSES]
;;Link           Inlet      Outlet     Average    Flap Gate
;;-------------- ---------- ---------- ---------- ----------
205              0          0          0          NO
202              0          0          0          NO
209              0          0          0          NO
211              0          0          0          NO
213              0          0          0          NO
215              0          0          0          NO
217              0          0          0          NO
219              0          0          0          NO
221              0          0          0          NO
223              0          0          0          NO
225              0          0          0          NO
226              0          0          0          NO
229              0          0          0          NO
231              0          0          0          NO
233              0          0          0          NO

[INFLOWS]
;;Node           Constituent  Time Series      Type     Mfactor  Sfactor  Baseline Pattern
;;-------------- ------------ ---------------- -------- -------- -------- -------- --------
;; SYNTHETIC TEST INFLOWS — the source .xp carried no constant inflows
;; and RUNF hydrology is not converted; 1.00 CFS is applied at each
;; headwater node so the network runs wet for QA. Replace with real
;; hydrology or inflow hydrographs before using results.
Inlet            FLOW         ""               FLOW     1.0      1.0      1.00

[COORDINATES]
;;Node           X-Coord            Y-Coord
;;-------------- ------------------ ------------------
Pond             -13971049.46       3053493.14        
Pond_2           -13971067.86       3054191.46        
Node3            -13971069.39       3054473.75        
Node4            -13971060.48       3054357.50        
ROW              -13971228.00       3053487.77        
Node6            -13971369.98       3053520.01        
MH               -13971422.25       3053553.31        
Node8            -13971427.96       3053481.82        
Node9            -13971439.23       3053397.44        
Node10           -13971433.69       3053339.13        
MH_2             -13971422.58       3053285.61        
Node12           -13971449.37       3053337.30        
Node13           -13971563.90       3053328.04        
Node14           -13971592.92       3053322.60        
MH_3             -13971755.28       3053314.61        
MH_4             -13971764.56       3053377.15        
Inlet            -13971889.35       3053377.81        

[MAP]
DIMENSIONS -13971889.35 3053285.61 -13971049.46 3054473.75
Units      None

[REPORT]
SUBCATCHMENTS ALL
NODES ALL
LINKS ALL
