;; SWMM5 .inp converted from XPSWMM .xp file
;; Generated by XPSWMM Card Reader
;; Source format: XP_CARD | Original title: design storm; new relief sewers, western pump, pump @ plant
;; Links parsed from source: 665 | Routable in this .inp: 665

[TITLE]
;;Project Title/Notes
design storm; new relief sewers, western pump, pump @ plant

[OPTIONS]
FLOW_UNITS           CFS
INFILTRATION         HORTON
FLOW_ROUTING         DYNWAVE
LINK_OFFSETS         DEPTH
MIN_SLOPE            0.0
ALLOW_PONDING        NO
SKIP_STEADY_STATE    NO
ROUTING_STEP         00:00:05
VARIABLE_STEP        0.75
INERTIAL_DAMPING     PARTIAL
NORMAL_FLOW_LIMITED  BOTH
MAX_TRIALS           100
HEAD_TOLERANCE       0.0033
START_DATE           01/01/2001
START_TIME           00:00:00
REPORT_START_DATE    01/01/2001
REPORT_START_TIME    00:00:00
END_DATE             01/02/2001
END_TIME             00:00:00
SWEEP_START          01/01
SWEEP_END            12/31
DRY_DAYS             0
REPORT_STEP          00:15:00
WET_STEP             00:05:00
DRY_STEP             01:00:00

[JUNCTIONS]
;;Name           Elev       MaxDepth   InitDepth  SurDepth   Aponded
;;-------------- ---------- ---------- ---------- ---------- ----------
E31500A          600.00     0          0          0          0
OF_36Aly1E       598.80     0          0          0          0
OF_32Aly1E       598.80     0          0          0          0
C41507           610.00     0          0          0          0
C41504           607.00     0          0          0          0
C41501           607.00     0          0          0          0
C41488           608.00     0          0          0          0
C41487           607.00     0          0          0          0
C41486           608.00     0          0          0          0
C41484           610.00     0          0          0          0
C41483           607.00     0          0          0          0
C41292           602.00     0          0          0          0
C41290           600.00     0          0          0          0
C41261           600.10     0          0          0          0
C41276           606.00     0          0          0          0
C41188           600.00     0          0          0          0
C41252           601.00     0          0          0          0
C22728A          592.00     0          0          0          0
C2JCT3           598.00     0          0          0          0
C22735           596.00     0          0          0          0
C22733           594.00     0          0          0          0
C22727           598.00     0          0          0          0
C22726           598.00     0          0          0          0
C22725           597.00     0          0          0          0
C22745           595.00     0          0          0          0
C22742           595.00     0          0          0          0
C22741           596.00     0          0          0          0
C22740           596.00     0          0          0          0
C22739           596.00     0          0          0          0
C22738           595.00     0          0          0          0
C2JCT1           596.00     0          0          0          0
C22736           595.00     0          0          0          0
C22724           596.00     0          0          0          0
OF_25&Geor       596.00     0          0          0          0
D41025           596.00     0          0          0          0
D41023           594.00     0          0          0          0
D41022           594.00     0          0          0          0
D41032           597.00     0          0          0          0
D41057           597.00     0          0          0          0
D41110           596.00     0          0          0          0
D41059           599.00     0          0          0          0
D41093           598.60     0          0          0          0
D4JCT5           602.00     0          0          0          0
D40815           607.00     0          0          0          0
D40812           605.00     0          0          0          0
D40774           609.00     0          0          0          0
D40773           604.00     0          0          0          0
D40772           600.00     0          0          0          0
D41047           607.00     0          0          0          0
D41045           607.00     0          0          0          0
D41009           605.00     0          0          0          0
D41007           605.00     0          0          0          0
D40968           602.63     0          0          0          0
D40977           604.00     0          0          0          0
D40976           606.00     0          0          0          0
D40972           603.00     0          0          0          0
D40969           602.00     0          0          0          0
D40520           599.00     0          0          0          0
D40537           599.00     0          0          0          0
D40546           599.00     0          0          0          0
D40547           598.51     0          0          0          0
D40555           598.35     0          0          0          0
D41115           598.80     0          0          0          0
D41108           596.78     0          0          0          0
D40616A          609.00     0          0          0          0
D40643           613.00     0          0          0          0
D40754           605.00     0          0          0          0
D40686           603.00     0          0          0          0
D40697           604.00     0          0          0          0
D40702           603.00     0          0          0          0
D40713           604.00     0          0          0          0
D40718           603.00     0          0          0          0
D40735           604.00     0          0          0          0
D40767           599.00     0          0          0          0
D30084           599.00     0          0          0          0
D30083           599.00     0          0          0          0
D30072           600.00     0          0          0          0
D30071           599.00     0          0          0          0
D30058           600.00     0          0          0          0
D30057           600.00     0          0          0          0
D30050           600.00     0          0          0          0
D30422           600.13     0          0          0          0
D30452           600.00     0          0          0          0
D30420           600.04     0          0          0          0
D30261           600.07     0          0          0          0
D30262           600.00     0          0          0          0
D30260           599.00     0          0          0          0
D30243           599.00     0          0          0          0
D30242           599.00     0          0          0          0
D30225           599.00     0          0          0          0
D30224           599.00     0          0          0          0
D30208           599.00     0          0          0          0
D30207           599.00     0          0          0          0
D30280           601.00     0          0          0          0
D30281           601.00     0          0          0          0
D30304           600.00     0          0          0          0
D30305           600.00     0          0          0          0
D30324           600.00     0          0          0          0
D30325           600.00     0          0          0          0
D30073           600.00     0          0          0          0
D30074           601.00     0          0          0          0
D30506           603.00     0          0          0          0
D30512           603.00     0          0          0          0
D30523           602.00     0          0          0          0
D30530           600.00     0          0          0          0
D30542           601.00     0          0          0          0
D30546           601.00     0          0          0          0
D30491           607.00     0          0          0          0
D30496           608.00     0          0          0          0
D30498           607.00     0          0          0          0
D30553           601.00     0          0          0          0
D30556           600.00     0          0          0          0
D30547           600.00     0          0          0          0
D30576           603.00     0          0          0          0
D30575           602.00     0          0          0          0
D30574           602.00     0          0          0          0
D30572           601.00     0          0          0          0
D30569           600.00     0          0          0          0
D30568           600.00     0          0          0          0
D30176           601.00     0          0          0          0
D30579           607.00     0          0          0          0
D30680           602.00     0          0          0          0
D30709           606.00     0          0          0          0
D30684           603.00     0          0          0          0
D30683           602.00     0          0          0          0
D30682           601.00     0          0          0          0
D30678           600.00     0          0          0          0
D30696           606.00     0          0          0          0
D30667           606.00     0          0          0          0
D30623           606.00     0          0          0          0
D30615           606.00     0          0          0          0
D30594           606.00     0          0          0          0
D30709A          607.00     0          0          0          0
D30795           608.00     0          0          0          0
D30795A          608.00     0          0          0          0
D30792           603.00     0          0          0          0
D30751           602.00     0          0          0          0
D30747           602.00     0          0          0          0
D30746           603.00     0          0          0          0
D30727           603.00     0          0          0          0
D30806           608.00     0          0          0          0
D30811           610.00     0          0          0          0
D30812           612.00     0          0          0          0
D30813           614.00     0          0          0          0
C41278           600.00     0          0          0          0
C41286A          601.00     0          0          0          0
C41286B          603.00     0          0          0          0
C41596           604.00     0          0          0          0
C41597           606.00     0          0          0          0
C41598           606.00     0          0          0          0
C41599           604.00     0          0          0          0
C41595           602.00     0          0          0          0
C41396           602.00     0          0          0          0
C41415           602.00     0          0          0          0
C41446           602.00     0          0          0          0
C41467           602.00     0          0          0          0
C41561           601.83     0          0          0          0
C41581           602.08     0          0          0          0
C41747           602.00     0          0          0          0
C41687           604.00     0          0          0          0
C41667           604.00     0          0          0          0
C41644           605.00     0          0          0          0
C41626           603.00     0          0          0          0
C41613           603.00     0          0          0          0
C41605           600.00     0          0          0          0
C41321           599.00     0          0          0          0
C41366           599.00     0          0          0          0
C41416           599.00     0          0          0          0
C41440           600.00     0          0          0          0
C41473           599.44     0          0          0          0
C41473A          599.32     0          0          0          0
C41567           599.20     0          0          0          0
C41574           599.00     0          0          0          0
C41610           610.00     0          0          0          0
C41630           601.00     0          0          0          0
C41608           599.01     0          0          0          0
C41609           599.37     0          0          0          0
C41616           606.00     0          0          0          0
C41617A          602.00     0          0          0          0
C41289           601.00     0          0          0          0
C41543           601.00     0          0          0          0
C41518           604.00     0          0          0          0
C41519           600.00     0          0          0          0
C41520           602.00     0          0          0          0
C41521           598.00     0          0          0          0
C41571           598.00     0          0          0          0
C41570           597.00     0          0          0          0
C41476           598.00     0          0          0          0
C41363           598.00     0          0          0          0
C41390           598.00     0          0          0          0
C41437           598.00     0          0          0          0
C41419           598.00     0          0          0          0
C41328           599.00     0          0          0          0
C41771           603.00     0          0          0          0
C41770           603.00     0          0          0          0
C41765           603.00     0          0          0          0
C41782           602.00     0          0          0          0
C41788           603.00     0          0          0          0
C41753           601.00     0          0          0          0
C41752           602.00     0          0          0          0
C41722           603.00     0          0          0          0
C41721           602.62     0          0          0          0
C41678           601.53     0          0          0          0
C41676           600.00     0          0          0          0
C41635           599.00     0          0          0          0
C41633           600.00     0          0          0          0
C41750           600.92     0          0          0          0
C41421           599.00     0          0          0          0
C41361           598.00     0          0          0          0
C41356           599.00     0          0          0          0
C41333           599.00     0          0          0          0
C41325           599.00     0          0          0          0
C41311           602.00     0          0          0          0
C41299           605.00     0          0          0          0
C41516           603.00     0          0          0          0
C41515           602.00     0          0          0          0
C41513           599.00     0          0          0          0
C41512           601.00     0          0          0          0
C41511           601.00     0          0          0          0
C31389           599.00     0          0          0          0
C31389B          599.00     0          0          0          0
C31392           599.00     0          0          0          0
C31406           599.00     0          0          0          0
C31459           598.00     0          0          0          0
C31527           598.00     0          0          0          0
C31549           598.00     0          0          0          0
C31621           598.00     0          0          0          0
C31650           598.00     0          0          0          0
C31652A          598.00     0          0          0          0
C31617           598.00     0          0          0          0
C31461           598.00     0          0          0          0
C31478           599.00     0          0          0          0
C31475           598.00     0          0          0          0
C31460           598.08     0          0          0          0
C31457           599.00     0          0          0          0
C31480           597.00     0          0          0          0
C31524           597.00     0          0          0          0
C31554           598.00     0          0          0          0
C31653           598.00     0          0          0          0
C31712           598.00     0          0          0          0
C31746           597.00     0          0          0          0
C31807           598.00     0          0          0          0
C31806           597.00     0          0          0          0
C31744           599.00     0          0          0          0
C31808           597.00     0          0          0          0
C31809           597.00     0          0          0          0
C31828           597.00     0          0          0          0
C32207           596.00     0          0          0          0
C32231           595.00     0          0          0          0
C32233           595.00     0          0          0          0
C32206           597.00     0          0          0          0
C32267           595.00     0          0          0          0
C32282           596.00     0          0          0          0
C32286           596.00     0          0          0          0
C32287           596.00     0          0          0          0
C32288           597.00     0          0          0          0
C32290           597.00     0          0          0          0
C32338           596.00     0          0          0          0
C32365           595.00     0          0          0          0
C32387           597.00     0          0          0          0
C32388           596.00     0          0          0          0
C32415           596.00     0          0          0          0
C32416           597.00     0          0          0          0
C32459           596.00     0          0          0          0
C32457           596.00     0          0          0          0
C32465           597.00     0          0          0          0
C32487           598.00     0          0          0          0
C32571           596.00     0          0          0          0
C32485           597.00     0          0          0          0
C32482           597.00     0          0          0          0
C32424           596.00     0          0          0          0
C32436           596.00     0          0          0          0
C32439           597.00     0          0          0          0
C32473           597.00     0          0          0          0
C32515           597.00     0          0          0          0
C32509           597.00     0          0          0          0
C31506           598.00     0          0          0          0
C31507           599.00     0          0          0          0
C31510           599.00     0          0          0          0
C31511           599.00     0          0          0          0
C31672           599.00     0          0          0          0
C31683           599.00     0          0          0          0
C31593           599.00     0          0          0          0
C31573           600.00     0          0          0          0
C31498           599.00     0          0          0          0
C31500           599.00     0          0          0          0
C31432           601.00     0          0          0          0
C31433           601.00     0          0          0          0
C31434           599.00     0          0          0          0
C31290           600.00     0          0          0          0
C31293           600.00     0          0          0          0
C31295           601.00     0          0          0          0
C31297           600.00     0          0          0          0
C31351           599.00     0          0          0          0
C31599           601.00     0          0          0          0
C31610           602.00     0          0          0          0
C31416           600.00     0          0          0          0
C31418           603.00     0          0          0          0
C31381           602.00     0          0          0          0
C31453           600.00     0          0          0          0
C31518           600.00     0          0          0          0
C31560A          600.00     0          0          0          0
C31609           602.00     0          0          0          0
C31705           601.00     0          0          0          0
C31661           601.00     0          0          0          0
C31800A          600.00     0          0          0          0
C31799           600.00     0          0          0          0
C32198           597.00     0          0          0          0
C32242           596.00     0          0          0          0
C32256           597.00     0          0          0          0
C32293           598.00     0          0          0          0
C32325           598.00     0          0          0          0
C32331           597.00     0          0          0          0
C32534           598.00     0          0          0          0
C32546           598.00     0          0          0          0
D40993           593.00     0          0          0          0
D40991           594.00     0          0          0          0
D40639           613.00     0          0          0          0
D20939           599.00     0          0          0          0
D20894           598.00     0          0          0          0
D21040           595.00     0          0          0          0
D21025           596.00     0          0          0          0
D21063           594.00     0          0          0          0
D20955           596.00     0          0          0          0
D20944           598.00     0          0          0          0
D20940           600.00     0          0          0          0
D21076           601.00     0          0          0          0
D21078           601.00     0          0          0          0
D21079           601.00     0          0          0          0
D21080           601.00     0          0          0          0
D20950D          596.00     0          0          0          0
D23433           602.00     0          0          0          0
D23331           613.00     0          0          0          0
D23333           617.00     0          0          0          0
D23343           609.00     0          0          0          0
D23344A          606.00     0          0          0          0
D23344D          604.00     0          0          0          0
D21143           608.00     0          0          0          0
D21144           608.00     0          0          0          0
D21148           606.00     0          0          0          0
D21154           605.00     0          0          0          0
D21118           605.00     0          0          0          0
D21117           606.00     0          0          0          0
D20923           597.00     0          0          0          0
D20913           597.00     0          0          0          0
D20899A          596.00     0          0          0          0
D20904           596.00     0          0          0          0
D20883           598.00     0          0          0          0
D20877           596.00     0          0          0          0
D20875           597.00     0          0          0          0
D20863           598.00     0          0          0          0
D20854           598.00     0          0          0          0
C32132           600.00     0          0          0          0
C32100a          598.00     0          0          0          0
C32608           597.00     0          0          0          0
C32665           598.00     0          0          0          0
C32613           595.00     0          0          0          0
C32616           595.00     0          0          0          0
C32584           596.00     0          0          0          0
C32630           595.00     0          0          0          0
C32632           596.00     0          0          0          0
C32635           597.00     0          0          0          0
C32656           598.00     0          0          0          0
C32667           597.00     0          0          0          0
C32073           598.00     0          0          0          0
C32095           596.00     0          0          0          0
C32107           598.00     0          0          0          0
C32051           599.00     0          0          0          0
C32038           598.00     0          0          0          0
C31916           599.00     0          0          0          0
C31990A          599.00     0          0          0          0
C32000           599.00     0          0          0          0
C32017A          599.00     0          0          0          0
C32124A          599.00     0          0          0          0
C32124           597.00     0          0          0          0
C32141A          598.00     0          0          0          0
C32128           597.00     0          0          0          0
C32129A          596.00     0          0          0          0
C32106           598.00     0          0          0          0
C32139           598.00     0          0          0          0
C32133           599.00     0          0          0          0
C32708           597.00     0          0          0          0
C3REGLTR2        592.00     0          0          0          0
C32480           597.00     0          0          0          0
C32699           600.00     0          0          0          0
C32695           599.28     0          0          0          0
C32694           599.00     0          0          0          0
C32693           602.00     0          0          0          0
C41189           599.00     0          0          0          0
C41190           599.00     0          0          0          0
C41191           599.00     0          0          0          0
C41192           599.00     0          0          0          0
C41193           599.00     0          0          0          0
C41188A          602.00     0          0          0          0
D40519           600.00     0          0          0          0
D31035           600.00     0          0          0          0
D31000           600.00     0          0          0          0
D31008           600.00     0          0          0          0
D31009           600.00     0          0          0          0
D31020           600.00     0          0          0          0
D31021           600.00     0          0          0          0
D310234          600.00     0          0          0          0
D31029           600.00     0          0          0          0
D31032           600.00     0          0          0          0
D31038           600.00     0          0          0          0
D31042           600.00     0          0          0          0
D31040           600.00     0          0          0          0
D31044           600.00     0          0          0          0
D31001           600.00     0          0          0          0
D24002           602.68     0          0          0          0
D24027           607.00     0          0          0          0
D24007           608.00     0          0          0          0
D24037           610.00     0          0          0          0
D24036           610.00     0          0          0          0
D340038          610.00     0          0          0          0
D24004           602.00     0          0          0          0
D240043          609.00     0          0          0          0
D24039           601.00     0          0          0          0
OUTFALL009       599.00     0          0          0          0
OF008            598.00     0          0          0          0
w1_nd            599.00     0          0          0          0
chs_sg           598.00     0          0          0          0
w2_out           600.00     0          0          0          0
OF_Chase         600.00     0          0          0          0
brg_sg           592.00     0          0          0          0
OF_Bridge        592.00     0          0          0          0
prc_weir         600.00     0          0          0          0
OF_Pierce        600.00     0          0          0          0
pk_rg_nd         599.00     0          0          0          0
pk_wr_nd         599.00     0          0          0          0
OF_Polk          599.00     0          0          0          0
2156             603.00     0          0          0          0
2159             600.00     0          0          0          0
2162             600.00     0          0          0          0
OF_RI_2          600.00     0          0          0          0
2166             600.00     0          0          0          0
OF_RI_1          600.00     0          0          0          0
2170             603.00     0          0          0          0
2206             596.00     0          0          0          0
C23156           596.00     0          0          0          0
C23158           598.00     0          0          0          0
C22938           595.00     0          0          0          0
C22937           593.00     0          0          0          0
C22930           592.00     0          0          0          0
C22919           592.00     0          0          0          0
C22753           595.00     0          0          0          0
C22755           591.00     0          0          0          0
C22789           593.00     0          0          0          0
C22790           595.00     0          0          0          0
C22807           595.00     0          0          0          0
C22809           594.00     0          0          0          0
C22828           593.00     0          0          0          0
C22830           593.00     0          0          0          0
C23053           593.00     0          0          0          0
C23051           593.00     0          0          0          0
C23024           593.00     0          0          0          0
C22824           590.00     0          0          0          0
C22826           591.00     0          0          0          0
C22869           593.00     0          0          0          0
C22870           592.00     0          0          0          0
C22872           591.00     0          0          0          0
C22894           593.00     0          0          0          0
C22895           592.00     0          0          0          0
C22753A          592.00     0          0          0          0
C22921           592.00     0          0          0          0
C22923           591.00     0          0          0          0
C22855           592.00     0          0          0          0
C22764           591.00     0          0          0          0
C23172           592.00     0          0          0          0
C23172B          592.00     0          0          0          0
C23172C          592.00     0          0          0          0
C23172E          592.00     0          0          0          0
C23172F          592.00     0          0          0          0
D13205           594.00     0          0          0          0
D13204           594.00     0          0          0          0
D13202           594.00     0          0          0          0
D13195           595.00     0          0          0          0
D13215           594.00     0          0          0          0
D13216           592.00     0          0          0          0
D13225           592.00     0          0          0          0
D13235           595.00     0          0          0          0
D13236           597.00     0          0          0          0
D13243           598.00     0          0          0          0
D13244           598.00     0          0          0          0
D13248           597.00     0          0          0          0
D13250           595.00     0          0          0          0
D13251           595.00     0          0          0          0
D13253           596.00     0          0          0          0
D13691           594.00     0          0          0          0
D13687           595.00     0          0          0          0
D13686           597.00     0          0          0          0
D13679           596.00     0          0          0          0
D13678           597.00     0          0          0          0
D13677           596.00     0          0          0          0
D13666           597.00     0          0          0          0
D13664           597.00     0          0          0          0
D13653           597.00     0          0          0          0
D13652           597.00     0          0          0          0
D13773           603.00     0          0          0          0
D13815           602.00     0          0          0          0
D13814           603.00     0          0          0          0
C23077           593.04     0          0          0          0
C23104           593.16     0          0          0          0
C23106           591.62     0          0          0          0
C23107           591.55     0          0          0          0
C22969A          591.50     0          0          0          0
C22990           592.54     0          0          0          0
C22925           591.00     0          0          0          0
C22927           591.00     0          0          0          0
C22926           591.00     0          0          0          0
OF_Colfax        591.00     0          0          0          0
19Adams          608.00     0          0          0          0
25Adams          600.00     0          0          0          0
plant_2          592.00     0          0          0          0
plant_3          592.00     0          0          0          0
N1               592.00     0          0          0          0
N3               598.00     0          0          0          0
N5               600.00     0          0          0          0
N7               600.00     0          0          0          0
N10              600.07     0          0          0          0
HW_3227403       604.60     0          0          0          0
HW_34934         582.22     0          0          0          0
HW_349414        598.18     0          0          0          0
HW_349519        597.23     0          0          0          0
HW_349623        596.73     0          0          0          0
HW_349728        595.62     0          0          0          0
HW_350144        593.20     0          0          0          0
HW_350247        592.81     0          0          0          0
HW_350350        592.16     0          0          0          0
HW_350454        591.43     0          0          0          0
HW_350555        590.90     0          0          0          0
HW_350960        589.07     0          0          0          0
HW_350777        588.55     0          0          0          0
HW_350880        588.35     0          0          0          0
HW_350684        587.92     0          0          0          0
HW_351190        587.45     0          0          0          0
HW_351496        590.11     0          0          0          0
HW_351599        590.14     0          0          0          0
HW_3512108       587.29     0          0          0          0
HW_3516112       586.94     0          0          0          0
HW_3518119       591.67     0          0          0          0
HW_3519122       590.86     0          0          0          0
HW_3517123       586.82     0          0          0          0
HW_3521126       598.09     0          0          0          0
HW_3520131       585.40     0          0          0          0
HW_3522135       584.58     0          0          0          0
HW_3523153       583.69     0          0          0          0
HW_3524154       581.51     0          0          0          0
HW_3527163       591.93     0          0          0          0
HW_3529174       588.21     0          0          0          0
HW_3531181       593.16     0          0          0          0
HW_3532183       592.17     0          0          0          0
HW_3533187       589.82     0          0          0          0
HW_3530194       586.05     0          0          0          0
B                0          0          0          0          0
HW_3569402       584.21     0          0          0          0
HW_3528404       588.71     0          0          0          0
HW_3513407       591.73     0          0          0          0
HW_3526411       593.79     0          0          0          0
HW_3498412       594.30     0          0          0          0
HW_3500414       595.13     0          0          0          0
HW_3499416       594.72     0          0          0          0
HW_3573401       578.51     0          0          0          0
HW_36401205      620.15     0          0          0          0
HW_36411208      618.32     0          0          0          0
HW_36391210      614.03     0          0          0          0
HW_36421212      611.64     0          0          0          0
HW_36371228      634.20     0          0          0          0
HW_36481232      635.43     0          0          0          0
HW_36331243      642.15     0          0          0          0
HW_36571244      618.67     0          0          0          0
HW_36581247      616.68     0          0          0          0
HW_36321254      611.19     0          0          0          0
HW_36311258      609.67     0          0          0          0
HW_36301262      608.57     0          0          0          0
HW_36341264      607.66     0          0          0          0
HW_36351266      606.70     0          0          0          0
HW_36361269      605.54     0          0          0          0
HW_36381272      605.33     0          0          0          0
HW_36051274      617.06     0          0          0          0
HW_36431282      610.40     0          0          0          0
HW_36441284      608.27     0          0          0          0
HW_36471286      606.56     0          0          0          0
HW_36461288      606.05     0          0          0          0
HW_36561291      605.23     0          0          0          0
HW_36451296      604.92     0          0          0          0
HW_36491299      622.19     0          0          0          0
HW_36541304      621.38     0          0          0          0
HW_36501307      620.68     0          0          0          0
HW_36511309      617.91     0          0          0          0
HW_36521311      615.52     0          0          0          0
HW_36531313      615.19     0          0          0          0
HW_36221319      615.36     0          0          0          0
HW_36211321      613.80     0          0          0          0
HW_36201325      612.88     0          0          0          0
HW_36191327      611.64     0          0          0          0
HW_36181329      611.12     0          0          0          0
HW_36171331      610.62     0          0          0          0
HW_36161333      603.44     0          0          0          0
HW_36131335      601.41     0          0          0          0
HW_36591345      614.94     0          0          0          0
HW_36151349      611.59     0          0          0          0
HW_36141351      598.62     0          0          0          0
HW_36011353      602.14     0          0          0          0
HW_36001359      600.49     0          0          0          0
HW_36041363      619.72     0          0          0          0
HW_35991371      600.23     0          0          0          0
HW_35981373      599.05     0          0          0          0
HW_35971376      597.70     0          0          0          0
HW_36031380      614.91     0          0          0          0
HW_36021387      609.22     0          0          0          0
HW_35961389      596.43     0          0          0          0
HW_36101390      596.11     0          0          0          0
HW_36121398      597.95     0          0          0          0
HW_36111401      595.53     0          0          0          0
HW_36091405      594.74     0          0          0          0
HW_35911407      589.12     0          0          0          0
HW_35921413      587.70     0          0          0          0
HW_35931421      586.57     0          0          0          0
HW_35941429      585.31     0          0          0          0
HW_36071439      593.76     0          0          0          0
HW_36061468      592.00     0          0          0          0
HW_36231469      568.58     0          0          0          0
HW_36241514      568.06     0          0          0          0
HW_36251517      567.43     0          0          0          0
HW_36261522      566.38     0          0          0          0
HW_36291523      562.45     0          0          0          0
HW_36271524      566.05     0          0          0          0
HW_36281527      565.38     0          0          0          0
HW_36081445      592.89     0          0          0          0
HW_3729295       587.00     0          0          0          0
HW_3733302       594.10     0          0          0          0
HW_3816217       592.00     0          0          0          0
HW_3817218       592.04     0          0          0          0
HW_3842223       593.17     0          0          0          0
Node_3842223     592.97     0          0          0          0
HW_3841224       592.97     0          0          0          0
HW_3818225       591.45     0          0          0          0
HW_3819226       591.06     0          0          0          0
HW_3820227       591.53     0          0          0          0
HW_3824232       589.20     0          0          0          0
HW_3823236       588.81     0          0          0          0
HW_3834237       591.06     0          0          0          0
HW_3833238       590.97     0          0          0          0
HW_3832239       590.95     0          0          0          0
HW_3831240       590.23     0          0          0          0
HW_3830241       589.85     0          0          0          0
HW_3829242       589.59     0          0          0          0
HW_3828243       589.37     0          0          0          0
HW_3827244       589.12     0          0          0          0
HW_3826245       589.07     0          0          0          0
HW_3835246       588.94     0          0          0          0
HW_3836247       588.82     0          0          0          0
HW_3837248       588.70     0          0          0          0
HW_3838249       588.58     0          0          0          0
HW_3839250       588.46     0          0          0          0
HW_3745207       592.69     0          0          0          0
HW_3746208       590.82     0          0          0          0
HW_3747209       589.47     0          0          0          0
HW_3749212       586.96     0          0          0          0
HW_3799254       587.90     0          0          0          0
HW_3800255       587.77     0          0          0          0
HW_3801256       587.41     0          0          0          0
HW_3804261       587.65     0          0          0          0
HW_3805261A      586.89     0          0          0          0
HW_3781263       586.75     0          0          0          0
HW_3783264       586.56     0          0          0          0
HW_4059274       587.70     0          0          0          0
HW_3776275       586.98     0          0          0          0
HW_3786290       580.02     0          0          0          0
HW_3787291       580.00     0          0          0          0
HW_3788292a      579.43     0          0          0          0
HW_3809293a      590.47     0          0          0          0
HW_3810294A      589.23     0          0          0          0
HW_3811295a      588.03     0          0          0          0
HW_3812296       587.12     0          0          0          0
HW_3813297a      586.88     0          0          0          0
HW_3814298a      586.06     0          0          0          0
HW_3815299       581.97     0          0          0          0
HW_3854309       586.65     0          0          0          0
HW_4030310       586.21     0          0          0          0
HW_4031311       585.96     0          0          0          0
HW_4037319       586.68     0          0          0          0
HW_4033329       583.54     0          0          0          0
HW_4138330       584.31     0          0          0          0
HW_3754345       581.08     0          0          0          0
HW_3887350       581.10     0          0          0          0
HW_3888351       581.87     0          0          0          0
HW_3889352       582.21     0          0          0          0
HW_3890353       581.80     0          0          0          0
HW_3891354       581.05     0          0          0          0
HW_3892355       581.19     0          0          0          0
HW_3894356       589.28     0          0          0          0
HW_3895357       587.25     0          0          0          0
HW_3896358       586.81     0          0          0          0
HW_3898360       584.83     0          0          0          0
HW_3899361       584.28     0          0          0          0
HW_3902369       584.61     0          0          0          0
HW_3903370       584.19     0          0          0          0
HW_3904371       583.70     0          0          0          0
HW_3905372       580.18     0          0          0          0
HW_3907388a      589.71     0          0          0          0
HW_3909391       586.79     0          0          0          0
HW_3910392       586.27     0          0          0          0
HW_3913395       584.65     0          0          0          0
HW_3914396       584.01     0          0          0          0
HW_3906397a      580.18     0          0          0          0
HW_3915398       580.65     0          0          0          0
HW_3955406a      583.72     0          0          0          0
HW_3936425       582.98     0          0          0          0
HW_3932427       582.79     0          0          0          0
HW_3933428       582.56     0          0          0          0
HW_3935429       581.72     0          0          0          0
HW_3934430       581.62     0          0          0          0
HW_3931431       581.54     0          0          0          0
HW_3930432       581.32     0          0          0          0
HW_3937439       587.10     0          0          0          0
HW_3938456       583.56     0          0          0          0
HW_3942457       582.40     0          0          0          0
HW_3943462       582.14     0          0          0          0
HW_3944463       582.46     0          0          0          0
HW_3947469       581.33     0          0          0          0
HW_3948470       581.09     0          0          0          0
HW_3918473       578.73     0          0          0          0
HW_3917474       579.98     0          0          0          0
HW_3922475       579.90     0          0          0          0
HW_3921478       580.27     0          0          0          0
HW_3919481       580.00     0          0          0          0
HW_3905482       580.00     0          0          0          0
HW_3915483       579.00     0          0          0          0
HW_3958488       575.41     0          0          0          0
HW_3960491       573.84     0          0          0          0
HW_3961492       573.59     0          0          0          0
HW_3952514       591.02     0          0          0          0
HW_3953515       590.79     0          0          0          0
HW_3964543       589.32     0          0          0          0
HW_3965544       589.15     0          0          0          0
HW_3966545       587.31     0          0          0          0
HW_3968548       587.02     0          0          0          0
HW_3969549       586.54     0          0          0          0
HW_3970550       586.54     0          0          0          0
HW_3971551       585.81     0          0          0          0
HW_3976563       585.86     0          0          0          0
HW_3975564       585.76     0          0          0          0
HW_3978569       583.58     0          0          0          0
HW_3979570       582.72     0          0          0          0
HW_3980574       582.02     0          0          0          0
HW_3981575       581.29     0          0          0          0
HW_3973580       580.73     0          0          0          0
HW_3982581       580.30     0          0          0          0
HW_3983582       580.00     0          0          0          0
HW_3984585       579.70     0          0          0          0
HW_3986586       583.94     0          0          0          0
HW_3992591       584.08     0          0          0          0
HW_3987596       586.53     0          0          0          0
HW_4042599       589.91     0          0          0          0
HW_4040604       584.59     0          0          0          0
HW_4044607       582.73     0          0          0          0
HW_4024610       587.73     0          0          0          0
HW_4026613       587.05     0          0          0          0
HW_4027614       584.00     0          0          0          0
HW_4029618       585.43     0          0          0          0
HW_4052632       582.08     0          0          0          0
HW_4050636       579.60     0          0          0          0
HW_3808643       590.43     0          0          0          0
HW_3843644       588.77     0          0          0          0
HW_3844645       588.23     0          0          0          0
HW_3846649       586.53     0          0          0          0
HW_3847650       586.00     0          0          0          0
HW_3849651       590.66     0          0          0          0
HW_3850652       590.06     0          0          0          0
HW_3848658       585.36     0          0          0          0
HW_4020671       583.58     0          0          0          0
HW_4022674       582.32     0          0          0          0
HW_4039680       580.33     0          0          0          0
HW_4046681       580.31     0          0          0          0
HW_4048682       579.68     0          0          0          0
HW_3985687       579.37     0          0          0          0
HW_3855699       592.67     0          0          0          0
HW_3856700       591.70     0          0          0          0
HW_3859704       588.02     0          0          0          0
HW_3865727       587.45     0          0          0          0
HW_3866728       586.85     0          0          0          0
HW_3867729       586.11     0          0          0          0
HW_4113750       584.05     0          0          0          0
HW_4114751       583.96     0          0          0          0
HW_4115752       583.80     0          0          0          0
HW_4117756       582.51     0          0          0          0
HW_4118761       582.33     0          0          0          0
HW_4119762       581.86     0          0          0          0
HW_4112783       587.44     0          0          0          0
HW_4111788       586.45     0          0          0          0
HW_3861789       588.97     0          0          0          0
HW_3881797       585.56     0          0          0          0
HW_3880798       584.82     0          0          0          0
HW_3879799       584.88     0          0          0          0
HW_3862810       597.26     0          0          0          0
HW_3873811       595.31     0          0          0          0
HW_3872812       596.24     0          0          0          0
HW_3871813       594.80     0          0          0          0
HW_3870814       593.43     0          0          0          0
HW_3869815       592.84     0          0          0          0
HW_3885818       600.58     0          0          0          0
HW_3884819       598.37     0          0          0          0
HW_3883820       596.78     0          0          0          0
HW_3882821       594.43     0          0          0          0
HW_4081829       596.82     0          0          0          0
HW_4082830       596.34     0          0          0          0
HW_4084833       594.28     0          0          0          0
HW_4085834       593.44     0          0          0          0
HW_4071870       584.39     0          0          0          0
HW_4072871       584.19     0          0          0          0
HW_4073872       583.79     0          0          0          0
HW_4074888       584.81     0          0          0          0
HW_4068904       584.20     0          0          0          0
HW_4092913       582.79     0          0          0          0
HW_4093914       582.70     0          0          0          0
HW_4094915       582.50     0          0          0          0
HW_4095916       582.11     0          0          0          0
HW_4062923       585.76     0          0          0          0
HW_4063924       584.89     0          0          0          0
HW_4096930       581.17     0          0          0          0
HW_3764942       585.60     0          0          0          0
HW_3765943       585.38     0          0          0          0
HW_3766944       584.86     0          0          0          0
HW_3767945       583.96     0          0          0          0
HW_3768946       583.61     0          0          0          0
HW_3770949       578.37     0          0          0          0
HW_3771950       578.42     0          0          0          0
HW_3761951       569.22     0          0          0          0
HW_4124971       582.64     0          0          0          0
HW_4123972       582.38     0          0          0          0
HW_4120973       581.42     0          0          0          0
HW_4121974       581.29     0          0          0          0
HW_4122975       581.03     0          0          0          0
HW_4097976       581.00     0          0          0          0
HW_4110977       580.81     0          0          0          0
HW_4106991       581.43     0          0          0          0
HW_4105992       581.23     0          0          0          0
HW_4104993       581.16     0          0          0          0
HW_41001007      580.80     0          0          0          0
HW_39951010      584.22     0          0          0          0
HW_39991015      585.86     0          0          0          0
HW_39981016      585.03     0          0          0          0
HW_40021023      583.00     0          0          0          0
HW_40031024      582.90     0          0          0          0
HW_40041025      582.80     0          0          0          0
HW_40051026      582.70     0          0          0          0
HW_40061027      582.60     0          0          0          0
HW_41281056      580.92     0          0          0          0
HW_37631060      571.31     0          0          0          0
HW_37621061      570.45     0          0          0          0
HW_37941475      593.59     0          0          0          0
HW_37961483      588.99     0          0          0          0
HW_39241499      576.62     0          0          0          0
HW_39261500      576.32     0          0          0          0
HW_39251503      578.00     0          0          0          0
HW_41379900      587.66     0          0          0          0
HW_41369901      587.60     0          0          0          0
HW_41359902      587.54     0          0          0          0
HW_41349903      587.01     0          0          0          0
HW_41339904      586.40     0          0          0          0
HW_37729905      579.03     0          0          0          0
HW_3802257       587.01     0          0          0          0
HW_3911393       585.27     0          0          0          0
HW_3912394       584.96     0          0          0          0
HW_3990594       583.00     0          0          0          0
HW_3989595       582.53     0          0          0          0
HW_3858703       588.60     0          0          0          0
HW_3864822A      592.30     0          0          0          0
HW_3840251       588.33     0          0          0          0
HW_4376253       588.21     0          0          0          0
HW_43885x8       573.75     0          0          0          0
HW_3949471       580.29     0          0          0          0
HW_3825234       589.88     0          0          0          0
HW_37541497      581.08     0          0          0          0
HW_3929433       580.60     0          0          0          0
HW_41021008      580.80     0          0          0          0
HW_3803258       586.84     0          0          0          0
HW_444148_chase  578.55     0          0          0          0
HW_3967546       588.00     0          0          0          0
HW_4131504       573.65     0          0          0          0
HW_4463503       573.80     0          0          0          0
HW_4471487       575.76     0          0          0          0
HW_44741502      579.00     0          0          0          0
HW_3769947       583.02     0          0          0          0
HW_3821228       590.82     0          0          0          0
HW_3822230       590.05     0          0          0          0
HW_378025_Geo_ovf 584.40     0          0          0          0
HW_3775268       587.12     0          0          0          0
HW_4060271       588.02     0          0          0          0
HW_3777276       588.07     0          0          0          0
HW_3778278       587.95     0          0          0          0
HW_3779280       587.82     0          0          0          0
HW_3782282       585.90     0          0          0          0
HW_37981476      592.70     0          0          0          0
HW_37971479      590.13     0          0          0          0
HW_37951484      588.25     0          0          0          0
HW_37931487      587.74     0          0          0          0
HW_37921489      587.91     0          0          0          0
HW_37911491      587.98     0          0          0          0
HW_3784285       584.04     0          0          0          0
HW_3789300a      581.56     0          0          0          0
HW_3753307       581.25     0          0          0          0
HW_3743201       599.70     0          0          0          0
HW_3941440       587.16     0          0          0          0
HW_3940446       585.50     0          0          0          0
HW_3939451       584.04     0          0          0          0
HW_3868730       586.11     0          0          0          0
HW_3785286       581.78     0          0          0          0
HW_3877839A      583.06     0          0          0          0
HW_378125_DIV    0          0          0          0          0
HW_45131470      584.50     0          0          0          0
HW_3974565       585.13     0          0          0          0
HW_4076842       595.24     0          0          0          0
HW_4077844       594.55     0          0          0          0
HW_4078848       593.78     0          0          0          0
HW_4079850       592.75     0          0          0          0
HW_4080853       591.25     0          0          0          0
HW_4083831       595.52     0          0          0          0
HW_3876828       595.11     0          0          0          0
HW_4086835       592.69     0          0          0          0
HW_3875837       588.24     0          0          0          0
HW_3878753       585.22     0          0          0          0
HW_41011003      588.68     0          0          0          0
HW_4098937       578.52     0          0          0          0
HW_39971017      583.77     0          0          0          0
HW_3851654       589.87     0          0          0          0
HW_40342231      585.44     0          0          0          0
HW_3756341       582.08     0          0          0          0
HW_3954516       590.33     0          0          0          0
HW_39462237      582.43     0          0          0          0
HW_37902240      587.00     0          0          0          0
HW_41322242      572.43     0          0          0          0
HW_46011071      593.48     0          0          0          0
HW_45981079      586.25     0          0          0          0
HW_45971080      586.00     0          0          0          0
HW_45951083      585.41     0          0          0          0
HW_45941084      585.00     0          0          0          0
HW_45931085      584.82     0          0          0          0
HW_45921086      584.49     0          0          0          0
HW_45901095      584.00     0          0          0          0
HW_45891096      583.80     0          0          0          0
HW_45871099      583.70     0          0          0          0
HW_45741111      582.74     0          0          0          0
HW_45751119      583.00     0          0          0          0
HW_45781120      582.65     0          0          0          0
HW_45811125      582.20     0          0          0          0
HW_45831128      583.17     0          0          0          0
HW_45421136      579.77     0          0          0          0
HW_45451140      584.38     0          0          0          0
HW_45631141      582.67     0          0          0          0
HW_45461142      582.09     0          0          0          0
HW_45471143      582.43     0          0          0          0
HW_45481144      582.27     0          0          0          0
HW_45491145      582.17     0          0          0          0
HW_45501146      582.30     0          0          0          0
HW_45521160      580.85     0          0          0          0
HW_45591167      581.49     0          0          0          0
HW_45601168      580.33     0          0          0          0
HW_45611169      580.62     0          0          0          0
HW_45671195      574.11     0          0          0          0
HW_45691200      572.26     0          0          0          0
HW_45721203      570.11     0          0          0          0
HW_45841106      583.55     0          0          0          0
HW_46387019      583.59     0          0          0          0
HW_46417135      583.36     0          0          0          0
HW_3900362       587.20     0          0          0          0
HW_3901367       584.91     0          0          0          0
HW_3950460       586.18     0          0          0          0
HW_3945464       582.67     0          0          0          0
HW_3806637       597.53     0          0          0          0
HW_4061639       596.55     0          0          0          0
HW_38073190      595.47     0          0          0          0
HW_3845646       587.54     0          0          0          0
HW_3852659       585.18     0          0          0          0
HW_4032313       583.49     0          0          0          0
HW_4036320       586.57     0          0          0          0
HW_4035322       586.43     0          0          0          0
HW_3857701       590.62     0          0          0          0
HW_3860790       588.00     0          0          0          0
HW_3863794       586.43     0          0          0          0
HW_38743199      591.39     0          0          0          0
HW_4070868       585.26     0          0          0          0
HW_4075856       588.32     0          0          0          0
HW_4064882       585.41     0          0          0          0
HW_4066884       585.24     0          0          0          0
HW_4067886       585.00     0          0          0          0
HW_4069897       586.26     0          0          0          0
HW_4088907       583.75     0          0          0          0
HW_4089909       583.75     0          0          0          0
HW_4090911       583.07     0          0          0          0
HW_4091926       583.96     0          0          0          0
HW_4109978       580.75     0          0          0          0
HW_3962493       573.42     0          0          0          0
HW_45661187      575.00     0          0          0          0
HW_4097931       581.00     0          0          0          0
HW_4099934       579.09     0          0          0          0
HW_3886346       580.23     0          0          0          0
HW_45681198      573.56     0          0          0          0
HW_37582144      568.77     0          0          0          0
HW_37602145      582.60     0          0          0          0
HW_44512146      571.78     0          0          0          0
HW_4125961       572.00     0          0          0          0
HW_4129955       573.33     0          0          0          0
HW_3988688       579.31     0          0          0          0
HW_3972553       585.96     0          0          0          0
HW_39592152      575.29     0          0          0          0
HW_3920479       580.16     0          0          0          0
HW_37522154      580.91     0          0          0          0
HW_37592155      584.20     0          0          0          0
HW_40101036      580.80     0          0          0          0
HW_40121038      580.80     0          0          0          0
HW_40131054      581.08     0          0          0          0
HW_40181040      585.96     0          0          0          0
HW_40191042      585.43     0          0          0          0
HW_40141046      587.49     0          0          0          0
HW_40151048      586.11     0          0          0          0
HW_40161050      585.77     0          0          0          0
HW_40171052      585.40     0          0          0          0
HW_40001012      586.19     0          0          0          0
HW_39961011      583.85     0          0          0          0
HW_40011021      583.12     0          0          0          0
HW_40111034      583.59     0          0          0          0
HW_40071028      582.50     0          0          0          0
HW_40081030      582.00     0          0          0          0
HW_40091032      581.80     0          0          0          0
HW_4108988       581.73     0          0          0          0
HW_4107994       581.73     0          0          0          0
HW_41032174      581.03     0          0          0          0
HW_4065880       585.98     0          0          0          0
HW_4087905       583.84     0          0          0          0
HW_41162177      583.43     0          0          0          0
HW_4028616       586.12     0          0          0          0
HW_3853661       584.63     0          0          0          0
HW_4025611       587.72     0          0          0          0
HW_4021672       582.51     0          0          0          0
HW_4023675       582.02     0          0          0          0
HW_4038677       581.37     0          0          0          0
HW_4041602       586.91     0          0          0          0
HW_4043605       583.40     0          0          0          0
HW_4045608       582.53     0          0          0          0
HW_4047683       579.88     0          0          0          0
HW_4058619       587.37     0          0          0          0
HW_4057620       586.50     0          0          0          0
HW_4056622       586.03     0          0          0          0
HW_4055625       584.75     0          0          0          0
HW_4054628       583.04     0          0          0          0
HW_4053630       582.59     0          0          0          0
HW_4051633       581.50     0          0          0          0
HW_3994587       585.06     0          0          0          0
HW_3993589       584.84     0          0          0          0
HW_39912197      583.12     0          0          0          0
HW_40492198      579.54     0          0          0          0
HW_39772199      585.00     0          0          0          0
HW_3744204       593.00     0          0          0          0
HW_3748210       588.70     0          0          0          0
HW_3750213       585.52     0          0          0          0
HW_3751215       583.97     0          0          0          0
HW_3755339       584.43     0          0          0          0
HW_3897359       585.85     0          0          0          0
HW_3893373       580.39     0          0          0          0
HW_3906399       580.18     0          0          0          0
HW_3908389A      588.47     0          0          0          0
HW_3957377       599.30     0          0          0          0
HW_3956383       596.45     0          0          0          0
HW_41002212      580.80     0          0          0          0
HW_39632213      589.92     0          0          0          0
HW_47611179      576.67     0          0          0          0
HW_45991074      589.76     0          0          0          0
HW_46001072      592.46     0          0          0          0
HW_45961081      586.11     0          0          0          0
HW_45911087      584.38     0          0          0          0
HW_45881097      583.75     0          0          0          0
HW_45861102      583.65     0          0          0          0
HW_45851104      583.60     0          0          0          0
HW_45771116      585.41     0          0          0          0
HW_45761542      585.37     0          0          0          0
HW_45791121      583.03     0          0          0          0
HW_45803053      582.54     0          0          0          0
HW_45821127      583.56     0          0          0          0
HW_45391129      581.38     0          0          0          0
HW_45401031      582.68     0          0          0          0
HW_45413057      580.77     0          0          0          0
HW_45431137      579.74     0          0          0          0
HW_45441172      579.70     0          0          0          0
HW_45641174      579.65     0          0          0          0
HW_45651176      579.62     0          0          0          0
HW_46377032      583.42     0          0          0          0
HW_46367045      582.86     0          0          0          0
HW_46353064      582.36     0          0          0          0
HW_45561147      583.15     0          0          0          0
HW_45571149      583.03     0          0          0          0
HW_45513067      581.52     0          0          0          0
HW_45531155      582.47     0          0          0          0
HW_45541157      582.11     0          0          0          0
HW_45551159      581.35     0          0          0          0
HW_45581161      580.97     0          0          0          0
HW_46407372      582.50     0          0          0          0
HW_45621170      580.05     0          0          0          0
HW_39513075      591.98     0          0          0          0
HW_36244667      586.50     0          0          0          0
HW_45701201      571.55     0          0          0          0
HW_53821202      570.84     0          0          0          0
HW_84weir        0          0          0          0          0
HW_3734300       592.10     0          0          0          0
18in_b           589.50     0          0          0          0
36in             586.00     0          0          0          0

[OUTFALLS]
;;Name           Elev       Type       Stage      Gated
;;-------------- ---------- ---------- ---------- -----
C41510B          616.32     FREE                  NO

[STORAGE]
;;Name           Elev       MaxDepth   InitDepth  Shape      Curve/Params
;;-------------- ---------- ---------- ---------- ---------- ----------
B64316           596.41     10.00      0          FUNCTIONAL 1000.00 0          0
B64308           605.42     10.00      0          FUNCTIONAL 1000.00 0          0
B64297           612.38     10.00      0          FUNCTIONAL 1000.00 0          0
B64290           606.08     10.00      0          FUNCTIONAL 1000.00 0          0
B64262           609.66     10.00      0          FUNCTIONAL 1000.00 0          0
B54101           601.10     10.00      0          FUNCTIONAL 1000.00 0          0
B54106           611.48     10.00      0          FUNCTIONAL 1000.00 0          0
B54109           599.13     10.00      0          FUNCTIONAL 1000.00 0          0
B54091           601.65     10.00      0          FUNCTIONAL 1000.00 0          0
B54075           610.41     10.00      0          FUNCTIONAL 1000.00 0          0
B54059           611.49     10.00      0          FUNCTIONAL 1000.00 0          0
B54052           603.14     10.00      0          FUNCTIONAL 1000.00 0          0
B54051           601.62     10.00      0          FUNCTIONAL 1000.00 0          0
C64646           608.24     10.00      0          FUNCTIONAL 1000.00 0          0
C64631           605.75     10.00      0          FUNCTIONAL 1000.00 0          0
C64633           606.10     10.00      0          FUNCTIONAL 1000.00 0          0
C64649           601.41     10.00      0          FUNCTIONAL 1000.00 0          0
PS_Marquet       605.42     10.00      0          FUNCTIONAL 80.00 0          0
C50688           607.24     10.00      0          FUNCTIONAL 1000.00 0          0
C50566           608.03     10.00      0          FUNCTIONAL 1000.00 0          0
C50582           608.73     10.00      0          FUNCTIONAL 1000.00 0          0
C50576           609.26     10.00      0          FUNCTIONAL 1000.00 0          0
C50573           609.81     10.00      0          FUNCTIONAL 1000.00 0          0
C50549           607.33     10.00      0          FUNCTIONAL 1000.00 0          0
C50529           604.92     10.00      0          FUNCTIONAL 1000.00 0          0
C50517           608.56     10.00      0          FUNCTIONAL 1000.00 0          0
C50527           606.30     10.00      0          FUNCTIONAL 1000.00 0          0
C50357           612.20     10.00      0          FUNCTIONAL 1000.00 0          0
C50352           604.33     10.00      0          FUNCTIONAL 1000.00 0          0
C50251           609.48     10.00      0          FUNCTIONAL 1000.00 0          0
C54614           602.61     10.00      0          FUNCTIONAL 1000.00 0          0
C54613_LS        595.74     10.00      0          FUNCTIONAL 1000.00 0          0
PS_15&Clay       601.99     10.00      0          FUNCTIONAL 150.00 0          0
C50047           608.83     10.00      0          FUNCTIONAL 1000.00 0          0
C50061           610.18     10.00      0          FUNCTIONAL 1000.00 0          0
C50122           606.12     10.00      0          FUNCTIONAL 1000.00 0          0
C50126           605.13     10.00      0          FUNCTIONAL 1000.00 0          0
C50211           606.90     10.00      0          FUNCTIONAL 1000.00 0          0
C50416           605.87     10.00      0          FUNCTIONAL 1000.00 0          0
C50418           607.28     10.00      0          FUNCTIONAL 1000.00 0          0
C50197           608.58     10.00      0          FUNCTIONAL 1000.00 0          0
OF_Elkhart       592.79     10.00      0          FUNCTIONAL 1000.00 0          0
388              602.61     10.00      0          FUNCTIONAL 1000.00 0          0
397              601.99     10.00      0          FUNCTIONAL 1000.00 0          0
E30020           597.79     10.00      0          FUNCTIONAL 1000.00 0          0
E30035           597.02     10.00      0          FUNCTIONAL 1000.00 0          0
E30055           598.60     10.00      0          FUNCTIONAL 1000.00 0          0
E30075           598.66     10.00      0          FUNCTIONAL 1000.00 0          0
PS_35&Wash       599.25     10.00      0          FUNCTIONAL 150.00 0          0
E30115           615.64     10.00      0          FUNCTIONAL 1000.00 0          0
E30126           614.78     10.00      0          FUNCTIONAL 1000.00 0          0
E30146           614.28     10.00      0          FUNCTIONAL 1000.00 0          0
E30157           613.90     10.00      0          FUNCTIONAL 1000.00 0          0
E30169           612.67     10.00      0          FUNCTIONAL 1000.00 0          0
E30183           611.83     10.00      0          FUNCTIONAL 1000.00 0          0
E30297           625.18     10.00      0          FUNCTIONAL 1000.00 0          0
E30321           632.99     10.00      0          FUNCTIONAL 1000.00 0          0
E30338           630.18     10.00      0          FUNCTIONAL 1000.00 0          0
E30446           628.78     10.00      0          FUNCTIONAL 1000.00 0          0
E30549A          600.50     10.00      0          FUNCTIONAL 20.00 0          0
E30601_LS        599.28     10.00      0          FUNCTIONAL 1000.00 0          0
E30603           606.29     10.00      0          FUNCTIONAL 1000.00 0          0
E30604A          606.29     10.00      0          FUNCTIONAL 1000.00 0          0
E30606           615.15     10.00      0          FUNCTIONAL 1000.00 0          0
E30693           610.94     10.00      0          FUNCTIONAL 1000.00 0          0
E30752           613.62     10.00      0          FUNCTIONAL 1000.00 0          0
E30902           628.24     10.00      0          FUNCTIONAL 1000.00 0          0
E30905           625.94     10.00      0          FUNCTIONAL 1000.00 0          0
E30924           636.45     10.00      0          FUNCTIONAL 1000.00 0          0
E31000           629.66     10.00      0          FUNCTIONAL 1000.00 0          0
E31009           628.14     10.00      0          FUNCTIONAL 1000.00 0          0
E31023           630.25     10.00      0          FUNCTIONAL 1000.00 0          0
E31044           630.11     10.00      0          FUNCTIONAL 1000.00 0          0
E31065_Hob       631.03     10.00      0          FUNCTIONAL 1000.00 0          0
E31099           634.12     10.00      0          FUNCTIONAL 1000.00 0          0
E31128           636.34     10.00      0          FUNCTIONAL 1000.00 0          0
E31500D          590.50     10.00      0          FUNCTIONAL 1000.00 0          0
E31500G          592.00     10.00      0          FUNCTIONAL 1000.00 0          0
E31500L          595.50     10.00      0          FUNCTIONAL 1000.00 0          0
E31500M          596.50     10.00      0          FUNCTIONAL 1000.00 0          0
E31500P          596.00     10.00      0          FUNCTIONAL 1000.00 0          0
MerVil_Mn        596.10     10.00      0          FUNCTIONAL 1000.00 0          0
F30022           622.45     10.00      0          FUNCTIONAL 100000.00 0          0
F30034           618.97     10.00      0          FUNCTIONAL 100000.00 0          0
F30070           619.43     10.00      0          FUNCTIONAL 100000.00 0          0
F30105_1&2       661.07     10.00      0          FUNCTIONAL 100000.00 0          0
F30213_1&2       622.66     10.00      0          FUNCTIONAL 100000.00 0          0
F30226           618.87     10.00      0          FUNCTIONAL 100000.00 0          0
F30253           620.74     10.00      0          FUNCTIONAL 100000.00 0          0
F30323_1&2       647.15     10.00      0          FUNCTIONAL 1000.00 0          0
F30337           627.89     10.00      0          FUNCTIONAL 100000.00 0          0
F30476           633.11     10.00      0          FUNCTIONAL 1000.00 0          0
F30820           632.67     10.00      0          FUNCTIONAL 1000.00 0          0
F30837           631.47     10.00      0          FUNCTIONAL 1000.00 0          0
F30863           633.86     10.00      0          FUNCTIONAL 1000.00 0          0
F30868_1&2       633.10     10.00      0          FUNCTIONAL 1000.00 0          0
F30874MV63       632.37     10.00      0          FUNCTIONAL 1000.00 0          0
F31057           629.60     10.00      0          FUNCTIONAL 1000.00 0          0
F31074           651.87     10.00      0          FUNCTIONAL 1000.00 0          0
F31082           644.56     10.00      0          FUNCTIONAL 1000.00 0          0
F31127           646.88     10.00      0          FUNCTIONAL 1000.00 0          0
F31201           636.94     10.00      0          FUNCTIONAL 1000.00 0          0
F31205           640.50     10.00      0          FUNCTIONAL 1000.00 0          0
F31212           653.10     10.00      0          FUNCTIONAL 1000.00 0          0
F31221           650.22     10.00      0          FUNCTIONAL 1000.00 0          0
F31223           642.26     10.00      0          FUNCTIONAL 1000.00 0          0
F31313           635.34     10.00      0          FUNCTIONAL 1000.00 0          0
F31055           634.55     10.00      0          FUNCTIONAL 1000.00 0          0
E30976           629.52     10.00      0          FUNCTIONAL 1000.00 0          0
E30951           630.49     10.00      0          FUNCTIONAL 1000.00 0          0
E30936           633.15     10.00      0          FUNCTIONAL 1000.00 0          0
292              600.00     10.00      0          FUNCTIONAL 1000.00 0          0
297              600.00     10.00      0          FUNCTIONAL 1000.00 0          0
298              599.00     10.00      0          FUNCTIONAL 1000.00 0          0
C2DIVRSN1        598.55     10.00      0          FUNCTIONAL 150.00 0          0
D41109           596.00     10.00      0          FUNCTIONAL 150.00 0          0
C41517           603.00     10.00      0          FUNCTIONAL 150.00 0          0
C41522           594.00     10.00      0          FUNCTIONAL 600.00 0          0
C32715           592.00     10.00      0          FUNCTIONAL 150.00 0          0
PS_27Chase       593.00     10.00      0          FUNCTIONAL 150.00 0          0
RI               604.00     10.00      0          FUNCTIONAL 150.00 0          0
w2_nd            599.00     10.00      0          FUNCTIONAL 620.00 0          0
prc_fg           600.00     10.00      0          FUNCTIONAL 150.00 0          0
2148             599.00     10.00      0          FUNCTIONAL 150.00 0          0
C23172D          592.00     10.00      0          FUNCTIONAL 13.00 0          0
PLANT            591.00     10.00      0          FUNCTIONAL 22.00 0          0
wnode            598.00     10.00      0          FUNCTIONAL 7000.00 0          0
wpond            598.00     10.00      0          FUNCTIONAL 110000.00 0          0
node1            592.00     10.00      0          FUNCTIONAL 700.00 0          0
wetwell          592.00     10.00      0          FUNCTIONAL 500.00 0          0
N4               599.00     10.00      0          FUNCTIONAL 48610.00 0          0

[CONDUITS]
;;Name           From             To               Length     Roughness  InOffset   OutOffset  InitFlow   MaxFlow
;;-------------- ---------------- ---------------- ---------- ---------- ---------- ---------- ---------- ----------
3227403          HW_3227403       C41507           2200.00    0.0170     604.60     602.57     0          0
34934            HW_34934         PS_Marquet       1730.00    0.0170     582.22     579.82     0          0
349414           HW_349414        B64297           1148.00    0.0170     598.18     597.23     0          0
349519           HW_349519        B64290           978.00     0.0170     597.23     596.73     0          0
349623           HW_349623        B64262           966.00     0.0170     596.73     595.62     0          0
349728           HW_349728        B54109           622.00     0.0170     595.62     595.13     0          0
350144           HW_350144        B54075           750.00     0.0170     593.20     592.81     0          0
350247           HW_350247        B54059           825.00     0.0170     592.81     592.16     0          0
350350           HW_350350        B54052           925.00     0.0170     592.16     591.43     0          0
350454           HW_350454        B54051           240.00     0.0170     591.43     590.90     0          0
350555           HW_350555        C64649           1100.00    0.0200     590.90     589.07     0          0
350960           HW_350960        C64646           1040.00    0.0200     589.07     587.92     0          0
350777           HW_350777        C64633           734.00     0.0170     588.55     588.35     0          0
350880           HW_350880        C64646           884.00     0.0170     588.35     587.92     0          0
350684           HW_350684        C50688           1910.00    0.0200     587.92     587.45     0          0
351190           HW_351190        C50566           800.00     0.0200     587.45     587.29     0          0
351496           HW_351496        C50573           480.00     0.0170     590.11     590.14     0          0
351599           HW_351599        C50566           1086.00    0.0170     590.14     587.29     0          0
3512108          HW_3512108       C50549           1225.00    0.0200     587.29     586.94     0          0
3516112          HW_3516112       C50529           830.00     0.0240     586.94     586.82     0          0
3518119          HW_3518119       C50527           660.00     0.0170     591.67     590.86     0          0
3519122          HW_3519122       C50529           334.00     0.0170     590.86     586.82     0          0
3517123          HW_3517123       C50357           790.00     0.0240     586.82     585.40     0          0
3521126          HW_3521126       C50357           905.00     0.0170     598.09     596.30     0          0
3520131          HW_3520131       C50251           1320.00    0.0240     585.40     584.58     0          0
3522135          HW_3522135       C54614           1400.00    0.0240     584.58     583.69     0          0
3523153          HW_3523153       C54613_LS        500.00     0.0170     583.69     581.51     0          0
3524154          HW_3524154       PS_15&Clay       1420.00    0.0170     581.51     578.51     0          0
3527163          HW_3527163       C50122           2330.00    0.0170     591.93     588.71     0          0
3529174          HW_3529174       C50211           1340.00    0.0170     588.21     586.05     0          0
3531181          HW_3531181       C50418           310.00     0.0170     593.16     592.17     0          0
3532183          HW_3532183       C50197           1110.00    0.0170     592.17     589.82     0          0
3533187          HW_3533187       C50211           1265.00    0.0170     589.82     586.05     0          0
3530194          HW_3530194       C50251           1295.00    0.0200     586.05     584.58     0          0
3569402          HW_3569402       OF_Elkhart       2889.00    0.0200     584.21     583.26     0          0
3528404          HW_3528404       C50126           360.00     0.0170     588.71     588.21     0          0
3513407          HW_3513407       C50576           550.00     0.0170     591.73     590.11     0          0
3526411          HW_3526411       C50061           810.00     0.0170     593.79     591.93     0          0
3498412          HW_3498412       B54091           1177.00    0.0170     594.30     593.20     0          0
3500414          HW_3500414       B54106           750.00     0.0170     595.13     594.72     0          0
3499416          HW_3499416       B54101           633.00     0.0170     594.72     594.30     0          0
3573401          HW_3573401       C41510B          3900.00    0.0150     578.51     604.60     0          0
36401205         HW_36401205      F30837           800.00     0.0150     620.15     618.43     0          0
36411208         HW_36411208      F30863           700.00     0.0150     618.32     611.64     0          0
36391210         HW_36391210      F30863           560.00     0.0170     614.03     611.64     0          0
36421212         HW_36421212      F30868_1&2       1200.00    0.0170     611.64     610.40     0          0
36371228         HW_36371228      F31082           875.00     0.0170     634.20     629.00     0          0
36481232         HW_36481232      F31082           855.00     0.0170     635.43     632.46     0          0
36331243         HW_36331243      F30070           1600.00    0.0170     642.15     611.19     0          0
36571244         HW_36571244      E30951           1005.00    0.0170     618.67     616.68     0          0
36581247         HW_36581247      E30936           660.00     0.0170     616.68     614.94     0          0
36321254         HW_36321254      F30034           630.00     0.0150     611.19     609.67     0          0
36311258         HW_36311258      F30022           660.00     0.0150     609.67     608.58     0          0
36301262         HW_36301262      F30213_1&2       660.00     0.0150     608.57     607.66     0          0
36341264         HW_36341264      F30226           660.00     0.0150     607.66     606.70     0          0
36351266         HW_36351266      F30253           1170.00    0.0150     606.70     605.54     0          0
36361269         HW_36361269      F30337           1000.00    0.0200     605.54     605.33     0          0
36381272         HW_36381272      F31055           670.00     0.0200     605.33     605.23     0          0
36051274         HW_36051274      F30226           990.00     0.0170     617.06     611.40     0          0
36431282         HW_36431282      F30874MV63       680.00     0.0200     610.40     608.27     0          0
36441284         HW_36441284      F31082           820.00     0.0200     608.27     606.56     0          0
36471286         HW_36471286      F31074           930.00     0.0200     606.56     606.05     0          0
36461288         HW_36461288      F31055           1130.00    0.0200     606.05     605.25     0          0
36561291         HW_36561291      F31057           650.00     0.0240     605.23     604.92     0          0
36451296         HW_36451296      E31000           630.00     0.0240     604.92     603.44     0          0
36491299         HW_36491299      F31205           490.00     0.0170     622.19     620.80     0          0
36541304         HW_36541304      F31205           480.00     0.0150     621.38     621.32     0          0
36501307         HW_36501307      F31212           600.00     0.0170     620.68     617.91     0          0
36511309         HW_36511309      F31221           500.00     0.0170     617.91     615.52     0          0
36521311         HW_36521311      F31223           510.00     0.0170     615.52     615.19     0          0
36531313         HW_36531313      E31065_Hob       865.00     0.0170     615.19     612.88     0          0
36221319         HW_36221319      E31099           655.00     0.0150     615.36     613.80     0          0
36211321         HW_36211321      E31065_Hob       1140.00    0.0150     613.80     612.88     0          0
36201325         HW_36201325      E31044           540.00     0.0150     612.88     611.85     0          0
36191327         HW_36191327      E31023           670.00     0.0150     611.64     611.12     0          0
36181329         HW_36181329      E31009           680.00     0.0150     611.12     610.62     0          0
36171331         HW_36171331      E31000           660.00     0.0150     610.62     607.95     0          0
36161333         HW_36161333      E30902           525.00     0.0240     603.44     601.41     0          0
36131335         HW_36131335      E30905           765.00     0.0240     601.41     598.62     0          0
36591345         HW_36591345      E30924           680.00     0.0170     614.94     611.59     0          0
36151349         HW_36151349      E30905           640.00     0.0170     611.59     603.60     0          0
36141351         HW_36141351      E30606           730.00     0.0240     598.62     596.11     0          0
36011353         HW_36011353      E30169           980.00     0.0150     602.14     600.49     0          0
36001359         HW_36001359      E30157           630.00     0.0150     600.49     600.23     0          0
36041363         HW_36041363      E30157           1330.00    0.0200     619.72     600.23     0          0
35991371         HW_35991371      E30146           665.00     0.0150     600.23     599.05     0          0
35981373         HW_35981373      E30126           1000.00    0.0150     599.05     597.70     0          0
35971376         HW_35971376      E30115           1010.00    0.0150     597.70     596.43     0          0
36031380         HW_36031380      E30297           1700.00    0.0200     614.91     609.22     0          0
36021387         HW_36021387      E30115           740.00     0.0200     609.22     603.63     0          0
35961389         HW_35961389      E30606           350.00     0.0150     596.43     596.11     0          0
36101390         HW_36101390      E30604A          670.00     0.0240     596.11     594.74     0          0
36121398         HW_36121398      E30693           985.00     0.0200     597.95     595.53     0          0
36111401         HW_36111401      E30604A          1330.00    0.0200     595.53     594.24     0          0
36091405         HW_36091405      E30601_LS        610.00     0.0200     594.74     593.76     0          0
35911407         HW_35911407      E30035           980.00     0.0150     589.12     587.70     0          0
35921413         HW_35921413      E30055           1300.00    0.0150     587.70     586.57     0          0
35931421         HW_35931421      E30075           1330.00    0.0150     586.57     585.31     0          0
35941429         HW_35941429      PS_35&Wash       1310.00    0.0200     585.31     583.20     0          0
36071439         HW_36071439      297              1700.00    0.0200     593.76     592.10     0          0
36061468         HW_36061468      D40519           4120.00    0.0170     592.00     588.21     0          0
36231469         HW_36231469      E31500D          1055.00    0.0150     568.58     568.06     0          0
36241514         HW_36241514      E31500G          1255.00    0.0150     568.06     567.43     0          0
36251517         HW_36251517      E31500L          2110.00    0.0150     567.43     566.38     0          0
36261522         HW_36261522      E31500M          642.00     0.0150     566.38     566.05     0          0
36291523         HW_36291523      PS_27Chase       4950.00    0.0150     562.45     557.53     0          0
36271524         HW_36271524      E31500P          1315.00    0.0150     566.05     565.38     0          0
36281527         HW_36281527      MerVil_Mn        5850.00    0.0150     565.38     562.45     0          0
36081445         HW_36081445      E31500D          2800.00    0.0200     592.89     585.00     0          0
3729295          HW_3729295       OF_32Aly1E       250.00     0.0200     587.00     585.93     0          0
3816217          HW_3816217       D30083           330.00     0.0190     592.00     592.04     0          0
3817218          HW_3817218       D30072           340.00     0.0190     592.04     591.45     0          0
3842223          HW_3842223       Node_3842223     154.00     0.0190     593.17     592.97     0          0
3841224          HW_3841224       D30072           180.00     0.0190     592.97     591.45     0          0
3818225          HW_3818225       D30071           325.00     0.0190     591.45     591.06     0          0
3819226          HW_3819226       D30058           330.00     0.0190     591.06     591.53     0          0
3820227          HW_3820227       D30057           330.00     0.0190     591.53     590.82     0          0
3824232          HW_3824232       D30422           169.00     0.0190     589.20     588.81     0          0
3823236          HW_3823236       D30261           130.00     0.0190     588.81     589.07     0          0
3834237          HW_3834237       D30208           300.00     0.0190     591.06     590.97     0          0
3833238          HW_3833238       D30224           300.00     0.0190     590.97     590.95     0          0
3832239          HW_3832239       D30225           260.00     0.0190     590.95     590.23     0          0
3831240          HW_3831240       D30242           275.00     0.0190     590.23     589.85     0          0
3830241          HW_3830241       D30243           330.00     0.0190     589.85     589.59     0          0
3829242          HW_3829242       D30260           150.00     0.0190     589.59     589.37     0          0
3828243          HW_3828243       D30262           320.00     0.0190     589.37     589.12     0          0
3827244          HW_3827244       D30261           146.00     0.0190     589.12     589.07     0          0
3826245          HW_3826245       D30280           310.00     0.0190     589.07     588.94     0          0
3835246          HW_3835246       D30281           320.00     0.0190     588.94     588.82     0          0
3836247          HW_3836247       D30304           310.00     0.0190     588.82     588.70     0          0
3837248          HW_3837248       D30305           310.00     0.0190     588.70     588.58     0          0
3838249          HW_3838249       D30324           320.00     0.0190     588.58     588.46     0          0
3839250          HW_3839250       D30325           310.00     0.0190     588.46     588.33     0          0
3745207          HW_3745207       C41488           431.00     0.0190     592.69     590.82     0          0
3746208          HW_3746208       C41487           202.00     0.0190     590.82     589.47     0          0
3747209          HW_3747209       C41486           385.00     0.0190     589.47     588.70     0          0
3749212          HW_3749212       C41483           285.00     0.0190     586.96     585.52     0          0
3799254          HW_3799254       D40537           312.00     0.0250     587.90     587.77     0          0
3800255          HW_3800255       D40546           314.00     0.0250     587.77     587.41     0          0
3801256          HW_3801256       D40547           313.00     0.0250     587.41     587.38     0          0
3804261          HW_3804261       D41108           364.00     0.0250     587.65     586.89     0          0
3805261A         HW_3805261A      D41109           113.00     0.0250     586.89     586.75     0          0
3781263          HW_3781263       D41093           580.00     0.0250     586.75     586.56     0          0
3783264          HW_3783264       D41059           300.00     0.0250     586.56     585.90     0          0
4059274          HW_4059274       D41023           100.00     0.0190     587.70     586.98     0          0
3776275          HW_3776275       D41022           150.00     0.0240     586.98     588.07     0          0
3786290          HW_3786290       D40774           305.00     0.0250     580.02     580.00     0          0
3787291          HW_3787291       D40773           375.00     0.0250     580.00     579.51     0          0
3788292a         HW_3788292a      D40772           372.00     0.0250     579.43     581.60     0          0
3809293a         HW_3809293a      D40697           325.00     0.0190     590.47     589.29     0          0
3810294A         HW_3810294A      D40702           320.00     0.0190     589.23     588.12     0          0
3811295a         HW_3811295a      D40713           310.00     0.0190     588.03     587.23     0          0
3812296          HW_3812296       D40718           330.00     0.0190     587.12     586.96     0          0
3813297a         HW_3813297a      D40735           330.00     0.0190     586.88     586.11     0          0
3814298a         HW_3814298a      D40767           330.00     0.0190     586.06     581.97     0          0
3815299          HW_3815299       D40772           336.00     0.0190     581.97     581.68     0          0
3854309          HW_3854309       C31432           218.00     0.0190     586.65     586.21     0          0
4030310          HW_4030310       C31433           218.00     0.0190     586.21     585.96     0          0
4031311          HW_4031311       C31434           368.00     0.0190     585.96     583.49     0          0
4037319          HW_4037319       C31297           300.00     0.0190     586.68     586.57     0          0
4033329          HW_4033329       C41188A          210.00     0.0190     583.54     584.31     0          0
4138330          HW_4138330       C41188           144.00     0.0190     584.31     584.43     0          0
3754345          HW_3754345       C41278           156.00     0.0190     581.08     580.23     0          0
3887350          HW_3887350       C41286B          370.00     0.0190     581.10     581.87     0          0
3888351          HW_3888351       C41596           160.00     0.0190     581.87     582.21     0          0
3889352          HW_3889352       C41597           265.00     0.0190     582.21     581.80     0          0
3890353          HW_3890353       C41598           264.00     0.0190     581.80     581.05     0          0
3891354          HW_3891354       C41599           330.00     0.0190     581.05     581.19     0          0
3892355          HW_3892355       C41595           326.00     0.0190     581.19     580.39     0          0
3894356          HW_3894356       C41415           329.00     0.0190     589.28     587.25     0          0
3895357          HW_3895357       C41446           331.00     0.0190     587.25     586.81     0          0
3896358          HW_3896358       C41467           330.00     0.0190     586.81     585.85     0          0
3898360          HW_3898360       C41581           378.00     0.0190     584.83     584.28     0          0
3899361          HW_3899361       C41595           340.00     0.0190     584.28     580.39     0          0
3902369          HW_3902369       C41644           328.00     0.0240     584.61     584.19     0          0
3903370          HW_3903370       C41626           328.00     0.0240     584.19     583.70     0          0
3904371          HW_3904371       C41613           155.00     0.0240     583.70     580.18     0          0
3905372          HW_3905372       C41595           150.00     0.0190     580.18     580.59     0          0
3907388a         HW_3907388a      C41366           383.00     0.0190     589.71     588.47     0          0
3909391          HW_3909391       C41440           330.00     0.0190     586.79     586.27     0          0
3910392          HW_3910392       C41473           330.00     0.0190     586.27     585.27     0          0
3913395          HW_3913395       C41574           377.00     0.0190     584.65     584.01     0          0
3914396          HW_3914396       C41605           320.00     0.0190     584.01     583.18     0          0
3906397a         HW_3906397a      C41610           162.00     0.0190     580.18     580.65     0          0
3915398          HW_3915398       C41630           155.00     0.0190     580.65     581.00     0          0
3955406a         HW_3955406a      C41328           172.00     0.0190     583.72     582.98     0          0
3936425          HW_3936425       C41363           336.00     0.0250     582.98     582.87     0          0
3932427          HW_3932427       C41390           330.00     0.0250     582.79     582.56     0          0
3933428          HW_3933428       C41419           329.00     0.0250     582.56     581.72     0          0
3935429          HW_3935429       C41437           330.00     0.0250     581.72     581.62     0          0
3934430          HW_3934430       C41476           329.00     0.0250     581.62     581.54     0          0
3931431          HW_3931431       C41570           379.00     0.0250     581.54     581.32     0          0
3930432          HW_3930432       C41571           378.00     0.0250     581.32     580.70     0          0
3937439          HW_3937439       C41770           160.00     0.0190     587.10     583.56     0          0
3938456          HW_3938456       C41753           344.00     0.0250     583.56     582.40     0          0
3942457          HW_3942457       C41752           337.00     0.0250     582.40     582.14     0          0
3943462          HW_3943462       C41722           351.00     0.0250     582.14     582.46     0          0
3944463          HW_3944463       C41721           350.00     0.0250     582.46     582.67     0          0
3947469          HW_3947469       C41635           327.00     0.0250     581.33     581.09     0          0
3948470          HW_3948470       C41633           328.00     0.0250     581.09     580.29     0          0
3918473          HW_3918473       C41608           178.00     0.0250     578.73     579.98     0          0
3917474          HW_3917474       C41543           340.00     0.0190     579.98     579.90     0          0
3922475          HW_3922475       C41517           365.00     0.0190     579.90     579.80     0          0
3921478          HW_3921478       C41617A          400.00     0.0250     580.27     580.16     0          0
3919481          HW_3919481       C41613           665.00     0.0250     580.00     580.00     0          0
3905482          HW_3905482       C41610           660.00     0.0250     580.00     579.00     0          0
3915483          HW_3915483       C41609           490.00     0.0250     579.00     578.73     0          0
3958488          HW_3958488       C41515           419.00     0.0190     575.41     575.29     0          0
3960491          HW_3960491       C41512           485.00     0.0190     573.84     573.59     0          0
3961492          HW_3961492       C41511           499.00     0.0190     573.59     573.43     0          0
3952514          HW_3952514       C41356           167.00     0.0240     591.02     590.79     0          0
3953515          HW_3953515       C41333           163.00     0.0240     590.79     590.57     0          0
3964543          HW_3964543       C31392           158.00     0.0250     589.32     589.15     0          0
3965544          HW_3965544       C31406           325.00     0.0250     589.15     587.31     0          0
3966545          HW_3966545       C31459           330.00     0.0250     587.31     588.33     0          0
3968548          HW_3968548       C31549           420.00     0.0190     587.02     586.54     0          0
3969549          HW_3969549       C31621           318.00     0.0190     586.54     586.04     0          0
3970550          HW_3970550       C31650           320.00     0.0190     586.54     585.81     0          0
3971551          HW_3971551       C31652A          158.00     0.0190     585.81     585.96     0          0
3976563          HW_3976563       C31478           164.00     0.0190     585.86     585.76     0          0
3975564          HW_3975564       C31461           164.00     0.0190     585.76     585.13     0          0
3978569          HW_3978569       C31480           330.00     0.0190     583.58     582.72     0          0
3979570          HW_3979570       C31524           385.00     0.0190     582.72     582.02     0          0
3980574          HW_3980574       C31554           380.00     0.0190     582.02     581.29     0          0
3981575          HW_3981575       C31617           300.00     0.0190     581.29     580.73     0          0
3973580          HW_3973580       C31653           335.00     0.0190     580.73     580.30     0          0
3982581          HW_3982581       C31712           320.00     0.0190     580.30     580.00     0          0
3983582          HW_3983582       C31746           330.00     0.0190     580.00     579.70     0          0
3984585          HW_3984585       C31807           162.00     0.0190     579.70     579.37     0          0
3986586          HW_3986586       C31807           160.00     0.0190     583.94     579.37     0          0
3992591          HW_3992591       C32207           328.00     0.0190     584.08     583.12     0          0
3987596          HW_3987596       C31808           160.00     0.0190     586.53     579.31     0          0
4042599          HW_4042599       C31416           342.00     0.0190     589.91     584.60     0          0
4040604          HW_4040604       C31453           344.00     0.0190     584.59     583.40     0          0
4044607          HW_4044607       C31560A          180.00     0.0190     582.73     582.53     0          0
4024610          HW_4024610       C31683           290.00     0.0240     587.73     587.72     0          0
4026613          HW_4026613       C31573           320.00     0.0240     587.05     584.00     0          0
4027614          HW_4027614       C31507           158.00     0.0240     584.00     582.51     0          0
4029618          HW_4029618       C31506           150.00     0.0190     585.43     583.58     0          0
4052632          HW_4052632       C32198           340.00     0.0190     582.08     581.50     0          0
4050636          HW_4050636       C31800A          172.00     0.0190     579.60     579.54     0          0
3808643          HW_3808643       D30506           320.00     0.0190     590.43     588.77     0          0
3843644          HW_3843644       D30512           300.00     0.0190     588.77     588.23     0          0
3844645          HW_3844645       D30523           320.00     0.0190     588.23     587.54     0          0
3846649          HW_3846649       D30542           320.00     0.0190     586.53     586.00     0          0
3847650          HW_3847650       D30546           310.00     0.0190     586.00     585.36     0          0
3849651          HW_3849651       D30496           330.00     0.0190     590.66     590.06     0          0
3850652          HW_3850652       D30498           182.00     0.0190     590.06     589.87     0          0
3848658          HW_3848658       D30553           305.00     0.0190     585.36     585.18     0          0
4020671          HW_4020671       C31507           502.00     0.0190     583.58     582.51     0          0
4022674          HW_4022674       C31511           358.00     0.0190     582.32     582.02     0          0
4039680          HW_4039680       C31609           146.00     0.0190     580.33     580.31     0          0
4046681          HW_4046681       C31661           350.00     0.0190     580.31     579.68     0          0
4048682          HW_4048682       C31705           310.00     0.0190     579.68     579.88     0          0
3985687          HW_3985687       C31808           360.00     0.0190     579.37     579.31     0          0
3855699          HW_3855699       D30575           166.00     0.0190     592.67     591.70     0          0
3856700          HW_3856700       D30574           162.00     0.0190     591.70     590.62     0          0
3859704          HW_3859704       D30568           166.00     0.0190     588.02     588.00     0          0
3865727          HW_3865727       D30683           107.00     0.0190     587.45     586.85     0          0
3866728          HW_3866728       D30682           79.00      0.0190     586.85     586.00     0          0
3867729          HW_3867729       D30678           179.00     0.0190     586.11     586.11     0          0
4113750          HW_4113750       C31990A          160.00     0.0190     584.05     583.96     0          0
4114751          HW_4114751       C32000           280.00     0.0190     583.96     583.80     0          0
4115752          HW_4115752       C32017A          330.00     0.0190     583.80     583.43     0          0
4117756          HW_4117756       C32124           160.00     0.0190     582.51     582.33     0          0
4118761          HW_4118761       C32141A          415.00     0.0190     582.33     581.86     0          0
4119762          HW_4119762       C32128           410.00     0.0190     581.86     581.42     0          0
4112783          HW_4112783       C32051           618.00     0.0190     587.44     586.45     0          0
4111788          HW_4111788       C32107           646.00     0.0190     586.45     582.81     0          0
3861789          HW_3861789       D30568           310.00     0.0190     588.97     588.04     0          0
3881797          HW_3881797       D30746           330.00     0.0190     585.56     584.82     0          0
3880798          HW_3880798       D30747           320.00     0.0190     584.82     584.88     0          0
3879799          HW_3879799       D30751           330.00     0.0190     584.88     585.22     0          0
3862810          HW_3862810       D30594           300.00     0.0190     597.26     595.31     0          0
3873811          HW_3873811       D30615           330.00     0.0190     595.31     596.24     0          0
3872812          HW_3872812       D30623           325.00     0.0190     596.24     594.80     0          0
3871813          HW_3871813       D30667           650.00     0.0190     594.80     593.43     0          0
3870814          HW_3870814       D30696           360.00     0.0190     593.43     592.84     0          0
3869815          HW_3869815       D30709           330.00     0.0190     592.84     592.30     0          0
3885818          HW_3885818       D30812           159.00     0.0190     600.58     598.93     0          0
3884819          HW_3884819       D30811           164.00     0.0190     598.37     596.78     0          0
3883820          HW_3883820       D30806           165.00     0.0190     596.78     594.43     0          0
3882821          HW_3882821       D30709A          151.00     0.0190     594.43     591.37     0          0
4081829          HW_4081829       D21144           170.00     0.0190     596.82     596.34     0          0
4082830          HW_4082830       D21148           330.00     0.0190     596.34     595.52     0          0
4084833          HW_4084833       D21118           340.00     0.0190     594.28     593.44     0          0
4085834          HW_4085834       D21117           168.00     0.0190     593.44     592.69     0          0
4071870          HW_4071870       D21079           306.00     0.0190     584.39     584.19     0          0
4072871          HW_4072871       D21080           326.00     0.0190     584.19     583.79     0          0
4073872          HW_4073872       D30792           340.00     0.0190     583.79     583.06     0          0
4074888          HW_4074888       D20944           330.00     0.0240     584.81     584.20     0          0
4068904          HW_4068904       D20923           330.00     0.0240     584.20     583.84     0          0
4092913          HW_4092913       D20875           320.00     0.0250     582.79     582.70     0          0
4093914          HW_4093914       D20863           320.00     0.0250     582.70     582.50     0          0
4094915          HW_4094915       D20854           330.00     0.0250     582.50     582.11     0          0
4095916          HW_4095916       C32132           168.00     0.0250     582.11     581.17     0          0
4062923          HW_4062923       D20894           500.00     0.0190     585.76     584.89     0          0
4063924          HW_4063924       D20883           500.00     0.0190     584.89     583.96     0          0
4096930          HW_4096930       C32100a          660.00     0.0190     581.17     581.00     0          0
3764942          HW_3764942       C22742           229.00     0.0190     585.60     585.38     0          0
3765943          HW_3765943       C22741           444.00     0.0190     585.38     584.86     0          0
3766944          HW_3766944       C22740           443.00     0.0190     584.86     583.96     0          0
3767945          HW_3767945       C22739           438.00     0.0190     583.96     583.61     0          0
3768946          HW_3768946       C22738           436.00     0.0190     583.61     583.02     0          0
3770949          HW_3770949       C22736           425.00     0.0190     578.37     578.42     0          0
3771950          HW_3771950       C22724           570.00     0.0190     578.42     579.03     0          0
3761951          HW_3761951       C2JCT3           195.00     0.0190     569.22     568.77     0          0
4124971          HW_4124971       C32139           324.00     0.0190     582.64     582.38     0          0
4123972          HW_4123972       C32128           168.00     0.0190     582.38     582.00     0          0
4120973          HW_4120973       C32129A          170.00     0.0190     581.42     581.29     0          0
4121974          HW_4121974       C32106           320.00     0.0190     581.29     581.03     0          0
4122975          HW_4122975       C32107           170.00     0.0190     581.03     580.81     0          0
4097976          HW_4097976       C32107           640.00     0.0190     581.00     580.81     0          0
4110977          HW_4110977       C32095           164.00     0.0190     580.81     580.75     0          0
4106991          HW_4106991       C32635           272.00     0.0190     581.43     581.23     0          0
4105992          HW_4105992       C32632           114.00     0.0190     581.23     581.16     0          0
4104993          HW_4104993       C32630           216.00     0.0190     581.16     581.03     0          0
41001007         HW_41001007      C32584           300.00     0.0250     580.80     580.80     0          0
39951010         HW_39951010      C32282           330.00     0.0240     584.22     583.85     0          0
39991015         HW_39991015      C32287           216.00     0.0190     585.86     585.31     0          0
39981016         HW_39981016      C32286           332.00     0.0240     585.03     583.85     0          0
40021023         HW_40021023      C32387           330.00     0.0240     583.00     582.90     0          0
40031024         HW_40031024      C32388           330.00     0.0240     582.90     582.80     0          0
40041025         HW_40041025      C32415           330.00     0.0240     582.80     582.70     0          0
40051026         HW_40051026      C32416           326.00     0.0240     582.70     582.60     0          0
40061027         HW_40061027      C32459           326.00     0.0250     582.60     582.50     0          0
41281056         HW_41281056      C32715           282.00     0.0250     580.92     580.79     0          0
37631060         HW_37631060      C22726           648.00     0.0190     571.31     570.45     0          0
37621061         HW_37621061      C22727           650.00     0.0190     570.45     569.22     0          0
37941475         HW_37941475      D40969           210.00     0.0190     593.59     592.70     0          0
37961483         HW_37961483      D40977           198.00     0.0190     588.99     588.64     0          0
39241499         HW_39241499      C41520           455.00     0.0190     576.62     576.32     0          0
39261500         HW_39261500      C41521           465.00     0.0190     576.32     576.23     0          0
39251503         HW_39251503      C41522           710.00     0.0190     578.00     575.55     0          0
41379900         HW_41379900      C41192           58.00      0.0190     587.66     587.60     0          0
41369901         HW_41369901      C41191           164.00     0.0190     587.60     587.54     0          0
41359902         HW_41359902      C41190           166.00     0.0190     587.54     587.06     0          0
41349903         HW_41349903      C41189           164.00     0.0190     587.01     586.40     0          0
41339904         HW_41339904      C41188           164.00     0.0190     586.40     585.36     0          0
37729905         HW_37729905      C2DIVRSN1        450.00     0.0190     579.03     578.85     0          0
3802257          HW_3802257       D40555           312.00     0.0250     587.01     586.84     0          0
3911393          HW_3911393       C41473A          182.00     0.0190     585.27     584.96     0          0
3912394          HW_3912394       C41567           200.00     0.0190     584.96     584.65     0          0
3990594          HW_3990594       C31809           328.00     0.0190     583.00     582.53     0          0
3989595          HW_3989595       C31808           170.00     0.0190     582.53     579.31     0          0
3858703          HW_3858703       D30569           160.00     0.0190     588.60     588.00     0          0
3864822A         HW_3864822A      D30709A          870.00     0.0190     592.30     591.39     0          0
3840251          HW_3840251       D40519           310.00     0.0190     588.33     588.21     0          0
4376253          HW_4376253       D40520           400.00     0.0250     588.21     588.09     0          0
4380D114         D31000           D31008           1000.00    0.0190     592.65     591.65     0          0
4381D115         D31008           D31009           325.00     0.0190     591.65     591.32     0          0
4382D116         D31009           D31020           1100.00    0.0190     591.32     590.22     0          0
4383D117         D31020           D31021           230.00     0.0190     590.22     588.91     0          0
4384D118         D31021           D310234          450.00     0.0190     588.91     586.35     0          0
4385D119         D310234          D31029           900.00     0.0190     586.35     581.22     0          0
4386D120         D31029           D31032           660.00     0.0190     581.22     577.46     0          0
4387D121         D31032           D31035           500.00     0.0190     577.46     574.61     0          0
4379D122         D31035           D31038           150.00     0.0190     574.61     573.75     0          0
4392D123         D31001           D31008           700.00     0.0190     592.35     591.65     0          0
4390D124         D31040           D31042           325.00     0.0150     593.00     592.67     0          0
4389D125         D31042           D31044           650.00     0.0190     592.67     592.02     0          0
4391D126         D31044           D31009           700.00     0.0190     592.02     591.32     0          0
4406D103         D24002           D31038           700.00     0.0190     574.40     573.75     0          0
4407D106         D24027           D24007           200.00     0.0190     575.55     575.35     0          0
4408D107         D24007           D24004           900.00     0.0190     575.35     574.45     0          0
4412D108         D24004           D24039           500.00     0.0190     574.45     573.95     0          0
4414D109         D24039           D31038           200.00     0.0190     573.95     573.75     0          0
4409D110         D24037           D24036           150.00     0.0190     576.80     576.65     0          0
4410D111         D24036           D24007           1300.00    0.0190     576.65     575.35     0          0
4413D113         D240043          D24039           650.00     0.0190     574.60     573.95     0          0
4411D112         D340038          D24004           150.00     0.0190     574.60     574.45     0          0
43885x8          HW_43885x8       PS_27Chase       1400.00    0.0190     573.75     558.00     0          0
4130OUTLINK009   C32695           OUTFALL009       100.00     0.0190     579.41     579.27     0          0
3918RI           C41609           RI               703.00     0.0190     578.73     576.71     0          0
4431RI           RI               C41518           72.00      0.0190     576.71     576.62     0          0
3949471          HW_3949471       C41609           188.00     0.0250     580.29     578.73     0          0
3825234          HW_3825234       D30422           174.00     0.0190     589.88     588.81     0          0
37541497         HW_37541497      C41290           215.00     0.0250     581.08     580.91     0          0
3929433          HW_3929433       C41608           331.00     0.0250     580.60     579.98     0          0
41021008         HW_41021008      C32487           290.00     0.0250     580.80     580.80     0          0
3803258          HW_3803258       D41115           584.00     0.0250     586.84     587.65     0          0
444148"chase     HW_444148_chase  C22726           100.00     0.0190     578.55     570.45     0          0
4440ch_out       w1_nd            w2_nd            100.00     0.0190     578.50     578.40     0          0
4446Chase_ovf    w2_out           OF_Chase         100.00     0.0190     578.40     578.30     0          0
4127Bridge_ovf   C3REGLTR2        OF_Bridge        200.00     0.0190     580.51     580.31     0          0
3967546          HW_3967546       C31527           680.00     0.0190     588.00     587.02     0          0
4458Prc_ovf      prc_weir         OF_Pierce        100.00     0.0190     579.27     579.17     0          0
4131504          HW_4131504       C32699           604.00     0.0190     573.65     573.33     0          0
4463503          HW_4463503       C32694           462.00     0.0190     573.80     573.65     0          0
4466polk_div     2148             OF008            100.00     0.0190     584.70     584.60     0          0
4464Polk_ovf     pk_wr_nd         OF_Polk          100.00     0.0190     584.60     584.50     0          0
4471487          HW_4471487       C41516           415.00     0.0190     575.76     575.41     0          0
44741502         HW_44741502      C41519           340.00     0.0190     579.00     578.00     0          0
4477A9_ovf       2162             OF_RI_2          100.00     0.0190     575.55     575.45     0          0
4481RI_ovf       2166             OF_RI_1          100.00     0.0190     576.32     576.22     0          0
3769947          HW_3769947       C2JCT1           441.00     0.0190     583.02     582.02     0          0
3821228          HW_3821228       D30050           323.00     0.0190     590.82     590.05     0          0
3822230          HW_3822230       D30452           661.00     0.0190     590.05     589.20     0          0
378025&Geo_ovf   HW_378025_Geo_ovf OF_25&Geor       1885.00    0.0190     584.40     581.85     0          0
3775268          HW_3775268       D41023           225.00     0.0240     587.12     586.98     0          0
4060271          HW_4060271       D40993           420.00     0.0190     588.02     587.70     0          0
3777276          HW_3777276       D41032           433.00     0.0240     588.07     587.95     0          0
3778278          HW_3778278       D41057           410.00     0.0240     587.95     587.87     0          0
3779280          HW_3779280       D41059           411.00     0.0240     587.82     585.90     0          0
3782282          HW_3782282       D4JCT5           1657.00    0.0250     585.90     584.04     0          0
37981476         HW_37981476      D40972           567.00     0.0190     592.70     590.47     0          0
37971479         HW_37971479      D40976           1144.00    0.0190     590.13     589.01     0          0
37951484         HW_37951484      D41007           323.00     0.0240     588.25     587.92     0          0
37931487         HW_37931487      D41009           282.00     0.0240     587.74     587.97     0          0
37921489         HW_37921489      D41045           334.00     0.0240     587.91     587.96     0          0
37911491         HW_37911491      D41047           335.00     0.0240     587.98     587.08     0          0
3784285          HW_3784285       D40815           508.00     0.0250     584.04     581.78     0          0
3789300a         HW_3789300a      C41261           597.00     0.0250     581.56     581.25     0          0
3753307          HW_3753307       C41276           345.00     0.0250     581.25     581.08     0          0
3743201          HW_3743201       C41504           1094.00    0.0190     599.70     593.00     0          0
3941440          HW_3941440       C41782           964.00     0.0240     587.16     585.50     0          0
3940446          HW_3940446       C41765           1009.00    0.0190     585.50     584.04     0          0
3939451          HW_3939451       C41770           760.00     0.0190     584.04     583.56     0          0
3868730          HW_3868730       D30680           180.00     0.0190     586.11     586.43     0          0
3785286          HW_3785286       D40812           981.00     0.0250     581.78     580.02     0          0
3877839A         HW_3877839A      C32132           616.00     0.0190     583.06     581.17     0          0
45131470         HW_45131470      D41110           145.00     0.0190     584.50     584.45     0          0
3974565          HW_3974565       C31460           50.00      0.0190     585.13     585.00     0          0
4076842          HW_4076842       D23333           300.00     0.0190     595.24     594.55     0          0
4077844          HW_4077844       D23343           450.00     0.0190     594.55     593.78     0          0
4078848          HW_4078848       D23344A          342.00     0.0190     593.78     592.75     0          0
4079850          HW_4079850       D23344D          288.00     0.0190     592.75     591.25     0          0
4080853          HW_4080853       D23433           542.00     0.0190     591.25     588.32     0          0
4083831          HW_4083831       D21154           330.00     0.0190     595.52     594.28     0          0
3876828          HW_3876828       D30795           1320.00    0.0150     595.11     588.24     0          0
4086835          HW_4086835       D30795           1330.00    0.0190     592.69     588.24     0          0
3875837          HW_3875837       D30792           1330.00    0.0190     588.24     583.06     0          0
3878753          HW_3878753       D30792           1295.00    0.0190     585.22     583.06     0          0
41011003         HW_41011003      C32613           772.00     0.0190     588.68     580.80     0          0
4098937          HW_4098937       C2JCT1           350.00     0.0190     578.52     578.37     0          0
39971017         HW_39971017      C32338           398.00     0.0240     583.77     583.70     0          0
3851654          HW_3851654       D30546           928.00     0.0190     589.87     586.34     0          0
40342231         HW_40342231      C31290           673.00     0.0240     585.44     585.15     0          0
3756341          HW_3756341       C41276           491.00     0.0190     582.08     581.08     0          0
3954516          HW_3954516       C31389B          1274.00    0.0240     590.33     589.50     0          0
39462237         HW_39462237      C41676           456.00     0.0250     582.43     581.33     0          0
37902240         HW_37902240      D4JCT5           343.00     0.0240     587.00     584.04     0          0
41322242         HW_41322242      pk_rg_nd         420.00     0.0190     572.43     573.80     0          0
4485RI_LINK3     2170             2156             102.00     0.0190     576.71     575.76     0          0
46011071         HW_46011071      D13815           162.00     0.0190     593.48     592.46     0          0
45981079         HW_45981079      D13653           326.00     0.0190     586.25     586.00     0          0
45971080         HW_45971080      D13664           314.00     0.0190     586.00     586.11     0          0
45951083         HW_45951083      D13677           300.00     0.0190     585.41     585.00     0          0
45941084         HW_45941084      D13678           142.00     0.0190     585.00     584.82     0          0
45931085         HW_45931085      D13679           150.00     0.0190     584.82     584.49     0          0
45921086         HW_45921086      D13686           314.00     0.0190     584.49     584.38     0          0
45901095         HW_45901095      D13691           324.00     0.0190     584.00     583.80     0          0
45891096         HW_45891096      D13253           322.00     0.0190     583.80     583.75     0          0
45871099         HW_45871099      D13250           292.00     0.0190     583.70     583.65     0          0
45741111         HW_45741111      D13204           338.00     0.0190     582.74     583.00     0          0
45751119         HW_45751119      D13215           328.00     0.0190     583.00     582.65     0          0
45781120         HW_45781120      D13216           150.00     0.0190     582.65     583.03     0          0
45811125         HW_45811125      D13236           307.00     0.0190     582.20     583.56     0          0
45831128         HW_45831128      C23156           324.00     0.0190     583.17     581.38     0          0
45421136         HW_45421136      C22930           260.00     0.0190     579.77     579.74     0          0
45451140         HW_45451140      C22753A          176.00     0.0190     584.38     583.33     0          0
45631141         HW_45631141      C22755           180.00     0.0190     582.67     582.77     0          0
45461142         HW_45461142      C22789           330.00     0.0190     582.09     582.43     0          0
45471143         HW_45471143      C22790           317.00     0.0190     582.43     582.27     0          0
45481144         HW_45481144      C22807           312.00     0.0190     582.27     582.17     0          0
45491145         HW_45491145      C22809           308.00     0.0190     582.17     582.30     0          0
45501146         HW_45501146      C22828           340.00     0.0190     582.30     581.52     0          0
45521160         HW_45521160      C22869           355.00     0.0190     580.85     580.97     0          0
45591167         HW_45591167      C22872           170.00     0.0190     581.49     580.33     0          0
45601168         HW_45601168      C22894           330.00     0.0190     580.33     580.62     0          0
45611169         HW_45611169      C22895           325.00     0.0190     580.62     580.05     0          0
45671195         HW_45671195      C23172           300.00     0.0190     574.11     573.56     0          0
45691200         HW_45691200      C23172C          390.00     0.0190     572.26     571.55     0          0
45721203         HW_45721203      C23172F          470.00     0.0190     570.11     569.24     0          0
45841106         HW_45841106      D13236           230.00     0.0190     583.55     583.56     0          0
46387019         HW_46387019      C23106           160.00     0.0190     583.59     583.42     0          0
46417135         HW_46417135      C22969A          370.00     0.0190     583.36     582.50     0          0
4573PLT_LNK2     C23172F          C22728A          260.00     0.0190     569.24     568.22     0          0
3900362          HW_3900362       C41687           1007.00    0.0240     587.20     584.91     0          0
3901367          HW_3901367       C41667           230.00     0.0240     584.91     584.61     0          0
3950460          HW_3950460       C41752           353.00     0.0190     586.18     582.14     0          0
3945464          HW_3945464       C41678           342.00     0.0250     582.67     582.43     0          0
3806637          HW_3806637       D40639           691.00     0.0190     597.53     596.59     0          0
4061639          HW_4061639       D40643           659.00     0.0190     596.55     595.51     0          0
38073190         HW_38073190      D40754           690.00     0.0190     595.47     591.45     0          0
3845646          HW_3845646       D30530           650.00     0.0190     587.54     586.53     0          0
3852659          HW_3852659       D30556           400.00     0.0190     585.18     584.63     0          0
4032313          HW_4032313       C31290           1566.00    0.0150     583.49     583.54     0          0
4036320          HW_4036320       C31295           259.00     0.0240     586.57     586.43     0          0
4035322          HW_4035322       C31293           478.00     0.0240     586.43     585.44     0          0
3857701          HW_3857701       D30572           335.00     0.0190     590.62     588.60     0          0
3860790          HW_3860790       D30680           1630.00    0.0190     588.00     586.43     0          0
3863794          HW_3863794       D30727           1120.00    0.0190     586.43     585.56     0          0
38743199         HW_38743199      D30795           1930.00    0.0190     591.39     588.24     0          0
4070868          HW_4070868       D21078           662.00     0.0190     585.26     584.39     0          0
4075856          HW_4075856       D20950D          1659.00    0.0240     588.32     584.81     0          0
4064882          HW_4064882       D21063           334.00     0.0240     585.41     585.24     0          0
4066884          HW_4066884       D20955           232.00     0.0240     585.24     585.00     0          0
4067886          HW_4067886       D20950D          232.00     0.0240     585.00     584.81     0          0
4069897          HW_4069897       D20944           509.00     0.0190     586.26     584.20     0          0
4088907          HW_4088907       D20899A          330.00     0.0240     583.75     583.75     0          0
4089909          HW_4089909       D20904           330.00     0.0250     583.75     583.07     0          0
4090911          HW_4090911       D20877           330.00     0.0250     583.07     582.79     0          0
4091926          HW_4091926       C32100a          1330.00    0.0190     583.96     581.00     0          0
4109978          HW_4109978       C32073           744.00     0.0190     580.75     581.73     0          0
3962493          HW_3962493       C32693           3485.00    0.0190     573.42     572.43     0          0
45661187         HW_45661187      C22764           2235.00    0.0190     575.00     574.00     0          0
4097931          HW_4097931       C32665           1430.00    0.0190     581.00     579.09     0          0
4099934          HW_4099934       C32608           2016.00    0.0190     579.09     578.52     0          0
3886346          HW_3886346       C41286A          1120.00    0.0190     580.23     581.00     0          0
45681198         HW_45681198      C23172B          720.00     0.0170     573.56     572.26     0          0
37582144         HW_37582144      C22728A          560.00     0.0170     568.77     568.22     0          0
37602145         HW_37602145      C2JCT3           241.00     0.0470     582.60     568.77     0          0
44512146         HW_44512146      C22725           1352.00    0.0170     571.78     571.31     0          0
4125961          HW_4125961       brg_sg           3170.00    0.0170     572.00     571.78     0          0
4129955          HW_4129955       C32708           2180.00    0.0170     573.33     572.19     0          0
3988688          HW_3988688       prc_fg           1410.00    0.0170     579.31     579.41     0          0
3972553          HW_3972553       2148             1900.00    0.0170     585.96     584.70     0          0
39592152         HW_39592152      C41513           863.00     0.0170     575.29     573.84     0          0
3920479          HW_3920479       C41616           1020.00    0.0250     580.16     580.00     0          0
37522154         HW_37522154      C41289           860.00     0.0250     580.91     580.27     0          0
37592155         HW_37592155      C22733           526.00     0.0170     584.20     582.60     0          0
40101036         HW_40101036      C32485           524.00     0.0250     580.80     580.80     0          0
40121038         HW_40121038      C32482           680.00     0.0250     580.80     581.08     0          0
40131054         HW_40131054      C32480           640.00     0.0250     581.08     580.92     0          0
40181040         HW_40181040      C32509           384.00     0.0240     585.96     585.43     0          0
40191042         HW_40191042      C32482           380.00     0.0240     585.43     581.08     0          0
40141046         HW_40141046      C32436           334.00     0.0140     587.49     586.11     0          0
40151048         HW_40151048      C32439           378.00     0.0140     586.11     585.77     0          0
40161050         HW_40161050      C32473           380.00     0.0140     585.77     585.40     0          0
40171052         HW_40171052      C32482           352.00     0.0140     585.40     581.45     0          0
40001012         HW_40001012      C32288           420.00     0.0140     586.19     585.86     0          0
39961011         HW_39961011      C32338           494.00     0.0240     583.85     583.12     0          0
40011021         HW_40011021      C32365           494.00     0.0240     583.12     583.00     0          0
40111034         HW_40111034      C32459           352.00     0.0140     583.59     582.97     0          0
40071028         HW_40071028      C32457           378.00     0.0250     582.50     582.00     0          0
40081030         HW_40081030      C32465           374.00     0.0250     582.00     581.80     0          0
40091032         HW_40091032      C32487           352.00     0.0250     581.80     580.80     0          0
4108988          HW_4108988       C32667           600.00     0.0140     581.73     581.73     0          0
4107994          HW_4107994       C32656           742.00     0.0140     581.73     581.43     0          0
41032174         HW_41032174      C32613           638.00     0.0140     581.03     580.80     0          0
4065880          HW_4065880       D21040           340.00     0.0140     585.98     585.41     0          0
4087905          HW_4087905       D20913           330.00     0.0240     583.84     583.75     0          0
41162177         HW_41162177      C32124A          815.00     0.0140     583.43     582.51     0          0
4028616          HW_4028616       C31500           510.00     0.0140     586.12     585.43     0          0
3853661          HW_3853661       C31506           862.00     0.0140     584.63     583.58     0          0
4025611          HW_4025611       C31593           304.00     0.0240     587.72     587.17     0          0
4021672          HW_4021672       C31510           300.00     0.0140     582.51     582.32     0          0
4023675          HW_4023675       C31599           610.00     0.0170     582.02     581.37     0          0
4038677          HW_4038677       C31610           1848.00    0.0140     581.37     580.33     0          0
4041602          HW_4041602       C31416           663.00     0.0140     586.91     585.18     0          0
4043605          HW_4043605       C31518           676.00     0.0140     583.40     582.73     0          0
4045608          HW_4045608       C31610           390.00     0.0140     582.53     580.33     0          0
4047683          HW_4047683       C31800A          510.00     0.0140     579.88     579.54     0          0
4058619          HW_4058619       C32534           360.00     0.0140     587.37     586.50     0          0
4057620          HW_4057620       C32331           318.00     0.0140     586.50     586.03     0          0
4056622          HW_4056622       C32325           640.00     0.0140     586.03     584.75     0          0
4055625          HW_4055625       C32293           776.00     0.0140     584.75     583.30     0          0
4054628          HW_4054628       C32256           354.00     0.0140     583.04     582.59     0          0
4053630          HW_4053630       C32242           350.00     0.0140     582.59     582.08     0          0
4051633          HW_4051633       C31799           650.00     0.0140     581.50     579.60     0          0
3994587          HW_3994587       C32233           328.00     0.0140     585.06     584.84     0          0
3993589          HW_3993589       C32231           360.00     0.0140     584.84     584.08     0          0
39912197         HW_39912197      C31828           245.00     0.0140     583.12     583.00     0          0
40492198         HW_40492198      C31807           1160.00    0.0140     579.54     579.37     0          0
39772199         HW_39772199      C31457           360.00     0.0140     585.00     583.58     0          0
3744204          HW_3744204       C41501           983.00     0.0190     593.00     592.69     0          0
3748210          HW_3748210       C41484           882.00     0.0190     588.70     586.96     0          0
3750213          HW_3750213       C41292           1023.00    0.0190     585.52     583.97     0          0
3751215          HW_3751215       C41290           995.00     0.0190     583.97     580.91     0          0
3755339          HW_3755339       C41252           2346.00    0.0190     584.43     582.08     0          0
3897359          HW_3897359       C41561           380.00     0.0190     585.85     584.83     0          0
3893373          HW_3893373       C41605           658.00     0.0190     580.39     580.18     0          0
3906399          HW_3906399       C41608           467.00     0.0190     580.18     579.98     0          0
3908389A         HW_3908389A      C41416           661.00     0.0190     588.47     586.79     0          0
3957377          HW_3957377       C41311           960.00     0.0190     599.30     596.45     0          0
3956383          HW_3956383       C41321           607.00     0.0190     596.45     589.71     0          0
41002212         HW_41002212      C32608           448.00     0.0240     580.80     580.75     0          0
39632213         HW_39632213      C41328           850.00     0.0250     589.92     582.98     0          0
4760Colfax_ovf   C22927           OF_Colfax        500.00     0.0190     577.80     577.30     0          0
47611179         HW_47611179      C22855           2840.00    0.0190     576.67     575.00     0          0
45991074         HW_45991074      D13666           772.00     0.0170     589.76     585.41     0          0
46001072         HW_46001072      D13773           322.00     0.0170     592.46     589.76     0          0
45961081         HW_45961081      D13666           320.00     0.0170     586.11     585.41     0          0
45911087         HW_45911087      D13687           316.00     0.0170     584.38     584.00     0          0
45881097         HW_45881097      D13251           608.00     0.0170     583.75     583.70     0          0
45861102         HW_45861102      D13248           655.00     0.0170     583.65     583.60     0          0
45851104         HW_45851104      D13244           1068.00    0.0170     583.60     583.55     0          0
45771116         HW_45771116      D13202           340.00     0.0190     585.41     585.37     0          0
45761542         HW_45761542      D13204           338.00     0.0190     585.37     585.32     0          0
45791121         HW_45791121      D13225           326.00     0.0190     583.03     582.54     0          0
45803053         HW_45803053      D13235           471.00     0.0190     582.54     582.80     0          0
45821127         HW_45821127      D13243           468.00     0.0190     583.56     583.17     0          0
45391129         HW_45391129      C23158           440.00     0.0190     581.38     582.68     0          0
45401031         HW_45401031      C22938           502.00     0.0190     582.68     580.77     0          0
45413057         HW_45413057      C22937           530.00     0.0190     580.77     579.77     0          0
45431137         HW_45431137      C22919           334.00     0.0190     579.74     579.70     0          0
45441172         HW_45441172      C22921           442.00     0.0190     579.70     579.65     0          0
45641174         HW_45641174      C22923           622.00     0.0190     579.65     579.62     0          0
45651176         HW_45651176      C22925           596.00     0.0190     579.62     578.80     0          0
46377032         HW_46377032      C23104           324.00     0.0190     583.42     582.86     0          0
46367045         HW_46367045      C23077           320.00     0.0190     582.86     582.36     0          0
46353064         HW_46353064      C22807           340.00     0.0190     582.36     582.17     0          0
45561147         HW_45561147      C22826           291.00     0.0190     583.15     583.03     0          0
45571149         HW_45571149      C22828           286.00     0.0190     583.03     581.52     0          0
45513067         HW_45513067      C22830           630.00     0.0190     581.52     580.95     0          0
45531155         HW_45531155      C23051           320.00     0.0190     582.47     582.11     0          0
45541157         HW_45541157      C23024           314.00     0.0190     582.11     581.23     0          0
45551159         HW_45551159      C22830           346.00     0.0190     581.35     580.95     0          0
45581161         HW_45581161      C22870           816.00     0.0190     580.97     581.49     0          0
46407372         HW_46407372      C22870           562.00     0.0190     582.50     580.00     0          0
45621170         HW_45621170      C22919           620.00     0.0190     580.05     580.04     0          0
39513075         HW_39513075      C41361           488.00     0.0190     591.98     591.09     0          0
36244667         HW_36244667      OF_36Aly1E       200.00     0.0150     586.50     585.00     0          0
4589ReliefC2_1   D13691           C22830           4200.00    0.0150     583.80     580.85     0          0
4552ReliefC2_2   C22830           C22855           1650.00    0.0150     580.85     575.00     0          0
4872Relief_C3    19Adams          D40812           3450.00    0.0150     580.77     580.08     0          0
6469Relief_C1    N10              25Adams          1300.00    0.0150     581.82     581.56     0          0
4875Relief_C2    25Adams          19Adams          3950.00    0.0150     581.56     580.77     0          0
45701201         HW_45701201      C23172D          390.00     0.0190     571.55     570.84     0          0
53821202         HW_53821202      C23172E          400.00     0.0190     570.84     570.11     0          0
5735plant        plant_2          plant_2          500.00     0.0140     567.00     566.00     0          0
6301pond         wnode            wpond            100.00     0.0150     581.00     580.00     0          0
6438L2           N1               node1            1130.00    0.0150     568.22     565.00     0          0
6381pumplink     node1            wetwell          100.00     0.0150     565.00     564.90     0          0
3757PLANT_LINK   C22728A          PLANT            250.00     0.0190     568.22     568.00     0          0
3734300          HW_3734300       E30549A          200.00     0.0200     592.10     592.00     0          0
18in_a           18in_b           36in             50.00      0.0140     589.50     586.00     0          0
6456L12          N4               E31500A          100.00     0.0140     570.50     570.00     0          0
6463L13          N7               N10              1200.00    0.0150     584.38     583.82     0          0
3818L15          D30072           N5               33.00      0.0150     592.45     592.42     0          0
6458L17          N5               N7               1000.00    0.0150     585.97     585.18     0          0
3834L18          D30207           N5               33.00      0.0150     592.00     591.93     0          0
3826L19          D30261           N10              33.00      0.0150     590.07     590.06     0          0

[ORIFICES]
;;Name           From             To               Type       Offset     Qcoeff     Gated    CloseTime
;;-------------- ---------------- ---------------- ---------- ---------- ---------- -------- ----------
4443.1           C2DIVRSN1        chs_sg           SIDE       578.85     0.650      NO       0
4453.1           C32715           brg_sg           SIDE       580.79     0.650      NO       0
4472.1           C41517           2156             SIDE       579.00     0.650      NO       0
4486.1           RI               2170             SIDE       577.00     0.650      NO       0
4538.1           2148             pk_rg_nd         SIDE       584.70     0.650      NO       0
4688.1           prc_fg           C32694           SIDE       579.41     0.650      NO       0
4759Colfax_orf   C22925           C22926           SIDE       0          0.650      NO       0

[WEIRS]
;;Name           From             To               Type       CrestHt    Qcoeff     Gated    EndCon   EndCoeff   Surcharge
;;-------------- ---------------- ---------------- ---------- ---------- ---------- -------- -------- ---------- ----------
3523wr_Elkhart   C54614           388              TRANSVERSE 596.00     1.840      NO       0        0          YES
444.1            E30604A          E30603           TRANSVERSE 596.39     1.840      NO       0        0          YES
494.1            E30549A          292              TRANSVERSE 595.00     1.840      NO       0        0          YES
3733302          HW_3733302       298              TRANSVERSE 594.10     1.840      NO       0        0          YES
4126brg_wr       C32715           C3REGLTR2        TRANSVERSE 586.03     1.840      NO       0        0          YES
3773weir_1       C2DIVRSN1        w1_nd            TRANSVERSE 580.15     1.840      NO       0        0          YES
4445weir_2       w2_nd            w2_out           TRANSVERSE 587.85     1.840      NO       0        0          YES
4456prc_w1       prc_fg           C32695           TRANSVERSE 581.41     1.840      NO       0        0          YES
4428prc_w2       OUTFALL009       prc_weir         TRANSVERSE 585.60     1.840      NO       0        0          YES
4430polk_weir    OF008            pk_wr_nd         TRANSVERSE 587.36     1.840      NO       0        0          YES
3923a9_weir      C41517           2159             TRANSVERSE 582.70     1.840      NO       0        0          YES
3928a9_w2        C41522           2162             TRANSVERSE 590.60     1.840      NO       0        0          YES
3927RI_W2        C41521           2166             TRANSVERSE 590.60     1.840      NO       0        0          YES
378125_DIV       HW_378125_DIV    2206             TRANSVERSE 594.50     1.840      NO       0        0          YES
colf             C22925           C22927           TRANSVERSE 584.00     1.840      NO       0        0          YES
weir             C23172D          node1            V-NOTCH    573.50     1.840      NO       0        0          YES
84weir           HW_84weir        N1               TRANSVERSE 573.50     1.840      NO       0        0          YES
weir18           297              N3               TRANSVERSE 593.50     1.840      NO       0        0          YES

[PUMPS]
;;Name           From             To               PumpCurve  Status   Startup    Shutoff
;;-------------- ---------------- ---------------- ---------- -------- ---------- ----------
587.1            PS_Marquet       B64308           PC_587_1   ON       573.00     571.00    
A                B                397              PC_A       ON       574.00     569.50    
470.1            PS_35&Wash       E30601_LS        PC_470_1   ON       577.20     574.20    
CHASE27          PS_27Chase       D30795A          PC_CHASE27 ON       562.00     560.00    
plant_pump       PLANT            plant_2          PC_plant_pump ON       1.00       0         
wpump            wetwell          wnode            PC_wpump   ON       1.00       0         

[CURVES]
;;Name           Type       X-Value    Y-Value
;;-------------- ---------- ---------- ----------
;; Synthesized generic pump curves — replace with actual pump data
PC_587_1         Pump1      0          5
PC_587_1                    10         10
PC_A             Pump1      0          5
PC_A                        10         10
PC_470_1         Pump1      0          5
PC_470_1                    10         10
PC_CHASE27       Pump1      0          5
PC_CHASE27                  10         10
PC_plant_pump    Pump1      0          5
PC_plant_pump               10         10
PC_wpump         Pump1      0          5
PC_wpump                    10         10

[XSECTIONS]
;;Link           Shape        Geom1      Geom2      Geom3      Geom4      Barrels
;;-------------- ------------ ---------- ---------- ---------- ---------- ----------
3227403          CIRCULAR     3.00       0          0          0          1
34934            CIRCULAR     2.00       0          0          0          1
349414           CIRCULAR     2.00       0          0          0          1
349519           CIRCULAR     2.00       0          0          0          1
349623           CIRCULAR     2.00       0          0          0          1
349728           CIRCULAR     2.00       0          0          0          1
350144           CIRCULAR     2.50       0          0          0          1
350247           CIRCULAR     3.00       0          0          0          1
350350           CIRCULAR     3.00       0          0          0          1
350454           CIRCULAR     3.50       0          0          0          1
350555           CIRCULAR     4.00       0          0          0          1
350960           CIRCULAR     4.00       0          0          0          1
350777           CIRCULAR     2.50       0          0          0          1
350880           CIRCULAR     2.50       0          0          0          1
350684           CIRCULAR     4.50       0          0          0          1
351190           CIRCULAR     4.50       0          0          0          1
351496           CIRCULAR     2.50       0          0          0          1
351599           CIRCULAR     3.00       0          0          0          1
3512108          CIRCULAR     4.50       0          0          0          1
3516112          CIRCULAR     4.25       0          0          0          1
3518119          CIRCULAR     2.50       0          0          0          1
3519122          CIRCULAR     2.50       0          0          0          1
3517123          CIRCULAR     4.50       0          0          0          1
3521126          CIRCULAR     2.00       0          0          0          1
3520131          CIRCULAR     4.50       0          0          0          1
3522135          CIRCULAR     5.50       0          0          0          1
3523153          CIRCULAR     3.00       0          0          0          1
3524154          CIRCULAR     3.00       0          0          0          1
3527163          CIRCULAR     2.50       0          0          0          1
3529174          CIRCULAR     3.50       0          0          0          1
3531181          CIRCULAR     2.50       0          0          0          1
3532183          CIRCULAR     4.00       0          0          0          1
3533187          CIRCULAR     2.50       0          0          0          1
3530194          CIRCULAR     4.00       0          0          0          1
3569402          CIRCULAR     6.00       0          0          0          1
3528404          CIRCULAR     3.00       0          0          0          1
3513407          CIRCULAR     2.50       0          0          0          1
3526411          CIRCULAR     2.00       0          0          0          1
3498412          CIRCULAR     2.50       0          0          0          1
3500414          CIRCULAR     2.00       0          0          0          1
3499416          CIRCULAR     2.00       0          0          0          1
3573401          CIRCULAR     2.00       0          0          0          1
36401205         CIRCULAR     3.50       0          0          0          1
36411208         CIRCULAR     3.50       0          0          0          1
36391210         CIRCULAR     2.50       0          0          0          1
36421212         CIRCULAR     3.50       0          0          0          1
36371228         CIRCULAR     2.00       0          0          0          1
36481232         CIRCULAR     2.00       0          0          0          1
36331243         CIRCULAR     2.00       0          0          0          1
36571244         CIRCULAR     2.00       0          0          0          1
36581247         CIRCULAR     2.25       0          0          0          1
36321254         CIRCULAR     4.50       0          0          0          1
36311258         CIRCULAR     4.50       0          0          0          1
36301262         CIRCULAR     4.50       0          0          0          1
36341264         CIRCULAR     4.50       0          0          0          1
36351266         CIRCULAR     4.50       0          0          0          1
36361269         CIRCULAR     4.50       0          0          0          1
36381272         CIRCULAR     4.50       0          0          0          1
36051274         CIRCULAR     2.00       0          0          0          1
36431282         CIRCULAR     4.00       0          0          0          1
36441284         CIRCULAR     4.50       0          0          0          1
36471286         CIRCULAR     4.50       0          0          0          1
36461288         CIRCULAR     4.50       0          0          0          1
36561291         CIRCULAR     4.50       0          0          0          1
36451296         CIRCULAR     4.50       0          0          0          1
36491299         CIRCULAR     3.00       0          0          0          1
36541304         CIRCULAR     3.00       0          0          0          1
36501307         CIRCULAR     3.00       0          0          0          1
36511309         CIRCULAR     3.00       0          0          0          1
36521311         CIRCULAR     3.00       0          0          0          1
36531313         CIRCULAR     3.00       0          0          0          1
36221319         CIRCULAR     3.50       0          0          0          1
36211321         CIRCULAR     3.50       0          0          0          1
36201325         CIRCULAR     5.00       0          0          0          1
36191327         CIRCULAR     5.00       0          0          0          1
36181329         CIRCULAR     5.00       0          0          0          1
36171331         CIRCULAR     5.00       0          0          0          1
36161333         CIRCULAR     5.00       0          0          0          1
36131335         CIRCULAR     5.00       0          0          0          1
36591345         CIRCULAR     2.25       0          0          0          1
36151349         CIRCULAR     2.25       0          0          0          1
36141351         CIRCULAR     5.00       0          0          0          1
36011353         CIRCULAR     3.50       0          0          0          1
36001359         CIRCULAR     3.50       0          0          0          1
36041363         CIRCULAR     1.75       0          0          0          1
35991371         CIRCULAR     4.00       0          0          0          1
35981373         CIRCULAR     4.00       0          0          0          1
35971376         CIRCULAR     4.00       0          0          0          1
36031380         CIRCULAR     1.75       0          0          0          1
36021387         CIRCULAR     1.75       0          0          0          1
35961389         CIRCULAR     4.00       0          0          0          1
36101390         CIRCULAR     5.00       0          0          0          1
36121398         CIRCULAR     2.75       0          0          0          1
36111401         CIRCULAR     3.25       0          0          0          1
36091405         RECT_CLOSED  4.50       8.50       0          0          1
35911407         CIRCULAR     2.75       0          0          0          1
35921413         CIRCULAR     2.75       0          0          0          1
35931421         CIRCULAR     2.75       0          0          0          1
35941429         CIRCULAR     2.75       0          0          0          1
36071439         RECT_CLOSED  5.00       9.00       0          0          1
36061468         CIRCULAR     3.00       0          0          0          1
36231469         CIRCULAR     5.00       0          0          0          1
36241514         CIRCULAR     5.00       0          0          0          1
36251517         CIRCULAR     5.00       0          0          0          1
36261522         CIRCULAR     5.00       0          0          0          1
36291523         CIRCULAR     5.00       0          0          0          1
36271524         CIRCULAR     5.00       0          0          0          1
36281527         CIRCULAR     5.00       0          0          0          1
36081445         CIRCULAR     5.00       0          0          0          1
3729295          RECT_CLOSED  5.00       9.00       0          0          1
3816217          CIRCULAR     2.00       0          0          0          1
3817218          CIRCULAR     2.50       0          0          0          1
3842223          CIRCULAR     2.00       0          0          0          1
3841224          CIRCULAR     2.00       0          0          0          1
3818225          CIRCULAR     3.00       0          0          0          1
3819226          CIRCULAR     3.00       0          0          0          1
3820227          CIRCULAR     3.50       0          0          0          1
3824232          CIRCULAR     4.00       0          0          0          1
3823236          CIRCULAR     4.50       0          0          0          1
3834237          CIRCULAR     2.00       0          0          0          1
3833238          CIRCULAR     2.00       0          0          0          1
3832239          CIRCULAR     2.50       0          0          0          1
3831240          CIRCULAR     2.50       0          0          0          1
3830241          CIRCULAR     2.50       0          0          0          1
3829242          CIRCULAR     3.00       0          0          0          1
3828243          CIRCULAR     3.00       0          0          0          1
3827244          CIRCULAR     3.00       0          0          0          1
3826245          CIRCULAR     5.00       0          0          0          1
3835246          CIRCULAR     5.00       0          0          0          1
3836247          CIRCULAR     5.00       0          0          0          1
3837248          CIRCULAR     5.00       0          0          0          1
3838249          CIRCULAR     5.00       0          0          0          1
3839250          CIRCULAR     5.00       0          0          0          1
3745207          CIRCULAR     5.00       0          0          0          1
3746208          CIRCULAR     5.00       0          0          0          1
3747209          CIRCULAR     6.00       0          0          0          1
3749212          CIRCULAR     6.50       0          0          0          1
3799254          CIRCULAR     4.50       0          0          0          1
3800255          CIRCULAR     4.50       0          0          0          1
3801256          CIRCULAR     4.50       0          0          0          1
3804261          CIRCULAR     5.00       0          0          0          1
3805261A         CIRCULAR     5.00       0          0          0          1
3781263          CIRCULAR     5.00       0          0          0          1
3783264          CIRCULAR     5.00       0          0          0          1
4059274          CIRCULAR     3.00       0          0          0          1
3776275          CIRCULAR     3.75       0          0          0          1
3786290          CIRCULAR     5.50       0          0          0          1
3787291          CIRCULAR     5.50       0          0          0          1
3788292a         CIRCULAR     5.50       0          0          0          1
3809293a         CIRCULAR     2.00       0          0          0          1
3810294A         CIRCULAR     2.50       0          0          0          1
3811295a         CIRCULAR     3.00       0          0          0          1
3812296          CIRCULAR     3.50       0          0          0          1
3813297a         CIRCULAR     3.50       0          0          0          1
3814298a         CIRCULAR     4.00       0          0          0          1
3815299          CIRCULAR     4.00       0          0          0          1
3854309          CIRCULAR     3.00       0          0          0          1
4030310          CIRCULAR     3.00       0          0          0          1
4031311          CIRCULAR     3.00       0          0          0          1
4037319          CIRCULAR     2.00       0          0          0          1
4033329          CIRCULAR     5.00       0          0          0          1
4138330          CIRCULAR     5.50       0          0          0          1
3754345          CIRCULAR     6.00       0          0          0          1
3887350          CIRCULAR     6.17       0          0          0          1
3888351          CIRCULAR     7.00       0          0          0          1
3889352          CIRCULAR     7.00       0          0          0          1
3890353          CIRCULAR     7.00       0          0          0          1
3891354          CIRCULAR     7.00       0          0          0          1
3892355          CIRCULAR     7.00       0          0          0          1
3894356          CIRCULAR     2.25       0          0          0          1
3895357          CIRCULAR     2.50       0          0          0          1
3896358          CIRCULAR     3.00       0          0          0          1
3898360          CIRCULAR     3.50       0          0          0          1
3899361          CIRCULAR     3.50       0          0          0          1
3902369          CIRCULAR     3.75       0          0          0          1
3903370          CIRCULAR     3.75       0          0          0          1
3904371          CIRCULAR     3.75       0          0          0          1
3905372          CIRCULAR     4.00       0          0          0          1
3907388a         CIRCULAR     3.00       0          0          0          1
3909391          CIRCULAR     4.00       0          0          0          1
3910392          CIRCULAR     4.00       0          0          0          1
3913395          CIRCULAR     4.50       0          0          0          1
3914396          CIRCULAR     4.50       0          0          0          1
3906397a         CIRCULAR     5.00       0          0          0          1
3915398          CIRCULAR     6.00       0          0          0          1
3955406a         CIRCULAR     2.00       0          0          0          1
3936425          CIRCULAR     4.00       0          0          0          1
3932427          CIRCULAR     4.00       0          0          0          1
3933428          CIRCULAR     4.00       0          0          0          1
3935429          CIRCULAR     4.00       0          0          0          1
3934430          CIRCULAR     4.00       0          0          0          1
3931431          CIRCULAR     4.50       0          0          0          1
3930432          CIRCULAR     4.50       0          0          0          1
3937439          CIRCULAR     2.00       0          0          0          1
3938456          CIRCULAR     5.00       0          0          0          1
3942457          CIRCULAR     5.00       0          0          0          1
3943462          CIRCULAR     5.00       0          0          0          1
3944463          CIRCULAR     5.00       0          0          0          1
3947469          CIRCULAR     5.00       0          0          0          1
3948470          CIRCULAR     5.00       0          0          0          1
3918473          CIRCULAR     4.00       0          0          0          1
3917474          CIRCULAR     8.00       0          0          0          1
3922475          CIRCULAR     8.00       0          0          0          1
3921478          CIRCULAR     7.50       0          0          0          1
3919481          CIRCULAR     8.50       0          0          0          1
3905482          CIRCULAR     8.50       0          0          0          1
3915483          CIRCULAR     8.50       0          0          0          1
3958488          CIRCULAR     6.00       0          0          0          1
3960491          CIRCULAR     6.00       0          0          0          1
3961492          CIRCULAR     6.00       0          0          0          1
3952514          CIRCULAR     2.25       0          0          0          1
3953515          CIRCULAR     2.25       0          0          0          1
3964543          CIRCULAR     5.50       0          0          0          1
3965544          CIRCULAR     5.50       0          0          0          1
3966545          CIRCULAR     5.50       0          0          0          1
3968548          CIRCULAR     6.00       0          0          0          1
3969549          CIRCULAR     6.00       0          0          0          1
3970550          CIRCULAR     6.00       0          0          0          1
3971551          CIRCULAR     6.00       0          0          0          1
3976563          CIRCULAR     2.00       0          0          0          1
3975564          CIRCULAR     2.00       0          0          0          1
3978569          CIRCULAR     3.50       0          0          0          1
3979570          CIRCULAR     4.00       0          0          0          1
3980574          CIRCULAR     4.50       0          0          0          1
3981575          CIRCULAR     5.00       0          0          0          1
3973580          CIRCULAR     5.50       0          0          0          1
3982581          CIRCULAR     5.50       0          0          0          1
3983582          CIRCULAR     5.50       0          0          0          1
3984585          CIRCULAR     5.50       0          0          0          1
3986586          CIRCULAR     2.25       0          0          0          1
3992591          CIRCULAR     3.00       0          0          0          1
3987596          CIRCULAR     2.00       0          0          0          1
4042599          CIRCULAR     2.00       0          0          0          1
4040604          CIRCULAR     4.50       0          0          0          1
4044607          CIRCULAR     4.50       0          0          0          1
4024610          CIRCULAR     1.75       0          0          0          1
4026613          CIRCULAR     2.25       0          0          0          1
4027614          CIRCULAR     2.25       0          0          0          1
4029618          CIRCULAR     3.00       0          0          0          1
4052632          CIRCULAR     4.00       0          0          0          1
4050636          CIRCULAR     4.50       0          0          0          1
3808643          CIRCULAR     3.00       0          0          0          1
3843644          CIRCULAR     3.50       0          0          0          1
3844645          CIRCULAR     3.50       0          0          0          1
3846649          CIRCULAR     4.00       0          0          0          1
3847650          CIRCULAR     4.50       0          0          0          1
3849651          CIRCULAR     2.00       0          0          0          1
3850652          CIRCULAR     2.00       0          0          0          1
3848658          CIRCULAR     5.00       0          0          0          1
4020671          CIRCULAR     5.00       0          0          0          1
4022674          CIRCULAR     6.00       0          0          0          1
4039680          CIRCULAR     8.00       0          0          0          1
4046681          CIRCULAR     8.00       0          0          0          1
4048682          CIRCULAR     8.00       0          0          0          1
3985687          CIRCULAR     9.00       0          0          0          1
3855699          CIRCULAR     2.50       0          0          0          1
3856700          CIRCULAR     2.50       0          0          0          1
3859704          CIRCULAR     3.00       0          0          0          1
3865727          CIRCULAR     2.50       0          0          0          1
3866728          CIRCULAR     2.50       0          0          0          1
3867729          CIRCULAR     2.50       0          0          0          1
4113750          CIRCULAR     4.50       0          0          0          1
4114751          CIRCULAR     4.50       0          0          0          1
4115752          CIRCULAR     4.50       0          0          0          1
4117756          CIRCULAR     5.00       0          0          0          1
4118761          CIRCULAR     5.00       0          0          0          1
4119762          CIRCULAR     5.00       0          0          0          1
4112783          CIRCULAR     4.00       0          0          0          1
4111788          CIRCULAR     4.00       0          0          0          1
3861789          CIRCULAR     2.50       0          0          0          1
3881797          CIRCULAR     5.00       0          0          0          1
3880798          CIRCULAR     5.00       0          0          0          1
3879799          CIRCULAR     5.00       0          0          0          1
3862810          CIRCULAR     3.00       0          0          0          1
3873811          CIRCULAR     3.00       0          0          0          1
3872812          CIRCULAR     3.50       0          0          0          1
3871813          CIRCULAR     3.50       0          0          0          1
3870814          CIRCULAR     4.00       0          0          0          1
3869815          CIRCULAR     4.00       0          0          0          1
3885818          CIRCULAR     2.00       0          0          0          1
3884819          CIRCULAR     2.50       0          0          0          1
3883820          CIRCULAR     2.50       0          0          0          1
3882821          CIRCULAR     2.50       0          0          0          1
4081829          CIRCULAR     2.50       0          0          0          1
4082830          CIRCULAR     2.50       0          0          0          1
4084833          CIRCULAR     2.50       0          0          0          1
4085834          CIRCULAR     2.50       0          0          0          1
4071870          CIRCULAR     4.50       0          0          0          1
4072871          CIRCULAR     4.50       0          0          0          1
4073872          CIRCULAR     4.50       0          0          0          1
4074888          CIRCULAR     3.75       0          0          0          1
4068904          CIRCULAR     3.75       0          0          0          1
4092913          CIRCULAR     4.00       0          0          0          1
4093914          CIRCULAR     4.50       0          0          0          1
4094915          CIRCULAR     4.50       0          0          0          1
4095916          CIRCULAR     4.50       0          0          0          1
4062923          CIRCULAR     3.00       0          0          0          1
4063924          CIRCULAR     3.50       0          0          0          1
4096930          CIRCULAR     9.00       0          0          0          1
3764942          CIRCULAR     4.00       0          0          0          1
3765943          CIRCULAR     4.00       0          0          0          1
3766944          CIRCULAR     4.00       0          0          0          1
3767945          CIRCULAR     4.00       0          0          0          1
3768946          CIRCULAR     4.00       0          0          0          1
3770949          CIRCULAR     11.00      0          0          0          1
3771950          CIRCULAR     11.00      0          0          0          1
3761951          CIRCULAR     7.00       0          0          0          1
4124971          CIRCULAR     5.50       0          0          0          1
4123972          CIRCULAR     5.50       0          0          0          1
4120973          CIRCULAR     6.00       0          0          0          1
4121974          CIRCULAR     6.00       0          0          0          1
4122975          CIRCULAR     6.00       0          0          0          1
4097976          CIRCULAR     4.00       0          0          0          1
4110977          CIRCULAR     6.00       0          0          0          1
4106991          CIRCULAR     6.00       0          0          0          1
4105992          CIRCULAR     6.00       0          0          0          1
4104993          CIRCULAR     6.00       0          0          0          1
41001007         CIRCULAR     6.00       0          0          0          1
39951010         CIRCULAR     2.75       0          0          0          1
39991015         CIRCULAR     2.00       0          0          0          1
39981016         CIRCULAR     2.25       0          0          0          1
40021023         CIRCULAR     3.75       0          0          0          1
40031024         CIRCULAR     3.75       0          0          0          1
40041025         CIRCULAR     3.75       0          0          0          1
40051026         CIRCULAR     3.75       0          0          0          1
40061027         CIRCULAR     4.00       0          0          0          1
41281056         CIRCULAR     7.00       0          0          0          1
37631060         CIRCULAR     7.00       0          0          0          1
37621061         CIRCULAR     7.00       0          0          0          1
37941475         CIRCULAR     2.00       0          0          0          1
37961483         CIRCULAR     3.00       0          0          0          1
39241499         CIRCULAR     11.00      0          0          0          1
39261500         CIRCULAR     11.00      0          0          0          1
39251503         CIRCULAR     8.00       0          0          0          1
41379900         CIRCULAR     2.00       0          0          0          1
41369901         CIRCULAR     2.00       0          0          0          1
41359902         CIRCULAR     2.00       0          0          0          1
41349903         CIRCULAR     2.00       0          0          0          1
41339904         CIRCULAR     2.00       0          0          0          1
37729905         CIRCULAR     11.00      0          0          0          1
3802257          CIRCULAR     4.50       0          0          0          1
3911393          CIRCULAR     4.50       0          0          0          1
3912394          CIRCULAR     4.50       0          0          0          1
3990594          CIRCULAR     3.50       0          0          0          1
3989595          CIRCULAR     4.00       0          0          0          1
3858703          CIRCULAR     2.50       0          0          0          1
3864822A         CIRCULAR     4.00       0          0          0          1
3840251          CIRCULAR     5.00       0          0          0          1
4376253          CIRCULAR     4.50       0          0          0          1
4380D114         CIRCULAR     2.50       0          0          0          1
4381D115         CIRCULAR     4.00       0          0          0          1
4382D116         CIRCULAR     4.00       0          0          0          1
4383D117         CIRCULAR     4.50       0          0          0          1
4384D118         CIRCULAR     4.50       0          0          0          1
4385D119         CIRCULAR     5.00       0          0          0          1
4386D120         CIRCULAR     5.00       0          0          0          1
4387D121         CIRCULAR     5.00       0          0          0          1
4379D122         CIRCULAR     5.50       0          0          0          1
4392D123         CIRCULAR     2.50       0          0          0          1
4390D124         CIRCULAR     2.00       0          0          0          1
4389D125         CIRCULAR     2.50       0          0          0          1
4391D126         CIRCULAR     3.00       0          0          0          1
4406D103         CIRCULAR     4.50       0          0          0          1
4407D106         CIRCULAR     2.50       0          0          0          1
4408D107         CIRCULAR     2.50       0          0          0          1
4412D108         CIRCULAR     2.50       0          0          0          1
4414D109         CIRCULAR     2.50       0          0          0          1
4409D110         CIRCULAR     2.00       0          0          0          1
4410D111         CIRCULAR     2.50       0          0          0          1
4413D113         CIRCULAR     2.50       0          0          0          1
4411D112         CIRCULAR     2.50       0          0          0          1
43885x8          RECT_CLOSED  5.00       8.00       0          0          1
4130OUTLINK009   RECT_CLOSED  15.00      30.00      0          0          1
3918RI           CIRCULAR     9.00       0          0          0          1
4431RI           CIRCULAR     11.00      0          0          0          1
3949471          CIRCULAR     5.00       0          0          0          1
3825234          CIRCULAR     2.00       0          0          0          1
37541497         CIRCULAR     7.50       0          0          0          1
3929433          CIRCULAR     4.50       0          0          0          1
41021008         CIRCULAR     6.00       0          0          0          1
3803258          CIRCULAR     5.00       0          0          0          1
444148"chase     CIRCULAR     4.00       0          0          0          1
4440ch_out       CIRCULAR     11.00      0          0          0          1
4446Chase_ovf    CIRCULAR     20.00      32.00      0          0          1
4127Bridge_ovf   CIRCULAR     7.50       0          0          0          1
3967546          CIRCULAR     6.00       0          0          0          1
4458Prc_ovf      RECT_CLOSED  20.00      30.00      0          0          1
4131504          CIRCULAR     6.00       0          0          0          1
4463503          CIRCULAR     6.00       0          0          0          1
4466polk_div     CIRCULAR     6.50       0          0          0          1
4464Polk_ovf     RECT_CLOSED  10.00      20.00      0          0          1
4471487          CIRCULAR     6.00       0          0          0          1
44741502         CIRCULAR     8.00       0          0          0          1
4477A9_ovf       RECT_CLOSED  10.00      40.00      0          0          1
4481RI_ovf       RECT_CLOSED  10.00      40.00      0          0          1
3769947          CIRCULAR     4.00       0          0          0          1
3821228          CIRCULAR     3.50       0          0          0          1
3822230          CIRCULAR     4.00       0          0          0          1
378025&Geo_ovf   CIRCULAR     7.00       0          0          0          1
3775268          CIRCULAR     2.75       0          0          0          1
4060271          CIRCULAR     3.00       0          0          0          1
3777276          CIRCULAR     3.75       0          0          0          1
3778278          CIRCULAR     3.75       0          0          0          1
3779280          CIRCULAR     3.75       0          0          0          1
3782282          CIRCULAR     5.00       0          0          0          1
37981476         CIRCULAR     2.00       0          0          0          1
37971479         CIRCULAR     3.00       0          0          0          1
37951484         CIRCULAR     3.25       0          0          0          1
37931487         CIRCULAR     3.25       0          0          0          1
37921489         CIRCULAR     3.25       0          0          0          1
37911491         CIRCULAR     3.25       0          0          0          1
3784285          CIRCULAR     5.50       0          0          0          1
3789300a         CIRCULAR     5.50       0          0          0          1
3753307          CIRCULAR     5.50       0          0          0          1
3743201          CIRCULAR     3.50       0          0          0          1
3941440          CIRCULAR     3.75       0          0          0          1
3940446          CIRCULAR     5.00       0          0          0          1
3939451          CIRCULAR     5.00       0          0          0          1
3868730          CIRCULAR     2.50       0          0          0          1
3785286          CIRCULAR     5.50       0          0          0          1
3877839A         CIRCULAR     8.00       0          0          0          1
45131470         CIRCULAR     7.00       0          0          0          1
3974565          CIRCULAR     1.25       0          0          0          1
4076842          CIRCULAR     2.00       0          0          0          1
4077844          CIRCULAR     2.00       0          0          0          1
4078848          CIRCULAR     2.25       0          0          0          1
4079850          CIRCULAR     2.25       0          0          0          1
4080853          CIRCULAR     2.25       0          0          0          1
4083831          CIRCULAR     2.50       0          0          0          1
3876828          CIRCULAR     2.50       0          0          0          1
4086835          CIRCULAR     3.00       0          0          0          1
3875837          CIRCULAR     6.00       0          0          0          1
3878753          CIRCULAR     5.00       0          0          0          1
41011003         CIRCULAR     2.00       0          0          0          1
4098937          CIRCULAR     11.00      0          0          0          1
39971017         CIRCULAR     2.25       0          0          0          1
3851654          CIRCULAR     3.00       0          0          0          1
40342231         CIRCULAR     2.25       0          0          0          1
3756341          CIRCULAR     6.00       0          0          0          1
3954516          CIRCULAR     3.75       0          0          0          1
39462237         CIRCULAR     5.00       0          0          0          1
37902240         CIRCULAR     3.25       0          0          0          1
41322242         CIRCULAR     6.00       0          0          0          1
4485RI_LINK3     CIRCULAR     5.00       0          0          0          1
46011071         CIRCULAR     2.25       0          0          0          1
45981079         CIRCULAR     2.00       0          0          0          1
45971080         CIRCULAR     2.50       0          0          0          1
45951083         CIRCULAR     3.00       0          0          0          1
45941084         CIRCULAR     3.00       0          0          0          1
45931085         CIRCULAR     4.00       0          0          0          1
45921086         CIRCULAR     4.00       0          0          0          1
45901095         CIRCULAR     4.00       0          0          0          1
45891096         CIRCULAR     4.50       0          0          0          1
45871099         CIRCULAR     5.00       0          0          0          1
45741111         CIRCULAR     5.00       0          0          0          1
45751119         CIRCULAR     5.00       0          0          0          1
45781120         CIRCULAR     5.00       0          0          0          1
45811125         CIRCULAR     5.50       0          0          0          1
45831128         CIRCULAR     7.00       0          0          0          1
45421136         CIRCULAR     7.00       0          0          0          1
45451140         CIRCULAR     2.00       0          0          0          1
45631141         CIRCULAR     2.50       0          0          0          1
45461142         CIRCULAR     2.50       0          0          0          1
45471143         CIRCULAR     2.50       0          0          0          1
45481144         CIRCULAR     3.00       0          0          0          1
45491145         CIRCULAR     3.50       0          0          0          1
45501146         CIRCULAR     3.50       0          0          0          1
45521160         CIRCULAR     4.00       0          0          0          1
45591167         CIRCULAR     4.50       0          0          0          1
45601168         CIRCULAR     5.00       0          0          0          1
45611169         CIRCULAR     5.00       0          0          0          1
45671195         CIRCULAR     3.50       0          0          0          1
45691200         CIRCULAR     3.50       0          0          0          1
45721203         CIRCULAR     3.50       0          0          0          1
45841106         CIRCULAR     6.00       0          0          0          1
46387019         CIRCULAR     2.00       0          0          0          1
46417135         CIRCULAR     2.00       0          0          0          1
4573PLT_LNK2     CIRCULAR     3.50       0          0          0          1
3900362          CIRCULAR     2.75       0          0          0          1
3901367          CIRCULAR     3.25       0          0          0          1
3950460          CIRCULAR     2.00       0          0          0          1
3945464          CIRCULAR     5.00       0          0          0          1
3806637          CIRCULAR     2.00       0          0          0          1
4061639          CIRCULAR     2.00       0          0          0          1
38073190         CIRCULAR     3.00       0          0          0          1
3845646          CIRCULAR     4.00       0          0          0          1
3852659          CIRCULAR     5.00       0          0          0          1
4032313          CIRCULAR     5.00       0          0          0          1
4036320          CIRCULAR     2.25       0          0          0          1
4035322          CIRCULAR     2.25       0          0          0          1
3857701          CIRCULAR     2.50       0          0          0          1
3860790          CIRCULAR     4.50       0          0          0          1
3863794          CIRCULAR     5.00       0          0          0          1
38743199         CIRCULAR     4.50       0          0          0          1
4070868          CIRCULAR     4.50       0          0          0          1
4075856          CIRCULAR     2.25       0          0          0          1
4064882          CIRCULAR     2.75       0          0          0          1
4066884          CIRCULAR     2.75       0          0          0          1
4067886          CIRCULAR     2.75       0          0          0          1
4069897          CIRCULAR     2.00       0          0          0          1
4088907          CIRCULAR     3.75       0          0          0          1
4089909          CIRCULAR     4.00       0          0          0          1
4090911          CIRCULAR     4.00       0          0          0          1
4091926          CIRCULAR     4.00       0          0          0          1
4109978          CIRCULAR     6.00       0          0          0          1
3962493          CIRCULAR     6.00       0          0          0          1
45661187         CIRCULAR     3.50       0          0          0          1
4097931          CIRCULAR     10.00      0          0          0          1
4099934          CIRCULAR     11.00      0          0          0          1
3886346          CIRCULAR     6.00       0          0          0          1
45681198         CIRCULAR     3.50       0          0          0          1
37582144         CIRCULAR     7.00       0          0          0          1
37602145         CIRCULAR     2.00       0          0          0          1
44512146         CIRCULAR     7.00       0          0          0          1
4125961          CIRCULAR     6.00       0          0          0          1
4129955          CIRCULAR     6.00       0          0          0          1
3988688          CIRCULAR     9.00       0          0          0          1
3972553          CIRCULAR     6.50       0          0          0          1
39592152         CIRCULAR     6.00       0          0          0          1
3920479          CIRCULAR     7.50       0          0          0          1
37522154         CIRCULAR     7.50       0          0          0          1
37592155         CIRCULAR     2.00       0          0          0          1
40101036         CIRCULAR     6.50       0          0          0          1
40121038         CIRCULAR     6.50       0          0          0          1
40131054         CIRCULAR     7.00       0          0          0          1
40181040         CIRCULAR     2.25       0          0          0          1
40191042         CIRCULAR     2.25       0          0          0          1
40141046         CIRCULAR     2.00       0          0          0          1
40151048         CIRCULAR     2.50       0          0          0          1
40161050         CIRCULAR     2.50       0          0          0          1
40171052         CIRCULAR     2.50       0          0          0          1
40001012         CIRCULAR     2.00       0          0          0          1
39961011         CIRCULAR     3.25       0          0          0          1
40011021         CIRCULAR     3.25       0          0          0          1
40111034         CIRCULAR     2.00       0          0          0          1
40071028         CIRCULAR     4.00       0          0          0          1
40081030         CIRCULAR     4.00       0          0          0          1
40091032         CIRCULAR     4.00       0          0          0          1
4108988          CIRCULAR     6.00       0          0          0          1
4107994          CIRCULAR     6.00       0          0          0          1
41032174         CIRCULAR     6.00       0          0          0          1
4065880          CIRCULAR     2.00       0          0          0          1
4087905          CIRCULAR     3.75       0          0          0          1
41162177         CIRCULAR     5.00       0          0          0          1
4028616          CIRCULAR     3.00       0          0          0          1
3853661          CIRCULAR     5.00       0          0          0          1
4025611          CIRCULAR     1.75       0          0          0          1
4021672          CIRCULAR     6.00       0          0          0          1
4023675          CIRCULAR     6.00       0          0          0          1
4038677          CIRCULAR     7.00       0          0          0          1
4041602          CIRCULAR     3.00       0          0          0          1
4043605          CIRCULAR     4.50       0          0          0          1
4045608          CIRCULAR     4.50       0          0          0          1
4047683          CIRCULAR     8.00       0          0          0          1
4058619          CIRCULAR     2.00       0          0          0          1
4057620          CIRCULAR     2.50       0          0          0          1
4056622          CIRCULAR     2.75       0          0          0          1
4055625          CIRCULAR     3.00       0          0          0          1
4054628          CIRCULAR     3.50       0          0          0          1
4053630          CIRCULAR     4.00       0          0          0          1
4051633          CIRCULAR     4.50       0          0          0          1
3994587          CIRCULAR     2.00       0          0          0          1
3993589          CIRCULAR     2.50       0          0          0          1
39912197         CIRCULAR     3.50       0          0          0          1
40492198         CIRCULAR     9.00       0          0          0          1
39772199         CIRCULAR     2.50       0          0          0          1
3744204          CIRCULAR     4.00       0          0          0          1
3748210          CIRCULAR     6.00       0          0          0          1
3750213          CIRCULAR     6.50       0          0          0          1
3751215          CIRCULAR     6.50       0          0          0          1
3755339          CIRCULAR     5.50       0          0          0          1
3897359          CIRCULAR     3.50       0          0          0          1
3893373          CIRCULAR     7.00       0          0          0          1
3906399          CIRCULAR     7.00       0          0          0          1
3908389A         CIRCULAR     3.50       0          0          0          1
3957377          CIRCULAR     2.00       0          0          0          1
3956383          CIRCULAR     2.00       0          0          0          1
41002212         CIRCULAR     3.75       0          0          0          1
39632213         CIRCULAR     4.00       0          0          0          1
4760Colfax_ovf   CIRCULAR     8.00       0          0          0          1
47611179         CIRCULAR     3.50       0          0          0          1
45991074         CIRCULAR     2.50       0          0          0          1
46001072         CIRCULAR     2.50       0          0          0          1
45961081         CIRCULAR     2.50       0          0          0          1
45911087         CIRCULAR     4.00       0          0          0          1
45881097         CIRCULAR     4.50       0          0          0          1
45861102         CIRCULAR     5.00       0          0          0          1
45851104         CIRCULAR     6.00       0          0          0          1
45771116         CIRCULAR     2.50       0          0          0          1
45761542         CIRCULAR     2.50       0          0          0          1
45791121         CIRCULAR     5.50       0          0          0          1
45803053         CIRCULAR     5.50       0          0          0          1
45821127         CIRCULAR     6.00       0          0          0          1
45391129         CIRCULAR     7.00       0          0          0          1
45401031         CIRCULAR     7.00       0          0          0          1
45413057         CIRCULAR     7.00       0          0          0          1
45431137         CIRCULAR     7.00       0          0          0          1
45441172         CIRCULAR     8.00       0          0          0          1
45641174         CIRCULAR     8.00       0          0          0          1
45651176         CIRCULAR     8.00       0          0          0          1
46377032         CIRCULAR     2.00       0          0          0          1
46367045         CIRCULAR     2.00       0          0          0          1
46353064         CIRCULAR     2.50       0          0          0          1
45561147         CIRCULAR     2.00       0          0          0          1
45571149         CIRCULAR     2.00       0          0          0          1
45513067         CIRCULAR     4.00       0          0          0          1
45531155         CIRCULAR     2.00       0          0          0          1
45541157         CIRCULAR     2.00       0          0          0          1
45551159         CIRCULAR     2.50       0          0          0          1
45581161         CIRCULAR     4.50       0          0          0          1
46407372         CIRCULAR     2.00       0          0          0          1
45621170         CIRCULAR     5.00       0          0          0          1
39513075         CIRCULAR     2.25       0          0          0          1
36244667         RECT_CLOSED  2.00       6.00       0          0          1
4589ReliefC2_1   CIRCULAR     4.00       0          0          0          1
4552ReliefC2_2   CIRCULAR     4.00       0          0          0          1
4872Relief_C3    CIRCULAR     5.50       0          0          0          1
6469Relief_C1    CIRCULAR     5.50       0          0          0          1
4875Relief_C2    CIRCULAR     5.50       0          0          0          1
45701201         CIRCULAR     3.50       0          0          0          1
53821202         CIRCULAR     3.50       0          0          0          1
5735plant        CIRCULAR     7.00       0          0          0          1
6301pond         CIRCULAR     9.00       0          0          0          1
6438L2           CIRCULAR     7.00       0          0          0          1
6381pumplink     CIRCULAR     7.00       0          0          0          1
3757PLANT_LINK   CIRCULAR     7.00       0          0          0          1
3734300          RECT_CLOSED  5.00       9.00       0          0          1
18in_a           CIRCULAR     3.00       0          0          0          1
6456L12          CIRCULAR     3.00       0          0          0          1
6463L13          CIRCULAR     3.00       0          0          0          1
3818L15          CIRCULAR     1.00       0          0          0          1
6458L17          CIRCULAR     2.00       0          0          0          1
3834L18          CIRCULAR     1.00       0          0          0          1
3826L19          CIRCULAR     5.00       0          0          0          1
4443.1           RECT_CLOSED  4.00       4.00       0          0
4453.1           RECT_CLOSED  2.00       2.00       0          0
4472.1           RECT_CLOSED  2.50       2.50       0          0
4486.1           RECT_CLOSED  4.00       4.00       0          0
4538.1           RECT_CLOSED  1.00       1.00       0          0
4688.1           RECT_CLOSED  2.00       2.00       0          0
4759Colfax_orf   RECT_CLOSED  2.00       2.00       0          0
3523wr_Elkhart   RECT_OPEN    1.00       6.00       0          0
444.1            RECT_OPEN    1.00       5.00       0          0
494.1            RECT_OPEN    1.00       9.00       0          0
3733302          RECT_OPEN    1.00       9.00       0          0
4126brg_wr       RECT_OPEN    1.00       12.00      0          0
3773weir_1       RECT_OPEN    1.00       14.00      0          0
4445weir_2       RECT_OPEN    1.00       32.00      0          0
4456prc_w1       RECT_OPEN    1.00       30.00      0          0
4428prc_w2       RECT_OPEN    1.00       30.00      0          0
4430polk_weir    RECT_OPEN    1.00       12.00      0          0
3923a9_weir      RECT_OPEN    1.00       20.00      0          0
3928a9_w2        RECT_OPEN    1.00       20.00      0          0
3927RI_W2        RECT_OPEN    1.00       40.00      0          0
378125_DIV       RECT_OPEN    1.00       12.00      0          0
colf             RECT_OPEN    1.00       12.00      0          0
weir             TRIANGULAR   1.00       8.00       0          0
84weir           RECT_OPEN    1.00       8.00       0          0
weir18           RECT_OPEN    1.00       15.00      0          0

[LOSSES]
;;Link           Inlet      Outlet     Average    Flap Gate
;;-------------- ---------- ---------- ---------- ----------
3227403          0          0          0          NO
34934            0          0          0          NO
349414           0          0          0          NO
349519           0          0          0          NO
349623           0          0          0          NO
349728           0          0          0          NO
350144           0          0          0          NO
350247           0          0          0          NO
350350           0          0          0          NO
350454           0          0          0          NO
350555           0          0          0          NO
350960           0          0          0          NO
350777           0          0          0          NO
350880           0          0          0          NO
350684           0          0          0          NO
351190           0          0          0          NO
351496           0          0          0          NO
351599           0          0          0          NO
3512108          0          0          0          NO
3516112          0          0          0          NO
3518119          0          0          0          NO
3519122          0          0          0          NO
3517123          0          0          0          NO
3521126          0          0          0          NO
3520131          0          0          0          NO
3522135          0          0          0          NO
3523153          0          0          0          NO
3524154          0          0          0          NO
3527163          0          0          0          NO
3529174          0          0          0          NO
3531181          0          0          0          NO
3532183          0          0          0          NO
3533187          0          0          0          NO
3530194          0          0          0          NO
3569402          0          0          0          NO
3528404          0          0          0          NO
3513407          0          0          0          NO
3526411          0          0          0          NO
3498412          0          0          0          NO
3500414          0          0          0          NO
3499416          0          0          0          NO
3573401          0          0          0          NO
36401205         0          0          0          NO
36411208         0          0          0          NO
36391210         0          0          0          NO
36421212         0          0          0          NO
36371228         0          0          0          NO
36481232         0          0          0          NO
36331243         0          0          0          NO
36571244         0          0          0          NO
36581247         0          0          0          NO
36321254         0          0          0          NO
36311258         0          0          0          NO
36301262         0          0          0          NO
36341264         0          0          0          NO
36351266         0          0          0          NO
36361269         0          0          0          NO
36381272         0          0          0          NO
36051274         0          0          0          NO
36431282         0          0          0          NO
36441284         0          0          0          NO
36471286         0          0          0          NO
36461288         0          0          0          NO
36561291         0          0          0          NO
36451296         0          0          0          NO
36491299         0          0          0          NO
36541304         0          0          0          NO
36501307         0          0          0          NO
36511309         0          0          0          NO
36521311         0          0          0          NO
36531313         0          0          0          NO
36221319         0          0          0          NO
36211321         0          0          0          NO
36201325         0          0          0          NO
36191327         0          0          0          NO
36181329         0          0          0          NO
36171331         0          0          0          NO
36161333         0          0          0          NO
36131335         0          0          0          NO
36591345         0          0          0          NO
36151349         0          0          0          NO
36141351         0          0          0          NO
36011353         0          0          0          NO
36001359         0          0          0          NO
36041363         0          0          0          NO
35991371         0          0          0          NO
35981373         0          0          0          NO
35971376         0          0          0          NO
36031380         0          0          0          NO
36021387         0          0          0          NO
35961389         0          0          0          NO
36101390         0          0          0          NO
36121398         0          0          0          NO
36111401         0          0          0          NO
36091405         0          0          0          NO
35911407         0          0          0          NO
35921413         0          0          0          NO
35931421         0          0          0          NO
35941429         0          0          0          NO
36071439         0          0          0          NO
36061468         0          0          0          NO
36231469         0          0          0          NO
36241514         0          0          0          NO
36251517         0          0          0          NO
36261522         0          0          0          NO
36291523         0          0          0          NO
36271524         0          0          0          NO
36281527         0          0          0          NO
36081445         0          0          0          NO
3729295          0          0          0          NO
3816217          0          0          0          NO
3817218          0          0          0          NO
3842223          0          0          0          NO
3841224          0          0          0          NO
3818225          0          0          0          NO
3819226          0          0          0          NO
3820227          0          0          0          NO
3824232          0          0          0          NO
3823236          0          0          0          NO
3834237          0          0          0          NO
3833238          0          0          0          NO
3832239          0          0          0          NO
3831240          0          0          0          NO
3830241          0          0          0          NO
3829242          0          0          0          NO
3828243          0          0          0          NO
3827244          0          0          0          NO
3826245          0          0          0          NO
3835246          0          0          0          NO
3836247          0          0          0          NO
3837248          0          0          0          NO
3838249          0          0          0          NO
3839250          0          0          0          NO
3745207          0          0          0          NO
3746208          0          0          0          NO
3747209          0          0          0          NO
3749212          0          0          0          NO
3799254          0          0          0          NO
3800255          0          0          0          NO
3801256          0          0          0          NO
3804261          0          0          0          NO
3805261A         0          0          0          NO
3781263          0          0          0          NO
3783264          0          0          0          NO
4059274          0          0          0          NO
3776275          0          0          0          NO
3786290          0          0          0          NO
3787291          0          0          0          NO
3788292a         0          0          0          NO
3809293a         0          0          0          NO
3810294A         0          0          0          NO
3811295a         0          0          0          NO
3812296          0          0          0          NO
3813297a         0          0          0          NO
3814298a         0          0          0          NO
3815299          0          0          0          NO
3854309          0          0          0          NO
4030310          0          0          0          NO
4031311          0          0          0          NO
4037319          0          0          0          NO
4033329          0          0          0          NO
4138330          0          0          0          NO
3754345          0          0          0          NO
3887350          0          0          0          NO
3888351          0          0          0          NO
3889352          0          0          0          NO
3890353          0          0          0          NO
3891354          0          0          0          NO
3892355          0          0          0          NO
3894356          0          0          0          NO
3895357          0          0          0          NO
3896358          0          0          0          NO
3898360          0          0          0          NO
3899361          0          0          0          NO
3902369          0          0          0          NO
3903370          0          0          0          NO
3904371          0          0          0          NO
3905372          0          0          0          NO
3907388a         0          0          0          NO
3909391          0          0          0          NO
3910392          0          0          0          NO
3913395          0          0          0          NO
3914396          0          0          0          NO
3906397a         0          0          0          NO
3915398          0          0          0          NO
3955406a         0          0          0          NO
3936425          0          0          0          NO
3932427          0          0          0          NO
3933428          0          0          0          NO
3935429          0          0          0          NO
3934430          0          0          0          NO
3931431          0          0          0          NO
3930432          0          0          0          NO
3937439          0          0          0          NO
3938456          0          0          0          NO
3942457          0          0          0          NO
3943462          0          0          0          NO
3944463          0          0          0          NO
3947469          0          0          0          NO
3948470          0          0          0          NO
3918473          0          0          0          NO
3917474          0          0          0          NO
3922475          0          0          0          NO
3921478          0          0          0          NO
3919481          0          0          0          NO
3905482          0          0          0          NO
3915483          0          0          0          NO
3958488          0          0          0          NO
3960491          0          0          0          NO
3961492          0          0          0          NO
3952514          0          0          0          NO
3953515          0          0          0          NO
3964543          0          0          0          NO
3965544          0          0          0          NO
3966545          0          0          0          NO
3968548          0          0          0          NO
3969549          0          0          0          NO
3970550          0          0          0          NO
3971551          0          0          0          NO
3976563          0          0          0          NO
3975564          0          0          0          NO
3978569          0          0          0          NO
3979570          0          0          0          NO
3980574          0          0          0          NO
3981575          0          0          0          NO
3973580          0          0          0          NO
3982581          0          0          0          NO
3983582          0          0          0          NO
3984585          0          0          0          NO
3986586          0          0          0          NO
3992591          0          0          0          NO
3987596          0          0          0          NO
4042599          0          0          0          NO
4040604          0          0          0          NO
4044607          0          0          0          NO
4024610          0          0          0          NO
4026613          0          0          0          NO
4027614          0          0          0          NO
4029618          0          0          0          NO
4052632          0          0          0          NO
4050636          0          0          0          NO
3808643          0          0          0          NO
3843644          0          0          0          NO
3844645          0          0          0          NO
3846649          0          0          0          NO
3847650          0          0          0          NO
3849651          0          0          0          NO
3850652          0          0          0          NO
3848658          0          0          0          NO
4020671          0          0          0          NO
4022674          0          0          0          NO
4039680          0          0          0          NO
4046681          0          0          0          NO
4048682          0          0          0          NO
3985687          0          0          0          NO
3855699          0          0          0          NO
3856700          0          0          0          NO
3859704          0          0          0          NO
3865727          0          0          0          NO
3866728          0          0          0          NO
3867729          0          0          0          NO
4113750          0          0          0          NO
4114751          0          0          0          NO
4115752          0          0          0          NO
4117756          0          0          0          NO
4118761          0          0          0          NO
4119762          0          0          0          NO
4112783          0          0          0          NO
4111788          0          0          0          NO
3861789          0          0          0          NO
3881797          0          0          0          NO
3880798          0          0          0          NO
3879799          0          0          0          NO
3862810          0          0          0          NO
3873811          0          0          0          NO
3872812          0          0          0          NO
3871813          0          0          0          NO
3870814          0          0          0          NO
3869815          0          0          0          NO
3885818          0          0          0          NO
3884819          0          0          0          NO
3883820          0          0          0          NO
3882821          0          0          0          NO
4081829          0          0          0          NO
4082830          0          0          0          NO
4084833          0          0          0          NO
4085834          0          0          0          NO
4071870          0          0          0          NO
4072871          0          0          0          NO
4073872          0          0          0          NO
4074888          0          0          0          NO
4068904          0          0          0          NO
4092913          0          0          0          NO
4093914          0          0          0          NO
4094915          0          0          0          NO
4095916          0          0          0          NO
4062923          0          0          0          NO
4063924          0          0          0          NO
4096930          0          0          0          NO
3764942          0          0          0          NO
3765943          0          0          0          NO
3766944          0          0          0          NO
3767945          0          0          0          NO
3768946          0          0          0          NO
3770949          0          0          0          NO
3771950          0          0          0          NO
3761951          0          0          0          NO
4124971          0          0          0          NO
4123972          0          0          0          NO
4120973          0          0          0          NO
4121974          0          0          0          NO
4122975          0          0          0          NO
4097976          0          0          0          NO
4110977          0          0          0          NO
4106991          0          0          0          NO
4105992          0          0          0          NO
4104993          0          0          0          NO
41001007         0          0          0          NO
39951010         0          0          0          NO
39991015         0          0          0          NO
39981016         0          0          0          NO
40021023         0          0          0          NO
40031024         0          0          0          NO
40041025         0          0          0          NO
40051026         0          0          0          NO
40061027         0          0          0          NO
41281056         0          0          0          NO
37631060         0          0          0          NO
37621061         0          0          0          NO
37941475         0          0          0          NO
37961483         0          0          0          NO
39241499         0          0          0          NO
39261500         0          0          0          NO
39251503         0          0          0          NO
41379900         0          0          0          NO
41369901         0          0          0          NO
41359902         0          0          0          NO
41349903         0          0          0          NO
41339904         0          0          0          NO
37729905         0          0          0          NO
3802257          0          0          0          NO
3911393          0          0          0          NO
3912394          0          0          0          NO
3990594          0          0          0          NO
3989595          0          0          0          NO
3858703          0          0          0          NO
3864822A         0          0          0          NO
3840251          0          0          0          NO
4376253          0          0          0          NO
4380D114         0          0          0          NO
4381D115         0          0          0          NO
4382D116         0          0          0          NO
4383D117         0          0          0          NO
4384D118         0          0          0          NO
4385D119         0          0          0          NO
4386D120         0          0          0          NO
4387D121         0          0          0          NO
4379D122         0          0          0          NO
4392D123         0          0          0          NO
4390D124         0          0          0          NO
4389D125         0          0          0          NO
4391D126         0          0          0          NO
4406D103         0          0          0          NO
4407D106         0          0          0          NO
4408D107         0          0          0          NO
4412D108         0          0          0          NO
4414D109         0          0          0          NO
4409D110         0          0          0          NO
4410D111         0          0          0          NO
4413D113         0          0          0          NO
4411D112         0          0          0          NO
43885x8          0          0          0          NO
4130OUTLINK009   0          0          0          NO
3918RI           0          0          0          NO
4431RI           0          0          0          NO
3949471          0          0          0          NO
3825234          0          0          0          NO
37541497         0          0          0          NO
3929433          0          0          0          NO
41021008         0          0          0          NO
3803258          0          0          0          NO
444148"chase     0          0          0          NO
4440ch_out       0          0          0          NO
4446Chase_ovf    0          0          0          NO
4127Bridge_ovf   0          0          0          NO
3967546          0          0          0          NO
4458Prc_ovf      0          0          0          NO
4131504          0          0          0          NO
4463503          0          0          0          NO
4466polk_div     0          0          0          NO
4464Polk_ovf     0          0          0          NO
4471487          0          0          0          NO
44741502         0          0          0          NO
4477A9_ovf       0          0          0          NO
4481RI_ovf       0          0          0          NO
3769947          0          0          0          NO
3821228          0          0          0          NO
3822230          0          0          0          NO
378025&Geo_ovf   0          0          0          NO
3775268          0          0          0          NO
4060271          0          0          0          NO
3777276          0          0          0          NO
3778278          0          0          0          NO
3779280          0          0          0          NO
3782282          0          0          0          NO
37981476         0          0          0          NO
37971479         0          0          0          NO
37951484         0          0          0          NO
37931487         0          0          0          NO
37921489         0          0          0          NO
37911491         0          0          0          NO
3784285          0          0          0          NO
3789300a         0          0          0          NO
3753307          0          0          0          NO
3743201          0          0          0          NO
3941440          0          0          0          NO
3940446          0          0          0          NO
3939451          0          0          0          NO
3868730          0          0          0          NO
3785286          0          0          0          NO
3877839A         0          0          0          NO
45131470         0          0          0          NO
3974565          0          0          0          NO
4076842          0          0          0          NO
4077844          0          0          0          NO
4078848          0          0          0          NO
4079850          0          0          0          NO
4080853          0          0          0          NO
4083831          0          0          0          NO
3876828          0          0          0          NO
4086835          0          0          0          NO
3875837          0          0          0          NO
3878753          0          0          0          NO
41011003         0          0          0          NO
4098937          0          0          0          NO
39971017         0          0          0          NO
3851654          0          0          0          NO
40342231         0          0          0          NO
3756341          0          0          0          NO
3954516          0          0          0          NO
39462237         0          0          0          NO
37902240         0          0          0          NO
41322242         0          0          0          NO
4485RI_LINK3     0          0          0          NO
46011071         0          0          0          NO
45981079         0          0          0          NO
45971080         0          0          0          NO
45951083         0          0          0          NO
45941084         0          0          0          NO
45931085         0          0          0          NO
45921086         0          0          0          NO
45901095         0          0          0          NO
45891096         0          0          0          NO
45871099         0          0          0          NO
45741111         0          0          0          NO
45751119         0          0          0          NO
45781120         0          0          0          NO
45811125         0          0          0          NO
45831128         0          0          0          NO
45421136         0          0          0          NO
45451140         0          0          0          NO
45631141         0          0          0          NO
45461142         0          0          0          NO
45471143         0          0          0          NO
45481144         0          0          0          NO
45491145         0          0          0          NO
45501146         0          0          0          NO
45521160         0          0          0          NO
45591167         0          0          0          NO
45601168         0          0          0          NO
45611169         0          0          0          NO
45671195         0          0          0          NO
45691200         0          0          0          NO
45721203         0          0          0          NO
45841106         0          0          0          NO
46387019         0          0          0          NO
46417135         0          0          0          NO
4573PLT_LNK2     0          0          0          NO
3900362          0          0          0          NO
3901367          0          0          0          NO
3950460          0          0          0          NO
3945464          0          0          0          NO
3806637          0          0          0          NO
4061639          0          0          0          NO
38073190         0          0          0          NO
3845646          0          0          0          NO
3852659          0          0          0          NO
4032313          0          0          0          NO
4036320          0          0          0          NO
4035322          0          0          0          NO
3857701          0          0          0          NO
3860790          0          0          0          NO
3863794          0          0          0          NO
38743199         0          0          0          NO
4070868          0          0          0          NO
4075856          0          0          0          NO
4064882          0          0          0          NO
4066884          0          0          0          NO
4067886          0          0          0          NO
4069897          0          0          0          NO
4088907          0          0          0          NO
4089909          0          0          0          NO
4090911          0          0          0          NO
4091926          0          0          0          NO
4109978          0          0          0          NO
3962493          0          0          0          NO
45661187         0          0          0          NO
4097931          0          0          0          NO
4099934          0          0          0          NO
3886346          0          0          0          NO
45681198         0          0          0          NO
37582144         0          0          0          NO
37602145         0          0          0          NO
44512146         0          0          0          NO
4125961          0          0          0          NO
4129955          0          0          0          NO
3988688          0          0          0          NO
3972553          0          0          0          NO
39592152         0          0          0          NO
3920479          0          0          0          NO
37522154         0          0          0          NO
37592155         0          0          0          NO
40101036         0          0          0          NO
40121038         0          0          0          NO
40131054         0          0          0          NO
40181040         0          0          0          NO
40191042         0          0          0          NO
40141046         0          0          0          NO
40151048         0          0          0          NO
40161050         0          0          0          NO
40171052         0          0          0          NO
40001012         0          0          0          NO
39961011         0          0          0          NO
40011021         0          0          0          NO
40111034         0          0          0          NO
40071028         0          0          0          NO
40081030         0          0          0          NO
40091032         0          0          0          NO
4108988          0          0          0          NO
4107994          0          0          0          NO
41032174         0          0          0          NO
4065880          0          0          0          NO
4087905          0          0          0          NO
41162177         0          0          0          NO
4028616          0          0          0          NO
3853661          0          0          0          NO
4025611          0          0          0          NO
4021672          0          0          0          NO
4023675          0          0          0          NO
4038677          0          0          0          NO
4041602          0          0          0          NO
4043605          0          0          0          NO
4045608          0          0          0          NO
4047683          0          0          0          NO
4058619          0          0          0          NO
4057620          0          0          0          NO
4056622          0          0          0          NO
4055625          0          0          0          NO
4054628          0          0          0          NO
4053630          0          0          0          NO
4051633          0          0          0          NO
3994587          0          0          0          NO
3993589          0          0          0          NO
39912197         0          0          0          NO
40492198         0          0          0          NO
39772199         0          0          0          NO
3744204          0          0          0          NO
3748210          0          0          0          NO
3750213          0          0          0          NO
3751215          0          0          0          NO
3755339          0          0          0          NO
3897359          0          0          0          NO
3893373          0          0          0          NO
3906399          0          0          0          NO
3908389A         0          0          0          NO
3957377          0          0          0          NO
3956383          0          0          0          NO
41002212         0          0          0          NO
39632213         0          0          0          NO
4760Colfax_ovf   0          0          0          NO
47611179         0          0          0          NO
45991074         0          0          0          NO
46001072         0          0          0          NO
45961081         0          0          0          NO
45911087         0          0          0          NO
45881097         0          0          0          NO
45861102         0          0          0          NO
45851104         0          0          0          NO
45771116         0          0          0          NO
45761542         0          0          0          NO
45791121         0          0          0          NO
45803053         0          0          0          NO
45821127         0          0          0          NO
45391129         0          0          0          NO
45401031         0          0          0          NO
45413057         0          0          0          NO
45431137         0          0          0          NO
45441172         0          0          0          NO
45641174         0          0          0          NO
45651176         0          0          0          NO
46377032         0          0          0          NO
46367045         0          0          0          NO
46353064         0          0          0          NO
45561147         0          0          0          NO
45571149         0          0          0          NO
45513067         0          0          0          NO
45531155         0          0          0          NO
45541157         0          0          0          NO
45551159         0          0          0          NO
45581161         0          0          0          NO
46407372         0          0          0          NO
45621170         0          0          0          NO
39513075         0          0          0          NO
36244667         0          0          0          NO
4589ReliefC2_1   0          0          0          NO
4552ReliefC2_2   0          0          0          NO
4872Relief_C3    0          0          0          NO
6469Relief_C1    0          0          0          NO
4875Relief_C2    0          0          0          NO
45701201         0          0          0          NO
53821202         0          0          0          NO
5735plant        0          0          0          NO
6301pond         0          0          0          NO
6438L2           0          0          0          NO
6381pumplink     0          0          0          NO
3757PLANT_LINK   0          0          0          NO
3734300          0          0          0          NO
18in_a           0          0          0          NO
6456L12          0          0          0          NO
6463L13          0          0          0          NO
3818L15          0          0          0          NO
6458L17          0          0          0          NO
3834L18          0          0          0          NO
3826L19          0          0          0          NO

[INFLOWS]
;;Node           Constituent  Time Series      Type     Mfactor  Sfactor  Baseline Pattern
;;-------------- ------------ ---------------- -------- -------- -------- -------- --------
;; SYNTHETIC TEST INFLOWS — the source .xp carried no constant inflows
;; and RUNF hydrology is not converted; 1.00 CFS is applied at each
;; headwater node so the network runs wet for QA. Replace with real
;; hydrology or inflow hydrographs before using results.
D30207           FLOW         ""               FLOW     1.0      1.0      1.00
D31000           FLOW         ""               FLOW     1.0      1.0      1.00
D31040           FLOW         ""               FLOW     1.0      1.0      1.00
D31001           FLOW         ""               FLOW     1.0      1.0      1.00
D24002           FLOW         ""               FLOW     1.0      1.0      1.00
D24027           FLOW         ""               FLOW     1.0      1.0      1.00
D24037           FLOW         ""               FLOW     1.0      1.0      1.00
D340038          FLOW         ""               FLOW     1.0      1.0      1.00
D240043          FLOW         ""               FLOW     1.0      1.0      1.00
N4               FLOW         ""               FLOW     1.0      1.0      1.00
HW_3227403       FLOW         ""               FLOW     1.0      1.0      1.00
HW_34934         FLOW         ""               FLOW     1.0      1.0      1.00
HW_349414        FLOW         ""               FLOW     1.0      1.0      1.00
HW_349519        FLOW         ""               FLOW     1.0      1.0      1.00
HW_349623        FLOW         ""               FLOW     1.0      1.0      1.00
HW_349728        FLOW         ""               FLOW     1.0      1.0      1.00
HW_350144        FLOW         ""               FLOW     1.0      1.0      1.00
HW_350247        FLOW         ""               FLOW     1.0      1.0      1.00
HW_350350        FLOW         ""               FLOW     1.0      1.0      1.00
HW_350454        FLOW         ""               FLOW     1.0      1.0      1.00
HW_350555        FLOW         ""               FLOW     1.0      1.0      1.00
HW_350960        FLOW         ""               FLOW     1.0      1.0      1.00
HW_350777        FLOW         ""               FLOW     1.0      1.0      1.00
HW_350880        FLOW         ""               FLOW     1.0      1.0      1.00
HW_350684        FLOW         ""               FLOW     1.0      1.0      1.00
HW_351190        FLOW         ""               FLOW     1.0      1.0      1.00
HW_351496        FLOW         ""               FLOW     1.0      1.0      1.00
HW_351599        FLOW         ""               FLOW     1.0      1.0      1.00
HW_3512108       FLOW         ""               FLOW     1.0      1.0      1.00
HW_3516112       FLOW         ""               FLOW     1.0      1.0      1.00
HW_3518119       FLOW         ""               FLOW     1.0      1.0      1.00
HW_3519122       FLOW         ""               FLOW     1.0      1.0      1.00
HW_3517123       FLOW         ""               FLOW     1.0      1.0      1.00
HW_3521126       FLOW         ""               FLOW     1.0      1.0      1.00
HW_3520131       FLOW         ""               FLOW     1.0      1.0      1.00
HW_3522135       FLOW         ""               FLOW     1.0      1.0      1.00
HW_3523153       FLOW         ""               FLOW     1.0      1.0      1.00
HW_3524154       FLOW         ""               FLOW     1.0      1.0      1.00
HW_3527163       FLOW         ""               FLOW     1.0      1.0      1.00
HW_3529174       FLOW         ""               FLOW     1.0      1.0      1.00
HW_3531181       FLOW         ""               FLOW     1.0      1.0      1.00
HW_3532183       FLOW         ""               FLOW     1.0      1.0      1.00
HW_3533187       FLOW         ""               FLOW     1.0      1.0      1.00
HW_3530194       FLOW         ""               FLOW     1.0      1.0      1.00
B                FLOW         ""               FLOW     1.0      1.0      1.00
HW_3569402       FLOW         ""               FLOW     1.0      1.0      1.00
HW_3528404       FLOW         ""               FLOW     1.0      1.0      1.00
HW_3513407       FLOW         ""               FLOW     1.0      1.0      1.00
HW_3526411       FLOW         ""               FLOW     1.0      1.0      1.00
HW_3498412       FLOW         ""               FLOW     1.0      1.0      1.00
HW_3500414       FLOW         ""               FLOW     1.0      1.0      1.00
HW_3499416       FLOW         ""               FLOW     1.0      1.0      1.00
HW_3573401       FLOW         ""               FLOW     1.0      1.0      1.00
HW_36401205      FLOW         ""               FLOW     1.0      1.0      1.00
HW_36411208      FLOW         ""               FLOW     1.0      1.0      1.00
HW_36391210      FLOW         ""               FLOW     1.0      1.0      1.00
HW_36421212      FLOW         ""               FLOW     1.0      1.0      1.00
HW_36371228      FLOW         ""               FLOW     1.0      1.0      1.00
HW_36481232      FLOW         ""               FLOW     1.0      1.0      1.00
HW_36331243      FLOW         ""               FLOW     1.0      1.0      1.00
HW_36571244      FLOW         ""               FLOW     1.0      1.0      1.00
HW_36581247      FLOW         ""               FLOW     1.0      1.0      1.00
HW_36321254      FLOW         ""               FLOW     1.0      1.0      1.00
HW_36311258      FLOW         ""               FLOW     1.0      1.0      1.00
HW_36301262      FLOW         ""               FLOW     1.0      1.0      1.00
HW_36341264      FLOW         ""               FLOW     1.0      1.0      1.00
HW_36351266      FLOW         ""               FLOW     1.0      1.0      1.00
HW_36361269      FLOW         ""               FLOW     1.0      1.0      1.00
HW_36381272      FLOW         ""               FLOW     1.0      1.0      1.00
HW_36051274      FLOW         ""               FLOW     1.0      1.0      1.00
HW_36431282      FLOW         ""               FLOW     1.0      1.0      1.00
HW_36441284      FLOW         ""               FLOW     1.0      1.0      1.00
HW_36471286      FLOW         ""               FLOW     1.0      1.0      1.00
HW_36461288      FLOW         ""               FLOW     1.0      1.0      1.00
HW_36561291      FLOW         ""               FLOW     1.0      1.0      1.00
HW_36451296      FLOW         ""               FLOW     1.0      1.0      1.00
HW_36491299      FLOW         ""               FLOW     1.0      1.0      1.00
HW_36541304      FLOW         ""               FLOW     1.0      1.0      1.00
HW_36501307      FLOW         ""               FLOW     1.0      1.0      1.00
HW_36511309      FLOW         ""               FLOW     1.0      1.0      1.00
HW_36521311      FLOW         ""               FLOW     1.0      1.0      1.00
HW_36531313      FLOW         ""               FLOW     1.0      1.0      1.00
HW_36221319      FLOW         ""               FLOW     1.0      1.0      1.00
HW_36211321      FLOW         ""               FLOW     1.0      1.0      1.00
HW_36201325      FLOW         ""               FLOW     1.0      1.0      1.00
HW_36191327      FLOW         ""               FLOW     1.0      1.0      1.00
HW_36181329      FLOW         ""               FLOW     1.0      1.0      1.00
HW_36171331      FLOW         ""               FLOW     1.0      1.0      1.00
HW_36161333      FLOW         ""               FLOW     1.0      1.0      1.00
HW_36131335      FLOW         ""               FLOW     1.0      1.0      1.00
HW_36591345      FLOW         ""               FLOW     1.0      1.0      1.00
HW_36151349      FLOW         ""               FLOW     1.0      1.0      1.00
HW_36141351      FLOW         ""               FLOW     1.0      1.0      1.00
HW_36011353      FLOW         ""               FLOW     1.0      1.0      1.00
HW_36001359      FLOW         ""               FLOW     1.0      1.0      1.00
HW_36041363      FLOW         ""               FLOW     1.0      1.0      1.00
HW_35991371      FLOW         ""               FLOW     1.0      1.0      1.00
HW_35981373      FLOW         ""               FLOW     1.0      1.0      1.00
HW_35971376      FLOW         ""               FLOW     1.0      1.0      1.00
HW_36031380      FLOW         ""               FLOW     1.0      1.0      1.00
HW_36021387      FLOW         ""               FLOW     1.0      1.0      1.00
HW_35961389      FLOW         ""               FLOW     1.0      1.0      1.00
HW_36101390      FLOW         ""               FLOW     1.0      1.0      1.00
HW_36121398      FLOW         ""               FLOW     1.0      1.0      1.00
HW_36111401      FLOW         ""               FLOW     1.0      1.0      1.00
HW_36091405      FLOW         ""               FLOW     1.0      1.0      1.00
HW_35911407      FLOW         ""               FLOW     1.0      1.0      1.00
HW_35921413      FLOW         ""               FLOW     1.0      1.0      1.00
HW_35931421      FLOW         ""               FLOW     1.0      1.0      1.00
HW_35941429      FLOW         ""               FLOW     1.0      1.0      1.00
HW_36071439      FLOW         ""               FLOW     1.0      1.0      1.00
HW_36061468      FLOW         ""               FLOW     1.0      1.0      1.00
HW_36231469      FLOW         ""               FLOW     1.0      1.0      1.00
HW_36241514      FLOW         ""               FLOW     1.0      1.0      1.00
HW_36251517      FLOW         ""               FLOW     1.0      1.0      1.00
HW_36261522      FLOW         ""               FLOW     1.0      1.0      1.00
HW_36291523      FLOW         ""               FLOW     1.0      1.0      1.00
HW_36271524      FLOW         ""               FLOW     1.0      1.0      1.00
HW_36281527      FLOW         ""               FLOW     1.0      1.0      1.00
HW_36081445      FLOW         ""               FLOW     1.0      1.0      1.00
HW_3729295       FLOW         ""               FLOW     1.0      1.0      1.00
HW_3733302       FLOW         ""               FLOW     1.0      1.0      1.00
HW_3816217       FLOW         ""               FLOW     1.0      1.0      1.00
HW_3817218       FLOW         ""               FLOW     1.0      1.0      1.00
HW_3842223       FLOW         ""               FLOW     1.0      1.0      1.00
HW_3841224       FLOW         ""               FLOW     1.0      1.0      1.00
HW_3818225       FLOW         ""               FLOW     1.0      1.0      1.00
HW_3819226       FLOW         ""               FLOW     1.0      1.0      1.00
HW_3820227       FLOW         ""               FLOW     1.0      1.0      1.00
HW_3824232       FLOW         ""               FLOW     1.0      1.0      1.00
HW_3823236       FLOW         ""               FLOW     1.0      1.0      1.00
HW_3834237       FLOW         ""               FLOW     1.0      1.0      1.00
HW_3833238       FLOW         ""               FLOW     1.0      1.0      1.00
HW_3832239       FLOW         ""               FLOW     1.0      1.0      1.00
HW_3831240       FLOW         ""               FLOW     1.0      1.0      1.00
HW_3830241       FLOW         ""               FLOW     1.0      1.0      1.00
HW_3829242       FLOW         ""               FLOW     1.0      1.0      1.00
HW_3828243       FLOW         ""               FLOW     1.0      1.0      1.00
HW_3827244       FLOW         ""               FLOW     1.0      1.0      1.00
HW_3826245       FLOW         ""               FLOW     1.0      1.0      1.00
HW_3835246       FLOW         ""               FLOW     1.0      1.0      1.00
HW_3836247       FLOW         ""               FLOW     1.0      1.0      1.00
HW_3837248       FLOW         ""               FLOW     1.0      1.0      1.00
HW_3838249       FLOW         ""               FLOW     1.0      1.0      1.00
HW_3839250       FLOW         ""               FLOW     1.0      1.0      1.00
HW_3745207       FLOW         ""               FLOW     1.0      1.0      1.00
HW_3746208       FLOW         ""               FLOW     1.0      1.0      1.00
HW_3747209       FLOW         ""               FLOW     1.0      1.0      1.00
HW_3749212       FLOW         ""               FLOW     1.0      1.0      1.00
HW_3799254       FLOW         ""               FLOW     1.0      1.0      1.00
HW_3800255       FLOW         ""               FLOW     1.0      1.0      1.00
HW_3801256       FLOW         ""               FLOW     1.0      1.0      1.00
HW_3804261       FLOW         ""               FLOW     1.0      1.0      1.00
HW_3805261A      FLOW         ""               FLOW     1.0      1.0      1.00
HW_3781263       FLOW         ""               FLOW     1.0      1.0      1.00
HW_3783264       FLOW         ""               FLOW     1.0      1.0      1.00
HW_4059274       FLOW         ""               FLOW     1.0      1.0      1.00
HW_3776275       FLOW         ""               FLOW     1.0      1.0      1.00
HW_3786290       FLOW         ""               FLOW     1.0      1.0      1.00
HW_3787291       FLOW         ""               FLOW     1.0      1.0      1.00
HW_3788292a      FLOW         ""               FLOW     1.0      1.0      1.00
HW_3809293a      FLOW         ""               FLOW     1.0      1.0      1.00
HW_3810294A      FLOW         ""               FLOW     1.0      1.0      1.00
HW_3811295a      FLOW         ""               FLOW     1.0      1.0      1.00
HW_3812296       FLOW         ""               FLOW     1.0      1.0      1.00
HW_3813297a      FLOW         ""               FLOW     1.0      1.0      1.00
HW_3814298a      FLOW         ""               FLOW     1.0      1.0      1.00
HW_3815299       FLOW         ""               FLOW     1.0      1.0      1.00
HW_3854309       FLOW         ""               FLOW     1.0      1.0      1.00
HW_4030310       FLOW         ""               FLOW     1.0      1.0      1.00
HW_4031311       FLOW         ""               FLOW     1.0      1.0      1.00
HW_4037319       FLOW         ""               FLOW     1.0      1.0      1.00
HW_4033329       FLOW         ""               FLOW     1.0      1.0      1.00
HW_4138330       FLOW         ""               FLOW     1.0      1.0      1.00
HW_3754345       FLOW         ""               FLOW     1.0      1.0      1.00
HW_3887350       FLOW         ""               FLOW     1.0      1.0      1.00
HW_3888351       FLOW         ""               FLOW     1.0      1.0      1.00
HW_3889352       FLOW         ""               FLOW     1.0      1.0      1.00
HW_3890353       FLOW         ""               FLOW     1.0      1.0      1.00
HW_3891354       FLOW         ""               FLOW     1.0      1.0      1.00
HW_3892355       FLOW         ""               FLOW     1.0      1.0      1.00
HW_3894356       FLOW         ""               FLOW     1.0      1.0      1.00
HW_3895357       FLOW         ""               FLOW     1.0      1.0      1.00
HW_3896358       FLOW         ""               FLOW     1.0      1.0      1.00
HW_3898360       FLOW         ""               FLOW     1.0      1.0      1.00
HW_3899361       FLOW         ""               FLOW     1.0      1.0      1.00
HW_3902369       FLOW         ""               FLOW     1.0      1.0      1.00
HW_3903370       FLOW         ""               FLOW     1.0      1.0      1.00
HW_3904371       FLOW         ""               FLOW     1.0      1.0      1.00
HW_3905372       FLOW         ""               FLOW     1.0      1.0      1.00
HW_3907388a      FLOW         ""               FLOW     1.0      1.0      1.00
HW_3909391       FLOW         ""               FLOW     1.0      1.0      1.00
HW_3910392       FLOW         ""               FLOW     1.0      1.0      1.00
HW_3913395       FLOW         ""               FLOW     1.0      1.0      1.00
HW_3914396       FLOW         ""               FLOW     1.0      1.0      1.00
HW_3906397a      FLOW         ""               FLOW     1.0      1.0      1.00
HW_3915398       FLOW         ""               FLOW     1.0      1.0      1.00
HW_3955406a      FLOW         ""               FLOW     1.0      1.0      1.00
HW_3936425       FLOW         ""               FLOW     1.0      1.0      1.00
HW_3932427       FLOW         ""               FLOW     1.0      1.0      1.00
HW_3933428       FLOW         ""               FLOW     1.0      1.0      1.00
HW_3935429       FLOW         ""               FLOW     1.0      1.0      1.00
HW_3934430       FLOW         ""               FLOW     1.0      1.0      1.00
HW_3931431       FLOW         ""               FLOW     1.0      1.0      1.00
HW_3930432       FLOW         ""               FLOW     1.0      1.0      1.00
HW_3937439       FLOW         ""               FLOW     1.0      1.0      1.00
HW_3938456       FLOW         ""               FLOW     1.0      1.0      1.00
HW_3942457       FLOW         ""               FLOW     1.0      1.0      1.00
HW_3943462       FLOW         ""               FLOW     1.0      1.0      1.00
HW_3944463       FLOW         ""               FLOW     1.0      1.0      1.00
HW_3947469       FLOW         ""               FLOW     1.0      1.0      1.00
HW_3948470       FLOW         ""               FLOW     1.0      1.0      1.00
HW_3918473       FLOW         ""               FLOW     1.0      1.0      1.00
HW_3917474       FLOW         ""               FLOW     1.0      1.0      1.00
HW_3922475       FLOW         ""               FLOW     1.0      1.0      1.00
HW_3921478       FLOW         ""               FLOW     1.0      1.0      1.00
HW_3919481       FLOW         ""               FLOW     1.0      1.0      1.00
HW_3905482       FLOW         ""               FLOW     1.0      1.0      1.00
HW_3915483       FLOW         ""               FLOW     1.0      1.0      1.00
HW_3958488       FLOW         ""               FLOW     1.0      1.0      1.00
HW_3960491       FLOW         ""               FLOW     1.0      1.0      1.00
HW_3961492       FLOW         ""               FLOW     1.0      1.0      1.00
HW_3952514       FLOW         ""               FLOW     1.0      1.0      1.00
HW_3953515       FLOW         ""               FLOW     1.0      1.0      1.00
HW_3964543       FLOW         ""               FLOW     1.0      1.0      1.00
HW_3965544       FLOW         ""               FLOW     1.0      1.0      1.00
HW_3966545       FLOW         ""               FLOW     1.0      1.0      1.00
HW_3968548       FLOW         ""               FLOW     1.0      1.0      1.00
HW_3969549       FLOW         ""               FLOW     1.0      1.0      1.00
HW_3970550       FLOW         ""               FLOW     1.0      1.0      1.00
HW_3971551       FLOW         ""               FLOW     1.0      1.0      1.00
HW_3976563       FLOW         ""               FLOW     1.0      1.0      1.00
HW_3975564       FLOW         ""               FLOW     1.0      1.0      1.00
HW_3978569       FLOW         ""               FLOW     1.0      1.0      1.00
HW_3979570       FLOW         ""               FLOW     1.0      1.0      1.00
HW_3980574       FLOW         ""               FLOW     1.0      1.0      1.00
HW_3981575       FLOW         ""               FLOW     1.0      1.0      1.00
HW_3973580       FLOW         ""               FLOW     1.0      1.0      1.00
HW_3982581       FLOW         ""               FLOW     1.0      1.0      1.00
HW_3983582       FLOW         ""               FLOW     1.0      1.0      1.00
HW_3984585       FLOW         ""               FLOW     1.0      1.0      1.00
HW_3986586       FLOW         ""               FLOW     1.0      1.0      1.00
HW_3992591       FLOW         ""               FLOW     1.0      1.0      1.00
HW_3987596       FLOW         ""               FLOW     1.0      1.0      1.00
HW_4042599       FLOW         ""               FLOW     1.0      1.0      1.00
HW_4040604       FLOW         ""               FLOW     1.0      1.0      1.00
HW_4044607       FLOW         ""               FLOW     1.0      1.0      1.00
HW_4024610       FLOW         ""               FLOW     1.0      1.0      1.00
HW_4026613       FLOW         ""               FLOW     1.0      1.0      1.00
HW_4027614       FLOW         ""               FLOW     1.0      1.0      1.00
HW_4029618       FLOW         ""               FLOW     1.0      1.0      1.00
HW_4052632       FLOW         ""               FLOW     1.0      1.0      1.00
HW_4050636       FLOW         ""               FLOW     1.0      1.0      1.00
HW_3808643       FLOW         ""               FLOW     1.0      1.0      1.00
HW_3843644       FLOW         ""               FLOW     1.0      1.0      1.00
HW_3844645       FLOW         ""               FLOW     1.0      1.0      1.00
HW_3846649       FLOW         ""               FLOW     1.0      1.0      1.00
HW_3847650       FLOW         ""               FLOW     1.0      1.0      1.00
HW_3849651       FLOW         ""               FLOW     1.0      1.0      1.00
HW_3850652       FLOW         ""               FLOW     1.0      1.0      1.00
HW_3848658       FLOW         ""               FLOW     1.0      1.0      1.00
HW_4020671       FLOW         ""               FLOW     1.0      1.0      1.00
HW_4022674       FLOW         ""               FLOW     1.0      1.0      1.00
HW_4039680       FLOW         ""               FLOW     1.0      1.0      1.00
HW_4046681       FLOW         ""               FLOW     1.0      1.0      1.00
HW_4048682       FLOW         ""               FLOW     1.0      1.0      1.00
HW_3985687       FLOW         ""               FLOW     1.0      1.0      1.00
HW_3855699       FLOW         ""               FLOW     1.0      1.0      1.00
HW_3856700       FLOW         ""               FLOW     1.0      1.0      1.00
HW_3859704       FLOW         ""               FLOW     1.0      1.0      1.00
HW_3865727       FLOW         ""               FLOW     1.0      1.0      1.00
HW_3866728       FLOW         ""               FLOW     1.0      1.0      1.00
HW_3867729       FLOW         ""               FLOW     1.0      1.0      1.00
HW_4113750       FLOW         ""               FLOW     1.0      1.0      1.00
HW_4114751       FLOW         ""               FLOW     1.0      1.0      1.00
HW_4115752       FLOW         ""               FLOW     1.0      1.0      1.00
HW_4117756       FLOW         ""               FLOW     1.0      1.0      1.00
HW_4118761       FLOW         ""               FLOW     1.0      1.0      1.00
HW_4119762       FLOW         ""               FLOW     1.0      1.0      1.00
HW_4112783       FLOW         ""               FLOW     1.0      1.0      1.00
HW_4111788       FLOW         ""               FLOW     1.0      1.0      1.00
HW_3861789       FLOW         ""               FLOW     1.0      1.0      1.00
HW_3881797       FLOW         ""               FLOW     1.0      1.0      1.00
HW_3880798       FLOW         ""               FLOW     1.0      1.0      1.00
HW_3879799       FLOW         ""               FLOW     1.0      1.0      1.00
HW_3862810       FLOW         ""               FLOW     1.0      1.0      1.00
HW_3873811       FLOW         ""               FLOW     1.0      1.0      1.00
HW_3872812       FLOW         ""               FLOW     1.0      1.0      1.00
HW_3871813       FLOW         ""               FLOW     1.0      1.0      1.00
HW_3870814       FLOW         ""               FLOW     1.0      1.0      1.00
HW_3869815       FLOW         ""               FLOW     1.0      1.0      1.00
HW_3885818       FLOW         ""               FLOW     1.0      1.0      1.00
HW_3884819       FLOW         ""               FLOW     1.0      1.0      1.00
HW_3883820       FLOW         ""               FLOW     1.0      1.0      1.00
HW_3882821       FLOW         ""               FLOW     1.0      1.0      1.00
HW_4081829       FLOW         ""               FLOW     1.0      1.0      1.00
HW_4082830       FLOW         ""               FLOW     1.0      1.0      1.00
HW_4084833       FLOW         ""               FLOW     1.0      1.0      1.00
HW_4085834       FLOW         ""               FLOW     1.0      1.0      1.00
HW_4071870       FLOW         ""               FLOW     1.0      1.0      1.00
HW_4072871       FLOW         ""               FLOW     1.0      1.0      1.00
HW_4073872       FLOW         ""               FLOW     1.0      1.0      1.00
HW_4074888       FLOW         ""               FLOW     1.0      1.0      1.00
HW_4068904       FLOW         ""               FLOW     1.0      1.0      1.00
HW_4092913       FLOW         ""               FLOW     1.0      1.0      1.00
HW_4093914       FLOW         ""               FLOW     1.0      1.0      1.00
HW_4094915       FLOW         ""               FLOW     1.0      1.0      1.00
HW_4095916       FLOW         ""               FLOW     1.0      1.0      1.00
HW_4062923       FLOW         ""               FLOW     1.0      1.0      1.00
HW_4063924       FLOW         ""               FLOW     1.0      1.0      1.00
HW_4096930       FLOW         ""               FLOW     1.0      1.0      1.00
HW_3764942       FLOW         ""               FLOW     1.0      1.0      1.00
HW_3765943       FLOW         ""               FLOW     1.0      1.0      1.00
HW_3766944       FLOW         ""               FLOW     1.0      1.0      1.00
HW_3767945       FLOW         ""               FLOW     1.0      1.0      1.00
HW_3768946       FLOW         ""               FLOW     1.0      1.0      1.00
HW_3770949       FLOW         ""               FLOW     1.0      1.0      1.00
HW_3771950       FLOW         ""               FLOW     1.0      1.0      1.00
HW_3761951       FLOW         ""               FLOW     1.0      1.0      1.00
HW_4124971       FLOW         ""               FLOW     1.0      1.0      1.00
HW_4123972       FLOW         ""               FLOW     1.0      1.0      1.00
HW_4120973       FLOW         ""               FLOW     1.0      1.0      1.00
HW_4121974       FLOW         ""               FLOW     1.0      1.0      1.00
HW_4122975       FLOW         ""               FLOW     1.0      1.0      1.00
HW_4097976       FLOW         ""               FLOW     1.0      1.0      1.00
HW_4110977       FLOW         ""               FLOW     1.0      1.0      1.00
HW_4106991       FLOW         ""               FLOW     1.0      1.0      1.00
HW_4105992       FLOW         ""               FLOW     1.0      1.0      1.00
HW_4104993       FLOW         ""               FLOW     1.0      1.0      1.00
HW_41001007      FLOW         ""               FLOW     1.0      1.0      1.00
HW_39951010      FLOW         ""               FLOW     1.0      1.0      1.00
HW_39991015      FLOW         ""               FLOW     1.0      1.0      1.00
HW_39981016      FLOW         ""               FLOW     1.0      1.0      1.00
HW_40021023      FLOW         ""               FLOW     1.0      1.0      1.00
HW_40031024      FLOW         ""               FLOW     1.0      1.0      1.00
HW_40041025      FLOW         ""               FLOW     1.0      1.0      1.00
HW_40051026      FLOW         ""               FLOW     1.0      1.0      1.00
HW_40061027      FLOW         ""               FLOW     1.0      1.0      1.00
HW_41281056      FLOW         ""               FLOW     1.0      1.0      1.00
HW_37631060      FLOW         ""               FLOW     1.0      1.0      1.00
HW_37621061      FLOW         ""               FLOW     1.0      1.0      1.00
HW_37941475      FLOW         ""               FLOW     1.0      1.0      1.00
HW_37961483      FLOW         ""               FLOW     1.0      1.0      1.00
HW_39241499      FLOW         ""               FLOW     1.0      1.0      1.00
HW_39261500      FLOW         ""               FLOW     1.0      1.0      1.00
HW_39251503      FLOW         ""               FLOW     1.0      1.0      1.00
HW_41379900      FLOW         ""               FLOW     1.0      1.0      1.00
HW_41369901      FLOW         ""               FLOW     1.0      1.0      1.00
HW_41359902      FLOW         ""               FLOW     1.0      1.0      1.00
HW_41349903      FLOW         ""               FLOW     1.0      1.0      1.00
HW_41339904      FLOW         ""               FLOW     1.0      1.0      1.00
HW_37729905      FLOW         ""               FLOW     1.0      1.0      1.00
HW_3802257       FLOW         ""               FLOW     1.0      1.0      1.00
HW_3911393       FLOW         ""               FLOW     1.0      1.0      1.00
HW_3912394       FLOW         ""               FLOW     1.0      1.0      1.00
HW_3990594       FLOW         ""               FLOW     1.0      1.0      1.00
HW_3989595       FLOW         ""               FLOW     1.0      1.0      1.00
HW_3858703       FLOW         ""               FLOW     1.0      1.0      1.00
HW_3864822A      FLOW         ""               FLOW     1.0      1.0      1.00
HW_3840251       FLOW         ""               FLOW     1.0      1.0      1.00
HW_4376253       FLOW         ""               FLOW     1.0      1.0      1.00
HW_43885x8       FLOW         ""               FLOW     1.0      1.0      1.00
HW_3949471       FLOW         ""               FLOW     1.0      1.0      1.00
HW_3825234       FLOW         ""               FLOW     1.0      1.0      1.00
HW_37541497      FLOW         ""               FLOW     1.0      1.0      1.00
HW_3929433       FLOW         ""               FLOW     1.0      1.0      1.00
HW_41021008      FLOW         ""               FLOW     1.0      1.0      1.00
HW_3803258       FLOW         ""               FLOW     1.0      1.0      1.00
HW_444148_chase  FLOW         ""               FLOW     1.0      1.0      1.00
HW_3967546       FLOW         ""               FLOW     1.0      1.0      1.00
HW_4131504       FLOW         ""               FLOW     1.0      1.0      1.00
HW_4463503       FLOW         ""               FLOW     1.0      1.0      1.00
HW_4471487       FLOW         ""               FLOW     1.0      1.0      1.00
HW_44741502      FLOW         ""               FLOW     1.0      1.0      1.00
HW_3769947       FLOW         ""               FLOW     1.0      1.0      1.00
HW_3821228       FLOW         ""               FLOW     1.0      1.0      1.00
HW_3822230       FLOW         ""               FLOW     1.0      1.0      1.00
HW_378025_Geo_ovf FLOW         ""               FLOW     1.0      1.0      1.00
HW_3775268       FLOW         ""               FLOW     1.0      1.0      1.00
HW_4060271       FLOW         ""               FLOW     1.0      1.0      1.00
HW_3777276       FLOW         ""               FLOW     1.0      1.0      1.00
HW_3778278       FLOW         ""               FLOW     1.0      1.0      1.00
HW_3779280       FLOW         ""               FLOW     1.0      1.0      1.00
HW_3782282       FLOW         ""               FLOW     1.0      1.0      1.00
HW_37981476      FLOW         ""               FLOW     1.0      1.0      1.00
HW_37971479      FLOW         ""               FLOW     1.0      1.0      1.00
HW_37951484      FLOW         ""               FLOW     1.0      1.0      1.00
HW_37931487      FLOW         ""               FLOW     1.0      1.0      1.00
HW_37921489      FLOW         ""               FLOW     1.0      1.0      1.00
HW_37911491      FLOW         ""               FLOW     1.0      1.0      1.00
HW_3784285       FLOW         ""               FLOW     1.0      1.0      1.00
HW_3789300a      FLOW         ""               FLOW     1.0      1.0      1.00
HW_3753307       FLOW         ""               FLOW     1.0      1.0      1.00
HW_3743201       FLOW         ""               FLOW     1.0      1.0      1.00
HW_3941440       FLOW         ""               FLOW     1.0      1.0      1.00
HW_3940446       FLOW         ""               FLOW     1.0      1.0      1.00
HW_3939451       FLOW         ""               FLOW     1.0      1.0      1.00
HW_3868730       FLOW         ""               FLOW     1.0      1.0      1.00
HW_3785286       FLOW         ""               FLOW     1.0      1.0      1.00
HW_3877839A      FLOW         ""               FLOW     1.0      1.0      1.00
HW_378125_DIV    FLOW         ""               FLOW     1.0      1.0      1.00
HW_45131470      FLOW         ""               FLOW     1.0      1.0      1.00
HW_3974565       FLOW         ""               FLOW     1.0      1.0      1.00
HW_4076842       FLOW         ""               FLOW     1.0      1.0      1.00
HW_4077844       FLOW         ""               FLOW     1.0      1.0      1.00
HW_4078848       FLOW         ""               FLOW     1.0      1.0      1.00
HW_4079850       FLOW         ""               FLOW     1.0      1.0      1.00
HW_4080853       FLOW         ""               FLOW     1.0      1.0      1.00
HW_4083831       FLOW         ""               FLOW     1.0      1.0      1.00
HW_3876828       FLOW         ""               FLOW     1.0      1.0      1.00
HW_4086835       FLOW         ""               FLOW     1.0      1.0      1.00
HW_3875837       FLOW         ""               FLOW     1.0      1.0      1.00
HW_3878753       FLOW         ""               FLOW     1.0      1.0      1.00
HW_41011003      FLOW         ""               FLOW     1.0      1.0      1.00
HW_4098937       FLOW         ""               FLOW     1.0      1.0      1.00
HW_39971017      FLOW         ""               FLOW     1.0      1.0      1.00
HW_3851654       FLOW         ""               FLOW     1.0      1.0      1.00
HW_40342231      FLOW         ""               FLOW     1.0      1.0      1.00
HW_3756341       FLOW         ""               FLOW     1.0      1.0      1.00
HW_3954516       FLOW         ""               FLOW     1.0      1.0      1.00
HW_39462237      FLOW         ""               FLOW     1.0      1.0      1.00
HW_37902240      FLOW         ""               FLOW     1.0      1.0      1.00
HW_41322242      FLOW         ""               FLOW     1.0      1.0      1.00
HW_46011071      FLOW         ""               FLOW     1.0      1.0      1.00
HW_45981079      FLOW         ""               FLOW     1.0      1.0      1.00
HW_45971080      FLOW         ""               FLOW     1.0      1.0      1.00
HW_45951083      FLOW         ""               FLOW     1.0      1.0      1.00
HW_45941084      FLOW         ""               FLOW     1.0      1.0      1.00
HW_45931085      FLOW         ""               FLOW     1.0      1.0      1.00
HW_45921086      FLOW         ""               FLOW     1.0      1.0      1.00
HW_45901095      FLOW         ""               FLOW     1.0      1.0      1.00
HW_45891096      FLOW         ""               FLOW     1.0      1.0      1.00
HW_45871099      FLOW         ""               FLOW     1.0      1.0      1.00
HW_45741111      FLOW         ""               FLOW     1.0      1.0      1.00
HW_45751119      FLOW         ""               FLOW     1.0      1.0      1.00
HW_45781120      FLOW         ""               FLOW     1.0      1.0      1.00
HW_45811125      FLOW         ""               FLOW     1.0      1.0      1.00
HW_45831128      FLOW         ""               FLOW     1.0      1.0      1.00
HW_45421136      FLOW         ""               FLOW     1.0      1.0      1.00
HW_45451140      FLOW         ""               FLOW     1.0      1.0      1.00
HW_45631141      FLOW         ""               FLOW     1.0      1.0      1.00
HW_45461142      FLOW         ""               FLOW     1.0      1.0      1.00
HW_45471143      FLOW         ""               FLOW     1.0      1.0      1.00
HW_45481144      FLOW         ""               FLOW     1.0      1.0      1.00
HW_45491145      FLOW         ""               FLOW     1.0      1.0      1.00
HW_45501146      FLOW         ""               FLOW     1.0      1.0      1.00
HW_45521160      FLOW         ""               FLOW     1.0      1.0      1.00
HW_45591167      FLOW         ""               FLOW     1.0      1.0      1.00
HW_45601168      FLOW         ""               FLOW     1.0      1.0      1.00
HW_45611169      FLOW         ""               FLOW     1.0      1.0      1.00
HW_45671195      FLOW         ""               FLOW     1.0      1.0      1.00
HW_45691200      FLOW         ""               FLOW     1.0      1.0      1.00
HW_45721203      FLOW         ""               FLOW     1.0      1.0      1.00
HW_45841106      FLOW         ""               FLOW     1.0      1.0      1.00
HW_46387019      FLOW         ""               FLOW     1.0      1.0      1.00
HW_46417135      FLOW         ""               FLOW     1.0      1.0      1.00
HW_3900362       FLOW         ""               FLOW     1.0      1.0      1.00
HW_3901367       FLOW         ""               FLOW     1.0      1.0      1.00
HW_3950460       FLOW         ""               FLOW     1.0      1.0      1.00
HW_3945464       FLOW         ""               FLOW     1.0      1.0      1.00
HW_3806637       FLOW         ""               FLOW     1.0      1.0      1.00
HW_4061639       FLOW         ""               FLOW     1.0      1.0      1.00
HW_38073190      FLOW         ""               FLOW     1.0      1.0      1.00
HW_3845646       FLOW         ""               FLOW     1.0      1.0      1.00
HW_3852659       FLOW         ""               FLOW     1.0      1.0      1.00
HW_4032313       FLOW         ""               FLOW     1.0      1.0      1.00
HW_4036320       FLOW         ""               FLOW     1.0      1.0      1.00
HW_4035322       FLOW         ""               FLOW     1.0      1.0      1.00
HW_3857701       FLOW         ""               FLOW     1.0      1.0      1.00
HW_3860790       FLOW         ""               FLOW     1.0      1.0      1.00
HW_3863794       FLOW         ""               FLOW     1.0      1.0      1.00
HW_38743199      FLOW         ""               FLOW     1.0      1.0      1.00
HW_4070868       FLOW         ""               FLOW     1.0      1.0      1.00
HW_4075856       FLOW         ""               FLOW     1.0      1.0      1.00
HW_4064882       FLOW         ""               FLOW     1.0      1.0      1.00
HW_4066884       FLOW         ""               FLOW     1.0      1.0      1.00
HW_4067886       FLOW         ""               FLOW     1.0      1.0      1.00
HW_4069897       FLOW         ""               FLOW     1.0      1.0      1.00
HW_4088907       FLOW         ""               FLOW     1.0      1.0      1.00
HW_4089909       FLOW         ""               FLOW     1.0      1.0      1.00
HW_4090911       FLOW         ""               FLOW     1.0      1.0      1.00
HW_4091926       FLOW         ""               FLOW     1.0      1.0      1.00
HW_4109978       FLOW         ""               FLOW     1.0      1.0      1.00
HW_3962493       FLOW         ""               FLOW     1.0      1.0      1.00
HW_45661187      FLOW         ""               FLOW     1.0      1.0      1.00
HW_4097931       FLOW         ""               FLOW     1.0      1.0      1.00
HW_4099934       FLOW         ""               FLOW     1.0      1.0      1.00
HW_3886346       FLOW         ""               FLOW     1.0      1.0      1.00
HW_45681198      FLOW         ""               FLOW     1.0      1.0      1.00
HW_37582144      FLOW         ""               FLOW     1.0      1.0      1.00
HW_37602145      FLOW         ""               FLOW     1.0      1.0      1.00
HW_44512146      FLOW         ""               FLOW     1.0      1.0      1.00
HW_4125961       FLOW         ""               FLOW     1.0      1.0      1.00
HW_4129955       FLOW         ""               FLOW     1.0      1.0      1.00
HW_3988688       FLOW         ""               FLOW     1.0      1.0      1.00
HW_3972553       FLOW         ""               FLOW     1.0      1.0      1.00
HW_39592152      FLOW         ""               FLOW     1.0      1.0      1.00
HW_3920479       FLOW         ""               FLOW     1.0      1.0      1.00
HW_37522154      FLOW         ""               FLOW     1.0      1.0      1.00
HW_37592155      FLOW         ""               FLOW     1.0      1.0      1.00
HW_40101036      FLOW         ""               FLOW     1.0      1.0      1.00
HW_40121038      FLOW         ""               FLOW     1.0      1.0      1.00
HW_40131054      FLOW         ""               FLOW     1.0      1.0      1.00
HW_40181040      FLOW         ""               FLOW     1.0      1.0      1.00
HW_40191042      FLOW         ""               FLOW     1.0      1.0      1.00
HW_40141046      FLOW         ""               FLOW     1.0      1.0      1.00
HW_40151048      FLOW         ""               FLOW     1.0      1.0      1.00
HW_40161050      FLOW         ""               FLOW     1.0      1.0      1.00
HW_40171052      FLOW         ""               FLOW     1.0      1.0      1.00
HW_40001012      FLOW         ""               FLOW     1.0      1.0      1.00
HW_39961011      FLOW         ""               FLOW     1.0      1.0      1.00
HW_40011021      FLOW         ""               FLOW     1.0      1.0      1.00
HW_40111034      FLOW         ""               FLOW     1.0      1.0      1.00
HW_40071028      FLOW         ""               FLOW     1.0      1.0      1.00
HW_40081030      FLOW         ""               FLOW     1.0      1.0      1.00
HW_40091032      FLOW         ""               FLOW     1.0      1.0      1.00
HW_4108988       FLOW         ""               FLOW     1.0      1.0      1.00
HW_4107994       FLOW         ""               FLOW     1.0      1.0      1.00
HW_41032174      FLOW         ""               FLOW     1.0      1.0      1.00
HW_4065880       FLOW         ""               FLOW     1.0      1.0      1.00
HW_4087905       FLOW         ""               FLOW     1.0      1.0      1.00
HW_41162177      FLOW         ""               FLOW     1.0      1.0      1.00
HW_4028616       FLOW         ""               FLOW     1.0      1.0      1.00
HW_3853661       FLOW         ""               FLOW     1.0      1.0      1.00
HW_4025611       FLOW         ""               FLOW     1.0      1.0      1.00
HW_4021672       FLOW         ""               FLOW     1.0      1.0      1.00
HW_4023675       FLOW         ""               FLOW     1.0      1.0      1.00
HW_4038677       FLOW         ""               FLOW     1.0      1.0      1.00
HW_4041602       FLOW         ""               FLOW     1.0      1.0      1.00
HW_4043605       FLOW         ""               FLOW     1.0      1.0      1.00
HW_4045608       FLOW         ""               FLOW     1.0      1.0      1.00
HW_4047683       FLOW         ""               FLOW     1.0      1.0      1.00
HW_4058619       FLOW         ""               FLOW     1.0      1.0      1.00
HW_4057620       FLOW         ""               FLOW     1.0      1.0      1.00
HW_4056622       FLOW         ""               FLOW     1.0      1.0      1.00
HW_4055625       FLOW         ""               FLOW     1.0      1.0      1.00
HW_4054628       FLOW         ""               FLOW     1.0      1.0      1.00
HW_4053630       FLOW         ""               FLOW     1.0      1.0      1.00
HW_4051633       FLOW         ""               FLOW     1.0      1.0      1.00
HW_3994587       FLOW         ""               FLOW     1.0      1.0      1.00
HW_3993589       FLOW         ""               FLOW     1.0      1.0      1.00
HW_39912197      FLOW         ""               FLOW     1.0      1.0      1.00
HW_40492198      FLOW         ""               FLOW     1.0      1.0      1.00
HW_39772199      FLOW         ""               FLOW     1.0      1.0      1.00
HW_3744204       FLOW         ""               FLOW     1.0      1.0      1.00
HW_3748210       FLOW         ""               FLOW     1.0      1.0      1.00
HW_3750213       FLOW         ""               FLOW     1.0      1.0      1.00
HW_3751215       FLOW         ""               FLOW     1.0      1.0      1.00
HW_3755339       FLOW         ""               FLOW     1.0      1.0      1.00
HW_3897359       FLOW         ""               FLOW     1.0      1.0      1.00
HW_3893373       FLOW         ""               FLOW     1.0      1.0      1.00
HW_3906399       FLOW         ""               FLOW     1.0      1.0      1.00
HW_3908389A      FLOW         ""               FLOW     1.0      1.0      1.00
HW_3957377       FLOW         ""               FLOW     1.0      1.0      1.00
HW_3956383       FLOW         ""               FLOW     1.0      1.0      1.00
HW_41002212      FLOW         ""               FLOW     1.0      1.0      1.00
HW_39632213      FLOW         ""               FLOW     1.0      1.0      1.00
HW_47611179      FLOW         ""               FLOW     1.0      1.0      1.00
HW_45991074      FLOW         ""               FLOW     1.0      1.0      1.00
HW_46001072      FLOW         ""               FLOW     1.0      1.0      1.00
HW_45961081      FLOW         ""               FLOW     1.0      1.0      1.00
HW_45911087      FLOW         ""               FLOW     1.0      1.0      1.00
HW_45881097      FLOW         ""               FLOW     1.0      1.0      1.00
HW_45861102      FLOW         ""               FLOW     1.0      1.0      1.00
HW_45851104      FLOW         ""               FLOW     1.0      1.0      1.00
HW_45771116      FLOW         ""               FLOW     1.0      1.0      1.00
HW_45761542      FLOW         ""               FLOW     1.0      1.0      1.00
HW_45791121      FLOW         ""               FLOW     1.0      1.0      1.00
HW_45803053      FLOW         ""               FLOW     1.0      1.0      1.00
HW_45821127      FLOW         ""               FLOW     1.0      1.0      1.00
HW_45391129      FLOW         ""               FLOW     1.0      1.0      1.00
HW_45401031      FLOW         ""               FLOW     1.0      1.0      1.00
HW_45413057      FLOW         ""               FLOW     1.0      1.0      1.00
HW_45431137      FLOW         ""               FLOW     1.0      1.0      1.00
HW_45441172      FLOW         ""               FLOW     1.0      1.0      1.00
HW_45641174      FLOW         ""               FLOW     1.0      1.0      1.00
HW_45651176      FLOW         ""               FLOW     1.0      1.0      1.00
HW_46377032      FLOW         ""               FLOW     1.0      1.0      1.00
HW_46367045      FLOW         ""               FLOW     1.0      1.0      1.00
HW_46353064      FLOW         ""               FLOW     1.0      1.0      1.00
HW_45561147      FLOW         ""               FLOW     1.0      1.0      1.00
HW_45571149      FLOW         ""               FLOW     1.0      1.0      1.00
HW_45513067      FLOW         ""               FLOW     1.0      1.0      1.00
HW_45531155      FLOW         ""               FLOW     1.0      1.0      1.00
HW_45541157      FLOW         ""               FLOW     1.0      1.0      1.00
HW_45551159      FLOW         ""               FLOW     1.0      1.0      1.00
HW_45581161      FLOW         ""               FLOW     1.0      1.0      1.00
HW_46407372      FLOW         ""               FLOW     1.0      1.0      1.00
HW_45621170      FLOW         ""               FLOW     1.0      1.0      1.00
HW_39513075      FLOW         ""               FLOW     1.0      1.0      1.00
HW_36244667      FLOW         ""               FLOW     1.0      1.0      1.00
HW_45701201      FLOW         ""               FLOW     1.0      1.0      1.00
HW_53821202      FLOW         ""               FLOW     1.0      1.0      1.00
HW_84weir        FLOW         ""               FLOW     1.0      1.0      1.00
HW_3734300       FLOW         ""               FLOW     1.0      1.0      1.00
18in_b           FLOW         ""               FLOW     1.0      1.0      1.00

[COORDINATES]
;;Node           X-Coord            Y-Coord
;;-------------- ------------------ ------------------
C41510B          -4602947.36        475547.89         
B64316           -4606692.79        479419.49         
B64308           -4606576.12        478988.43         
B64297           -4606176.50        478962.68         
B64290           -4606196.70        478659.67         
B64262           -4606219.19        478375.13         
B54101           -4606237.53        477773.94         
B54106           -4606236.22        477972.85         
B54109           -4606230.74        478210.19         
B54091           -4605852.59        477762.33         
B54075           -4605581.39        477764.02         
B54059           -4605606.03        478035.13         
B54052           -4605485.16        478195.83         
B54051           -4605398.25        478182.42         
C64646           -4604750.10        478142.00         
C64631           -4604752.86        478530.87         
C64633           -4604636.39        478344.60         
C64649           -4605056.04        478204.24         
PS_Marquet       -4606686.59        479000.32         
C50688           -4604605.99        477652.85         
C50566           -4604378.23        477685.30         
C50582           -4604250.20        478152.36         
C50576           -4604232.02        477985.66         
C50573           -4604390.36        477985.56         
C50549           -4604395.75        477373.18         
C50529           -4604270.83        477177.36         
C50517           -4604361.71        476910.97         
C50527           -4604256.25        477066.75         
C50357           -4604029.00        477179.72         
C50352           -4604033.15        477406.11         
C50251           -4603620.81        477176.82         
C54614           -4603206.76        477184.38         
C54613_LS        -4603174.84        477005.93         
PS_15&Clay       -4603155.52        476581.43         
C50047           -4603822.08        475532.75         
C50061           -4603685.29        475668.82         
C50122           -4603554.02        476276.50         
C50126           -4603581.25        476385.32         
C50211           -4603649.12        476778.91         
C50416           -4604382.07        476648.97         
C50418           -4604362.12        476718.23         
C50197           -4604005.12        476730.45         
OF_Elkhart       -4602295.29        477263.18         
388              -4603146.29        477183.67         
397              -4603015.99        476545.26         
E30020           -4599659.15        470436.18         
E30035           -4599659.66        470693.75         
E30055           -4599648.34        471079.99         
E30075           -4599640.42        471483.72         
PS_35&Wash       -4599638.67        471879.34         
E30115           -4599290.65        471884.92         
E30126           -4599300.79        471581.92         
E30146           -4599308.18        471285.98         
E30157           -4599318.68        471092.12         
E30169           -4599320.68        470887.92         
E30183           -4599311.94        470599.58         
E30297           -4599065.59        471879.26         
E30321           -4599016.32        471393.61         
E30338           -4598908.13        471089.25         
E30446           -4598609.13        471180.97         
E30549A          -4600296.23        471986.17         
E30601_LS        -4599694.40        471988.95         
E30603           -4599499.57        471895.98         
E30604A          -4599499.20        471980.61         
E30606           -4599290.58        471986.71         
E30693           -4599482.80        472392.98         
E30752           -4599482.97        472682.45         
E30902           -4598846.14        472001.03         
E30905           -4599074.61        471995.82         
E30924           -4599091.81        472191.45         
E31000           -4598688.94        472000.25         
E31009           -4598698.30        472191.57         
E31023           -4598695.30        472396.63         
E31044           -4598688.63        472595.48         
E31065_Hob       -4598685.68        472729.52         
E31099           -4598679.67        473083.42         
E31128           -4598679.94        473290.25         
E31500A          -4600264.19        472025.39         
E31500D          -4600276.28        471890.52         
E31500G          -4600342.03        471309.34         
E31500L          -4600107.03        470730.35         
E31500M          -4599911.03        470728.06         
E31500P          -4599869.79        470354.00         
MerVil_Mn        -4599889.29        468750.11         
F30022           -4598300.96        470784.17         
F30034           -4598298.57        470586.37         
F30070           -4598095.63        470590.25         
F30105_1&2       -4597672.26        470635.81         
F30213_1&2       -4598293.85        470972.35         
F30226           -4598293.32        471184.97         
F30253           -4598296.03        471488.09         
F30323_1&2       -4597749.50        471792.03         
F30337           -4598292.35        471792.14         
F30476           -4596890.70        471897.07         
F30820           -4596826.30        472343.61         
F30837           -4596832.30        472102.19         
F30863           -4596927.32        472000.41         
F30868_1&2       -4597285.32        472043.61         
F30874MV63       -4597495.33        472061.00         
F31057           -4598489.17        471984.61         
F31074           -4598003.49        472050.38         
F31082           -4597748.82        472051.04         
F31127           -4597753.26        472297.05         
F31201           -4597722.32        472742.81         
F31205           -4597871.30        472732.61         
F31212           -4598132.32        472732.61         
F31221           -4598283.72        472731.93         
F31223           -4598421.32        472728.93         
F31313           -4597873.53        472889.61         
OF_36Aly1E       -4600311.85        471894.58         
F31055           -4598292.05        471990.72         
E30976           -4599086.71        472891.34         
E30951           -4599082.28        472583.61         
E30936           -4599090.80        472386.13         
292              -4600324.94        471957.89         
OF_32Aly1E       -4600325.82        471894.39         
297              -4600151.00        471990.97         
298              -4600215.42        471989.93         
C41507           -4603113.85        474850.40         
C41504           -4603257.71        474543.26         
C41501           -4603272.31        474147.72         
C41488           -4603272.58        473985.65         
C41487           -4603275.87        473835.57         
C41486           -4603272.16        473681.57         
C41484           -4603284.73        473431.05         
C41483           -4603296.98        473359.02         
C41292           -4603451.35        473085.40         
C41290           -4603598.07        472824.06         
C41261           -4603452.84        472735.46         
C41276           -4603563.19        472771.17         
C41188           -4603582.19        471961.52         
C41252           -4603568.29        472641.30         
C22728A          -4605404.98        467969.39         
C2JCT3           -4605376.93        468107.91         
C22735           -4605221.54        468255.62         
C22733           -4605302.72        468148.51         
C22727           -4605361.83        468151.94         
C22726           -4605365.68        468358.68         
C22725           -4605372.25        468579.15         
C22745           -4604907.51        467855.05         
C22742           -4604971.58        467853.12         
C22741           -4604973.51        467997.57         
C22740           -4604978.94        468136.77         
C22739           -4604975.51        468273.96         
C22738           -4604974.67        468412.98         
C2JCT1           -4604993.12        468561.01         
C22736           -4605074.50        468454.06         
C22724           -4605239.67        468443.64         
C2DIVRSN1        -4605403.17        468432.26         
OF_25&Geor       -4601675.72        473363.49         
D41025           -4601690.32        473167.62         
D41023           -4601732.32        473110.02         
D41022           -4601754.99        473074.90         
D41032           -4601828.44        472975.62         
D41057           -4601904.25        472876.62         
D41110           -4601687.92        472853.20         
D41109           -4601712.38        472772.27         
D41059           -4601978.28        472776.29         
D41093           -4601885.38        472771.88         
D4JCT5           -4602458.87        472749.67         
D40815           -4602589.44        472773.55         
D40812           -4602905.83        472728.40         
D40774           -4602992.38        472735.12         
D40773           -4603105.17        472734.12         
D40772           -4603222.78        472731.19         
D41047           -4602421.25        472862.54         
D41045           -4602424.51        472955.54         
D41009           -4602447.02        473037.51         
D41007           -4602440.61        473124.48         
D40968           -4602494.86        473864.42         
D40977           -4602447.67        473289.11         
D40976           -4602501.58        473287.94         
D40972           -4602501.90        473638.19         
D40969           -4602494.13        473798.05         
D40520           -4601702.42        472075.57         
D40537           -4601700.63        472170.66         
D40546           -4601708.72        472259.36         
D40547           -4601706.11        472356.02         
D40555           -4601712.65        472461.70         
D41115           -4601711.77        472632.27         
D41108           -4601713.72        472727.85         
D40616A          -4602510.38        471944.87         
D40643           -4602911.82        471937.13         
D40754           -4603119.34        471940.51         
D40686           -4603228.29        472043.90         
D40697           -4603232.27        472140.90         
D40702           -4603233.67        472238.90         
D40713           -4603229.27        472332.51         
D40718           -4603224.22        472432.51         
D40735           -4603225.22        472532.51         
D40767           -4603221.27        472631.51         
D30084           -4601777.33        470448.13         
D30083           -4601776.12        470551.58         
D30072           -4601772.58        470655.10         
D30071           -4601772.31        470762.14         
D30058           -4601769.85        470863.38         
D30057           -4601772.45        470962.01         
D30050           -4601766.14        471064.93         
D30422           -4601766.02        471304.90         
D30452           -4601762.14        471263.33         
D30420           -4601765.97        471357.35         
D30261           -4601724.44        471310.35         
D30262           -4601678.85        471305.36         
D30260           -4601677.43        471205.69         
D30243           -4601676.85        471160.93         
D30242           -4601678.85        471063.67         
D30225           -4601677.85        470983.41         
D30224           -4601677.85        470905.41         
D30208           -4601659.88        470823.43         
D30207           -4601663.96        470703.61         
D30280           -4601775.15        471428.47         
D30281           -4601781.21        471502.54         
D30304           -4601784.84        471607.99         
D30305           -4601799.02        471688.50         
D30324           -4601777.50        471787.81         
D30325           -4601758.29        471883.68         
D30073           -4601826.19        470650.59         
D30074           -4601870.13        470652.19         
D30506           -4603132.33        471827.51         
D30512           -4603131.33        471736.51         
D30523           -4603133.33        471638.51         
D30530           -4603245.33        471545.51         
D30542           -4603246.33        471447.51         
D30546           -4603250.32        471350.32         
D30491           -4602976.12        471132.51         
D30496           -4602976.12        471230.51         
D30498           -4602977.32        471283.51         
D30553           -4603248.32        471259.51         
D30556           -4603323.51        471218.76         
D30547           -4603326.32        471356.32         
D30576           -4603037.51        470228.04         
D30575           -4603087.51        470230.96         
D30574           -4603137.51        470232.75         
D30572           -4603238.07        470231.75         
D30569           -4603289.67        470231.36         
D30568           -4603338.05        470232.75         
D30176           -4603338.45        470328.15         
D30579           -4602901.53        470233.90         
D30680           -4603345.05        469724.15         
D30709           -4602920.27        469531.55         
D30684           -4603211.50        469449.01         
D30683           -4603192.47        469615.26         
D30682           -4603256.26        469661.78         
D30678           -4603303.67        469712.00         
D30696           -4602935.32        469627.45         
D30667           -4602941.05        469736.75         
D30623           -4602936.54        469930.51         
D30615           -4602936.05        470028.51         
D30594           -4602933.05        470128.51         
D30709A          -4602940.36        469259.45         
D30795           -4602940.36        468677.56         
D30795A          -4602556.56        468678.77         
D30792           -4603352.32        468684.62         
D30751           -4603354.05        469093.89         
D30747           -4603354.06        469186.21         
D30746           -4603352.05        469289.89         
D30727           -4603349.86        469386.44         
D30806           -4602895.32        469262.51         
D30811           -4602845.32        469263.15         
D30812           -4602792.32        469264.16         
D30813           -4602744.67        469259.74         
C41278           -4603613.55        472772.96         
C41286A          -4603985.82        472770.62         
C41286B          -4604094.66        472769.05         
C41596           -4604144.25        472767.93         
C41597           -4604222.40        472770.79         
C41598           -4604301.40        472772.85         
C41599           -4604405.60        472773.65         
C41595           -4604507.36        472765.12         
C41396           -4604508.32        472128.98         
C41415           -4604508.32        472229.98         
C41446           -4604509.32        472330.98         
C41467           -4604506.09        472433.15         
C41561           -4604509.32        472547.15         
C41581           -4604507.90        472607.60         
C41747           -4604510.32        473462.57         
C41687           -4604512.32        473174.13         
C41667           -4604510.32        473066.55         
C41644           -4604510.18        472966.01         
C41626           -4604510.32        472865.01         
C41613           -4604509.12        472826.38         
C41605           -4604703.72        472764.71         
C41321           -4604737.32        471955.01         
C41366           -4604700.42        472030.02         
C41416           -4604702.91        472232.82         
C41440           -4604703.96        472333.82         
C41473           -4604707.37        472433.82         
C41473A          -4604706.37        472486.82         
C41567           -4604704.96        472549.82         
C41574           -4604705.96        472667.87         
C41610           -4604694.27        472817.97         
C41630           -4604704.25        472866.87         
C41608           -4604855.43        472758.15         
C41609           -4604848.72        472812.48         
C41616           -4604301.65        472828.07         
C41617A          -4603995.15        472826.58         
C41289           -4603879.04        472823.51         
C41543           -4604956.22        472758.78         
C41517           -4605033.74        472749.05         
C41518           -4605108.52        472788.98         
C41519           -4605177.04        472749.46         
C41520           -4605216.99        472782.36         
C41521           -4605350.44        472794.19         
C41522           -4605392.90        472756.88         
C41571           -4604846.70        472660.28         
C41570           -4604850.25        472543.79         
C41476           -4604849.25        472427.79         
C41363           -4604848.25        472029.36         
C41390           -4604849.25        472132.87         
C41437           -4604849.75        472325.79         
C41419           -4604847.25        472226.79         
C41328           -4604861.52        471918.91         
C41771           -4604686.74        473720.92         
C41770           -4604699.55        473672.33         
C41765           -4604466.13        473673.94         
C41782           -4604374.13        473911.33         
C41788           -4604259.32        474193.20         
C41753           -4604727.55        473578.33         
C41752           -4604758.37        473474.32         
C41722           -4604792.83        473368.51         
C41721           -4604811.75        473261.60         
C41678           -4604836.25        473163.79         
C41676           -4604846.09        473039.93         
C41635           -4604851.46        472958.32         
C41633           -4604852.46        472858.32         
C41750           -4604646.32        473483.03         
C41421           -4604956.25        472196.69         
C41361           -4604955.07        472045.22         
C41356           -4604956.25        471991.87         
C41333           -4604963.31        471834.92         
C41325           -4604807.03        471917.54         
C41311           -4604521.28        471948.78         
C41299           -4604254.67        471936.24         
C41516           -4605097.34        472627.80         
C41515           -4605115.01        472513.55         
C41513           -4605189.01        472272.65         
C41512           -4605219.01        472092.65         
C41511           -4605240.04        471937.42         
C31389           -4604857.40        471662.57         
C31389B          -4604966.59        471664.74         
C31392           -4604966.59        471609.58         
C31406           -4604966.59        471536.90         
C31459           -4604969.87        471445.61         
C31527           -4604956.08        471221.15         
C31549           -4604968.59        471085.31         
C31621           -4604974.94        470984.31         
C31650           -4604975.13        470888.31         
C31652A          -4604973.81        470834.52         
C31617           -4604860.31        470982.10         
C31461           -4605008.94        471381.68         
C31478           -4605054.39        471396.82         
C31475           -4605077.83        471316.31         
C31460           -4604948.44        471398.41         
C31457           -4604858.52        471413.58         
C31480           -4604859.52        471318.31         
C31524           -4604859.52        471203.31         
C31554           -4604860.52        471087.31         
C31653           -4604862.25        470884.31         
C31712           -4604861.32        470789.04         
C31746           -4604860.32        470690.04         
C31807           -4604856.10        470637.04         
C31806           -4604861.32        470582.85         
C31744           -4604971.13        470687.42         
C31808           -4604973.04        470638.47         
C31809           -4604970.20        470575.59         
C31828           -4604971.13        470490.04         
C32207           -4604965.21        470390.85         
C32231           -4604966.28        470290.85         
C32233           -4604860.70        470294.14         
C32206           -4604859.15        470391.85         
C32267           -4604972.28        470189.28         
C32282           -4604970.00        470087.28         
C32286           -4604861.32        469991.59         
C32287           -4604858.32        470091.95         
C32288           -4604793.32        470091.95         
C32290           -4604662.76        470094.95         
C32338           -4604966.21        469935.56         
C32365           -4604970.15        469784.92         
C32387           -4604970.15        469688.92         
C32388           -4604969.15        469589.92         
C32415           -4604970.97        469495.87         
C32416           -4604969.97        469394.87         
C32459           -4604965.75        469293.87         
C32457           -4604969.06        469181.16         
C32465           -4604967.39        469064.22         
C32487           -4604968.69        468947.65         
C32571           -4604857.82        469296.79         
C32485           -4605115.75        468950.51         
C32482           -4605332.03        468953.79         
C32424           -4605338.32        469393.79         
C32436           -4605336.00        469297.77         
C32439           -4605335.32        469180.11         
C32473           -4605332.32        469064.79         
C32515           -4605333.03        468717.79         
C32509           -4605329.10        468836.79         
C31506           -4603597.51        471232.86         
C31507           -4603755.22        471228.13         
C31510           -4603840.51        471227.13         
C31511           -4603936.58        471227.13         
C31672           -4603757.79        470906.40         
C31683           -4603758.51        470994.13         
C31593           -4603756.89        471088.36         
C31573           -4603754.51        471181.13         
C31498           -4603752.51        471276.13         
C31500           -4603595.51        471277.13         
C31432           -4603403.84        471367.27         
C31433           -4603481.03        471375.13         
C31434           -4603595.03        471376.70         
C31290           -4603588.79        471838.73         
C31293           -4603783.27        471839.27         
C31295           -4603936.27        471841.30         
C31297           -4604011.27        471834.27         
C31351           -4604012.27        471742.27         
C31599           -4603950.51        471036.29         
C31610           -4604510.32        471034.31         
C31416           -4604508.32        471520.11         
C31418           -4604301.51        471537.13         
C31381           -4604508.32        471620.11         
C31453           -4604507.32        471427.11         
C31518           -4604511.22        471207.75         
C31560A          -4604507.32        471153.21         
C31609           -4604509.69        470997.14         
C31705           -4604507.50        470802.15         
C31661           -4604509.69        470895.14         
C31800A          -4604509.32        470648.13         
C31799           -4604509.94        470600.32         
C32198           -4604519.25        470401.07         
C32242           -4604496.25        470298.53         
C32256           -4604495.25        470198.59         
C32293           -4604505.61        470096.95         
C32325           -4604511.96        469849.59         
C32331           -4604671.32        469794.03         
C32534           -4604662.38        469696.03         
C32546           -4604662.32        469598.95         
D40993           -4601767.93        473185.62         
D40991           -4601829.72        473287.62         
D40639           -4602716.19        471958.51         
D20939           -4603766.70        467991.79         
D20894           -4603769.13        468139.70         
D21040           -4603558.53        467426.27         
D21025           -4603562.53        467325.27         
D21063           -4603558.84        467529.27         
D20955           -4603558.84        467630.46         
D20944           -4603558.91        467834.36         
D20940           -4603705.77        467832.20         
D21076           -4603364.32        468193.15         
D21078           -4603362.32        468392.15         
D21079           -4603363.67        468488.15         
D21080           -4603362.32        468591.51         
D20950D          -4603560.65        467729.08         
D23433           -4603089.74        467680.90         
D23331           -4602514.72        467639.19         
D23333           -4602607.09        467661.51         
D23343           -4602735.08        467686.79         
D23344A          -4602838.67        467682.77         
D23344D          -4602925.77        467677.56         
D21143           -4602959.60        467882.20         
D21144           -4602959.22        467933.56         
D21148           -4602958.60        468035.20         
D21154           -4602954.60        468134.56         
D21118           -4602950.66        468220.20         
D21117           -4602945.22        468380.26         
D20923           -4603558.46        467935.22         
D20913           -4603565.91        468041.16         
D20899A          -4603563.65        468135.84         
D20904           -4603564.38        468236.77         
D20883           -4603765.83        468297.04         
D20877           -4603567.27        468339.58         
D20875           -4603559.14        468440.22         
D20863           -4603555.50        468536.58         
D20854           -4603560.01        468639.58         
C32132           -4603570.01        468689.83         
C32100a          -4603769.53        468693.26         
C32608           -4604852.30        468673.75         
C32665           -4604218.78        468695.99         
C32613           -4604803.84        468905.31         
C32616           -4604674.85        469089.79         
C32584           -4604882.03        468949.58         
C32630           -4604592.26        468904.96         
C32632           -4604534.74        468908.51         
C32635           -4604498.38        468909.51         
C32656           -4604409.67        468908.58         
C32667           -4604195.61        468917.22         
C32073           -4604028.85        468894.51         
C32095           -4603819.70        468895.51         
C32107           -4603763.41        468892.49         
C32051           -4603769.96        469099.70         
C32038           -4603767.87        469287.06         
C31916           -4603549.74        469738.41         
C31990A          -4603557.32        469629.76         
C32000           -4603555.38        469547.39         
C32017A          -4603559.03        469448.00         
C32124A          -4603562.32        469203.89         
C32124           -4603563.32        469155.25         
C32141A          -4603564.01        469021.51         
C32128           -4603566.91        468897.86         
C32129A          -4603618.70        468896.51         
C32106           -4603723.32        468893.27         
C32139           -4603568.01        468844.51         
C32133           -4603568.01        468744.51         
C32708           -4605503.51        469804.85         
C32715           -4605556.82        468961.06         
C3REGLTR2        -4605688.58        468963.74         
C32480           -4605491.13        468957.37         
C32699           -4605441.41        470512.14         
C32695           -4605474.48        470608.95         
C32694           -4605490.70        470673.73         
C32693           -4605580.19        470927.65         
C41189           -4603628.32        471962.10         
C41190           -4603682.39        471963.11         
C41191           -4603730.30        471960.32         
C41192           -4603788.09        471962.38         
C41193           -4603847.02        471961.70         
C41188A          -4603586.84        471907.89         
D40519           -4601704.47        472003.38         
D31035           -4601687.07        468831.20         
D31000           -4601697.03        470353.91         
D31008           -4601698.24        470124.81         
D31009           -4601706.78        470013.78         
D31020           -4601695.81        469623.15         
D31021           -4601694.46        469403.06         
D310234          -4601693.64        469243.45         
D31029           -4601695.25        469097.20         
D31032           -4601682.40        468941.12         
D31038           -4601684.62        468702.17         
D31042           -4602035.39        470017.33         
D31040           -4602027.34        470253.08         
D31044           -4601893.79        470011.04         
D31001           -4601871.29        470120.77         
D24002           -4601648.23        468329.17         
D24027           -4601711.24        467720.21         
D24007           -4601755.29        468033.73         
D24037           -4602049.54        467877.21         
D24036           -4602051.44        468020.15         
D340038          -4601918.09        468283.77         
D24004           -4601750.33        468281.03         
D240043          -4602117.70        468542.11         
D24039           -4601752.23        468536.16         
PS_27Chase       -4601315.25        468764.19         
OUTFALL009       -4605496.00        470608.39         
OF008            -4605587.79        470813.49         
RI               -4605049.01        472817.35         
w1_nd            -4605444.49        468428.69         
chs_sg           -4605408.20        468393.67         
w2_nd            -4605499.13        468428.06         
w2_out           -4605568.56        468427.63         
OF_Chase         -4605608.37        468425.07         
brg_sg           -4605618.22        468923.27         
OF_Bridge        -4605770.06        468957.28         
prc_fg           -4605441.55        470621.90         
prc_weir         -4605542.18        470604.57         
OF_Pierce        -4605615.58        470602.03         
pk_rg_nd         -4605540.47        470778.34         
pk_wr_nd         -4605653.85        470799.79         
OF_Polk          -4605692.70        470792.90         
2148             -4605543.13        470839.44         
2156             -4605082.36        472717.12         
2159             -4605107.79        472750.21         
2162             -4605488.46        472748.70         
OF_RI_2          -4605564.56        472745.79         
2166             -4605453.44        472815.61         
OF_RI_1          -4605526.62        472830.15         
2170             -4605063.04        472783.37         
2206             -4601696.86        472799.71         
C23156           -4604243.09        465613.66         
C23158           -4604371.32        465618.54         
C22938           -4604592.63        465613.51         
C22937           -4604787.09        465612.78         
C22930           -4604867.32        465610.59         
C22919           -4604985.26        465615.63         
C22753           -4604920.39        467169.74         
C22755           -4604975.32        467116.51         
C22789           -4604973.32        467016.51         
C22790           -4604974.32        466916.51         
C22807           -4604973.04        466815.78         
C22809           -4604973.32        466716.51         
C22828           -4604971.76        466614.78         
C22830           -4604975.32        466411.51         
C23053           -4604863.32        466614.51         
C23051           -4604864.32        466516.05         
C23024           -4604864.32        466416.60         
C22824           -4605171.72        466617.00         
C22826           -4605073.59        466618.52         
C22869           -4604974.32        466305.78         
C22870           -4604974.12        466065.33         
C22872           -4604977.32        466012.51         
C22894           -4604984.12        465909.51         
C22895           -4604982.19        465812.51         
C22753A          -4604974.39        467170.74         
C22921           -4605122.09        465618.27         
C22923           -4605343.26        465614.58         
C22855           -4605347.86        466464.08         
C22764           -4605296.62        467184.63         
C23172           -4605380.77        467218.63         
C23172B          -4605380.05        467414.51         
C23172C          -4605389.25        467527.14         
C23172E          -4605390.78        467770.24         
C23172F          -4605389.47        467910.23         
D13205           -4603999.16        464997.06         
D13204           -4603999.24        465102.51         
D13202           -4604104.04        465107.05         
D13195           -4604212.32        465104.51         
D13215           -4603996.24        465203.51         
D13216           -4603998.24        465258.51         
D13225           -4604000.01        465359.94         
D13235           -4603994.40        465502.66         
D13236           -4604003.80        465605.77         
D13243           -4604153.64        465613.46         
D13244           -4603917.82        465610.51         
D13248           -4603600.28        465617.94         
D13250           -4603597.52        465821.41         
D13251           -4603594.24        465924.96         
D13253           -4603592.32        466119.25         
D13691           -4603596.45        466216.26         
D13687           -4603589.78        466312.04         
D13686           -4603589.32        466412.51         
D13679           -4603587.32        466516.51         
D13678           -4603588.32        466567.51         
D13677           -4603586.32        466613.51         
D13666           -4603585.32        466719.51         
D13664           -4603584.32        466819.14         
D13653           -4603587.16        466920.14         
D13652           -4603590.70        467022.51         
D13773           -4603344.32        466769.14         
D13815           -4603340.32        466861.51         
D13814           -4603340.32        466912.51         
C23077           -4604860.38        466815.59         
C23104           -4604855.44        466910.86         
C23106           -4604855.44        467008.57         
C23107           -4604855.91        467073.68         
C22969A          -4604868.85        466108.93         
C22990           -4604864.32        466218.88         
C22925           -4605532.27        465616.23         
C22927           -4605632.59        465622.56         
C22926           -4605526.32        465763.01         
OF_Colfax        -4605722.95        465622.83         
19Adams          -4602836.24        471759.05         
25Adams          -4601716.63        471722.51         
C23172D          -4605399.45        467653.48         
PLANT            -4605524.67        467963.55         
plant_2          -4605719.02        467974.27         
plant_3          -4605845.17        467972.99         
wnode            -4605740.07        467652.73         
wpond            -4605859.81        467641.04         
node1            -4605518.96        467656.45         
N1               -4605476.37        467892.03         
wetwell          -4605625.41        467658.97         
N3               -4600188.28        472003.65         
N4               -4600231.43        472036.20         
N5               -4601728.20        470659.51         
N7               -4601731.54        470983.26         
N10              -4601714.45        471339.39         

[MAP]
DIMENSIONS -4606692.79 464997.06 -4596826.30 479419.49
Units      None

[REPORT]
SUBCATCHMENTS ALL
NODES ALL
LINKS ALL
