;; SWMM5 .inp converted from XPSWMM .xp file
;; Generated by XPSWMM Card Reader
;; Source format: XP_CARD | Original title: LFUCG Default  Database - Created by XP Software
;; Links parsed from source: 14 | Routable in this .inp: 13
;; NOTE: 1 link(s) classified Special (no conduit/pump/orifice/weir data — likely 2D-coupling or non-standard elements, excluded from routing): 227_2

[TITLE]
;;Project Title/Notes
LFUCG Default  Database - Created by XP Software

[OPTIONS]
FLOW_UNITS           CFS
INFILTRATION         HORTON
FLOW_ROUTING         DYNWAVE
LINK_OFFSETS         DEPTH
MIN_SLOPE            0.0
ALLOW_PONDING        NO
SKIP_STEADY_STATE    NO
ROUTING_STEP         00:01:00
VARIABLE_STEP        0.75
INERTIAL_DAMPING     PARTIAL
NORMAL_FLOW_LIMITED  BOTH
MAX_TRIALS           500
START_DATE           01/01/2001
START_TIME           00:00:00
REPORT_START_DATE    01/01/2001
REPORT_START_TIME    00:00:00
END_DATE             01/02/2001
END_TIME             00:00:00
SWEEP_START          01/01
SWEEP_END            12/31
DRY_DAYS             0
REPORT_STEP          00:15:00
WET_STEP             00:05:00
DRY_STEP             01:00:00

[JUNCTIONS]
;;Name           Elev       MaxDepth   InitDepth  SurDepth   Aponded
;;-------------- ---------- ---------- ---------- ---------- ----------
MH1              942.00     0          0          0          0
MH4              938.00     0          0          0          0
MH6              938.00     0          0          0          0
MH7              935.00     0          0          0          0
MH10             936.00     0          0          0          0
MH11             936.00     0          0          0          0
MH3              939.00     0          0          0          0
MH5              939.00     0          0          0          0
MH9              937.00     0          0          0          0
MH8              937.00     0          0          0          0
Riser            930.00     0          0          0          0
outfall          928.00     0          0          0          0
GWRecharge       934.00     0          0          0          0
street1          934.00     0          0          0          0
street2          931.50     0          0          0          0
street           930.00     0          0          0          0

[OUTFALLS]
;;Name           Elev       Type       Stage      Gated
;;-------------- ---------- ---------- ---------- -----
MH2              941.00     FREE                  NO

[STORAGE]
;;Name           Elev       MaxDepth   InitDepth  Shape      Curve/Params
;;-------------- ---------- ---------- ---------- ---------- ----------
Pond             934.00     10.00      5.00       FUNCTIONAL 1000.00 0          0

[CONDUITS]
;;Name           From             To               Length     Roughness  InOffset   OutOffset  InitFlow   MaxFlow
;;-------------- ---------------- ---------------- ---------- ---------- ---------- ---------- ---------- ----------
pipe1            street1          MH2              550.00     0.0140     934.00     932.00     0          0
pipe2            street2          MH4              250.00     0.0140     931.50     930.00     0          0
pipe             street           MH6              240.00     0.0140     930.00     929.00     0          0
207              MH6              MH7              110.00     0.0140     928.50     928.00     0          0
209              MH7              MH10             150.00     0.0140     927.50     927.00     0          0
211              MH10             MH11             130.00     0.0140     927.00     927.00     0          0
215              MH3              MH4              400.00     0.0140     932.00     930.50     0          0
217              MH5              MH6              320.00     0.0140     931.00     929.50     0          0
219              MH9              MH10             290.00     0.0140     931.00     928.50     0          0
221              MH8              MH7              245.00     0.0140     930.00     928.50     0          0
228.1            MH11             Pond             430.00     0.0140     927.00     925.00     0          0
233              Riser            outfall          300.00     0.0140     922.00     920.00     0          0

[ORIFICES]
;;Name           From             To               Type       Offset     Qcoeff     Gated    CloseTime
;;-------------- ---------------- ---------------- ---------- ---------- ---------- -------- ----------
227              Pond             Riser            SIDE       0          0.650      NO       0

[XSECTIONS]
;;Link           Shape        Geom1      Geom2      Geom3      Geom4      Barrels
;;-------------- ------------ ---------- ---------- ---------- ---------- ----------
pipe1            CIRCULAR     1.50       0          0          0          1
pipe2            CIRCULAR     1.50       0          0          0          1
pipe             CIRCULAR     1.50       0          0          0          1
207              CIRCULAR     2.00       0          0          0          1
209              CIRCULAR     2.00       0          0          0          1
211              CIRCULAR     2.00       0          0          0          1
215              CIRCULAR     1.50       0          0          0          1
217              CIRCULAR     1.50       0          0          0          1
219              CIRCULAR     1.50       0          0          0          1
221              CIRCULAR     2.00       0          0          0          1
228.1            TRAPEZOIDAL  9.00       10.00      2          2          1
233              CIRCULAR     2.00       0          0          0          1
227              RECT_CLOSED  0.16       0.16       0          0

[LOSSES]
;;Link           Inlet      Outlet     Average    Flap Gate
;;-------------- ---------- ---------- ---------- ----------
pipe1            0          0          0          NO
pipe2            0          0          0          NO
pipe             0          0          0          NO
207              0          0          0          NO
209              0          0          0          NO
211              0          0          0          NO
215              0          0          0          NO
217              0          0          0          NO
219              0          0          0          NO
221              0          0          0          NO
228.1            0          0          0          NO
233              0          0          0          NO

[INFLOWS]
;;Node           Constituent  Time Series      Type     Mfactor  Sfactor  Baseline Pattern
;;-------------- ------------ ---------------- -------- -------- -------- -------- --------
;; SYNTHETIC TEST INFLOWS — the source .xp carried no constant inflows
;; and RUNF hydrology is not converted; 1.00 CFS is applied at each
;; headwater node so the network runs wet for QA. Replace with real
;; hydrology or inflow hydrographs before using results.
MH3              FLOW         ""               FLOW     1.0      1.0      1.00
MH5              FLOW         ""               FLOW     1.0      1.0      1.00
MH9              FLOW         ""               FLOW     1.0      1.0      1.00
MH8              FLOW         ""               FLOW     1.0      1.0      1.00
street1          FLOW         ""               FLOW     1.0      1.0      1.00
street2          FLOW         ""               FLOW     1.0      1.0      1.00
street           FLOW         ""               FLOW     1.0      1.0      1.00

[COORDINATES]
;;Node           X-Coord            Y-Coord
;;-------------- ------------------ ------------------
MH1              -351066.17         1033232.46        
MH2              -351085.17         1032684.81        
MH4              -351327.54         1032656.81        
MH6              -351564.54         1032626.81        
MH7              -351675.54         1032604.19        
MH10             -351821.54         1032594.81        
MH11             -351949.54         1032581.81        
MH3              -351313.54         1033052.46        
MH5              -351555.54         1032943.46        
MH9              -351813.54         1032884.46        
MH8              -351647.54         1032358.46        
Pond             -351956.54         1032980.81        
Riser            -351899.54         1033044.81        
outfall          -351897.54         1033369.81        
GWRecharge       -351824.55         1033010.24        

[MAP]
DIMENSIONS -351956.54 1032358.46 -351066.17 1033369.81
Units      None

[REPORT]
SUBCATCHMENTS ALL
NODES ALL
LINKS ALL
