;; SWMM5 .inp converted from XPSWMM .xp file
;; Generated by XPSWMM Card Reader
;; Source format: XP_CARD | Original title: LFUCG Default  Database - Created by XP Software

[TITLE]
;;Project Title/Notes
LFUCG Default  Database - Created by XP Software

[OPTIONS]
FLOW_UNITS           CFS
INFILTRATION         HORTON
FLOW_ROUTING         DYNWAVE
LINK_OFFSETS         DEPTH
MIN_SLOPE            0.0
ALLOW_PONDING        NO
SKIP_STEADY_STATE    NO
ROUTING_STEP         00:01:00
VARIABLE_STEP        0.75
INERTIAL_DAMPING     PARTIAL
NORMAL_FLOW_LIMITED  BOTH
MAX_TRIALS           500
HEAD_TOLERANCE       0.0033
START_DATE           01/01/2001
START_TIME           00:00:00
REPORT_START_DATE    01/01/2001
REPORT_START_TIME    00:00:00
END_DATE             01/02/2001
END_TIME             00:00:00
SWEEP_START          01/01
SWEEP_END            12/31
DRY_DAYS             0
REPORT_STEP          00:15:00
WET_STEP             00:05:00
DRY_STEP             01:00:00

[JUNCTIONS]
;;Name           Elev       MaxDepth   InitDepth  SurDepth   Aponded
;;-------------- ---------- ---------- ---------- ---------- ----------
MH1              942.00     0          0          0          0
MH2              941.00     0          0          0          0
MH4              939.00     0          0          0          0
MH6              938.00     0          0          0          0
MH10             936.00     0          0          0          0
MH11             936.00     0          0          0          0
MH3              939.00     0          0          0          0
MH5              939.00     0          0          0          0
MH9              937.00     0          0          0          0
Pond             934.00     0          0          0          0
MH7              935.00     0          0          0          0
MH8              937.00     0          0          0          0
GWRecharge       934.00     0          0          0          0
street           934.00     0          0          0          0

[OUTFALLS]
;;Name           Elev       Type       Stage      Gated
;;-------------- ---------- ---------- ---------- -----
outfall          928.00     FREE                  NO

[STORAGE]
;;Name           Elev       MaxDepth   InitDepth  Shape      Curve/Params
;;-------------- ---------- ---------- ---------- ---------- ----------
Riser            930.00     10.00      0          FUNCTIONAL 9.00 0          0

[CONDUITS]
;;Name           From             To               Length     Roughness  InOffset   OutOffset  InitFlow   MaxFlow
;;-------------- ---------------- ---------------- ---------- ---------- ---------- ---------- ---------- ----------
pipe             street           MH2              550.00     0.0130     934.00     932.00     0          0
202              MH2              MH4              250.00     0.0130     931.50     930.00     0          0
204              MH4              MH6              240.00     0.0130     930.00     929.00     0          0
206              MH6              MH7              110.00     0.0130     928.50     928.00     0          0
208              MH10             MH11             130.00     0.0130     927.00     927.00     0          0
214              MH3              MH4              400.00     0.0130     932.00     930.50     0          0
216              MH5              MH6              320.00     0.0130     931.00     929.50     0          0
218              MH9              MH10             290.00     0.0130     931.00     928.50     0          0
210              MH11             Pond             430.00     0.0130     927.00     925.00     0          0
222              Riser            outfall          300.00     0.0130     922.00     920.00     0          0
229              MH8              MH7              245.00     0.0130     930.00     928.50     0          0
228              MH7              MH10             150.00     0.0130     927.50     927.00     0          0

[ORIFICES]
;;Name           From             To               Type       Offset     Qcoeff     Gated    CloseTime
;;-------------- ---------------- ---------------- ---------- ---------- ---------- -------- ----------
220              Pond             Riser            SIDE       0          0.650      NO       0

[XSECTIONS]
;;Link           Shape        Geom1      Geom2      Geom3      Geom4      Barrels
;;-------------- ------------ ---------- ---------- ---------- ---------- ----------
pipe             CIRCULAR     1.50       0          0          0          1
202              CIRCULAR     2.00       0          0          0          1
204              CIRCULAR     2.00       0          0          0          1
206              CIRCULAR     2.50       0          0          0          1
208              CIRCULAR     3.00       0          0          0          1
214              CIRCULAR     1.50       0          0          0          1
216              CIRCULAR     1.50       0          0          0          1
218              CIRCULAR     1.50       0          0          0          1
210              TRAPEZOIDAL  9.00       10.00      2          2          1
222              CIRCULAR     2.00       0          0          0          1
229              CIRCULAR     2.00       0          0          0          1
228              CIRCULAR     3.00       0          0          0          1
220              RECT_CLOSED  0.16       0.16       0          0

[LOSSES]
;;Link           Inlet      Outlet     Average    Flap Gate
;;-------------- ---------- ---------- ---------- ----------
pipe             0          0          0          NO
202              0          0          0          NO
204              0          0          0          NO
206              0          0          0          NO
208              0          0          0          NO
214              0          0          0          NO
216              0          0          0          NO
218              0          0          0          NO
210              0          0          0          NO
222              0          0          0          NO
229              0          0          0          NO
228              0          0          0          NO

[COORDINATES]
;;Node           X-Coord            Y-Coord
;;-------------- ------------------ ------------------
MH1              -351069.05         1033233.09        
MH2              -351086.91         1032685.24        
MH4              -351326.91         1032657.24        
MH6              -351565.01         1032627.24        
MH10             -351820.91         1032595.24        
MH11             -351948.91         1032581.13        
MH3              -351312.91         1033053.09        
MH5              -351554.91         1032944.09        
MH9              -351812.91         1032885.09        
Pond             -351959.33         1032981.24        
Riser            -351898.91         1033044.09        
outfall          -351896.91         1033369.09        
MH7              -351676.05         1032602.24        
MH8              -351646.91         1032359.09        
GWRecharge       -351815.70         1032978.74        

[MAP]
DIMENSIONS -351959.33 1032359.09 -351069.05 1033369.09
Units      None

[REPORT]
SUBCATCHMENTS ALL
NODES ALL
LINKS ALL
