;; SWMM5 .inp converted from XPSWMM .xp file
;; Generated by XPSWMM Card Reader
;; Source format: XP_CARD | Original title: (none)
;; Links parsed from source: 1959 | Routable in this .inp: 1959

[TITLE]
;;Project Title/Notes
Converted from XPSWMM .xp file

[OPTIONS]
FLOW_UNITS           CFS
INFILTRATION         HORTON
FLOW_ROUTING         DYNWAVE
LINK_OFFSETS         DEPTH
MIN_SLOPE            0.0
ALLOW_PONDING        NO
SKIP_STEADY_STATE    NO
ROUTING_STEP         00:01:00
VARIABLE_STEP        0.75
INERTIAL_DAMPING     PARTIAL
NORMAL_FLOW_LIMITED  BOTH
MAX_TRIALS           500
HEAD_TOLERANCE       0.0033
START_DATE           01/01/2001
START_TIME           00:00:00
REPORT_START_DATE    01/01/2001
REPORT_START_TIME    00:00:00
END_DATE             01/02/2001
END_TIME             00:00:00
SWEEP_START          01/01
SWEEP_END            12/31
DRY_DAYS             0
REPORT_STEP          00:15:00
WET_STEP             00:05:00
DRY_STEP             01:00:00

[JUNCTIONS]
;;Name           Elev       MaxDepth   InitDepth  SurDepth   Aponded
;;-------------- ---------- ---------- ---------- ---------- ----------
NLC0810          999.00     0          0          0          0
NLC0830          999.00     0          0          0          0
NLB0790          999.00     0          0          0          0
NLB0510          999.00     0          0          0          0
NLB0490          999.00     0          0          0          0
NLB0470          999.00     0          0          0          0
NLB0390          999.00     0          0          0          0
NLB0370          999.00     0          0          0          0
NLB0330          999.00     0          0          0          0
NLB0170          999.00     0          0          0          0
NLB0410          999.00     0          0          0          0
NLB0430          999.00     0          0          0          0
NLZ0001          999.00     0          0          0          0
NLC4670          999.00     0          0          0          0
NLB1110          999.00     0          0          0          0
NLB1090          999.00     0          0          0          0
NLB1130          999.00     0          0          0          0
NLB1150          999.00     0          0          0          0
NLB1030          999.00     0          0          0          0
NLB1230          999.00     0          0          0          0
NLB1210          999.00     0          0          0          0
NLB0810          999.00     0          0          0          0
NLB1010          999.00     0          0          0          0
NLB0990          999.00     0          0          0          0
NLB0970          999.00     0          0          0          0
NLB1050          999.00     0          0          0          0
NLB0930          999.00     0          0          0          0
NLB0910          999.00     0          0          0          0
NLB0890          999.00     0          0          0          0
NLB0870          999.00     0          0          0          0
NLB0850          999.00     0          0          0          0
NLC2050          999.00     0          0          0          0
NLB0830          999.00     0          0          0          0
NLB0650          999.00     0          0          0          0
NLB0670          999.00     0          0          0          0
NLB0610          999.00     0          0          0          0
NLB0750          999.00     0          0          0          0
NLB0630          999.00     0          0          0          0
NLB0590          999.00     0          0          0          0
NLA0510          999.00     0          0          0          0
NLA0470          999.00     0          0          0          0
NLA0490          999.00     0          0          0          0
NLA0450          999.00     0          0          0          0
NLA0410          999.00     0          0          0          0
NLA0230          999.00     0          0          0          0
NLA0350          999.00     0          0          0          0
NLA0310          999.00     0          0          0          0
NLB0730          999.00     0          0          0          0
NLB0710          999.00     0          0          0          0
NLB0690          999.00     0          0          0          0
NLC0930          999.00     0          0          0          0
NLC0950          999.00     0          0          0          0
NLC0990          999.00     0          0          0          0
NLC0970          999.00     0          0          0          0
NLC0870          999.00     0          0          0          0
NLC0890          999.00     0          0          0          0
NLC0910          999.00     0          0          0          0
NLC0850          999.00     0          0          0          0
NLB0130          999.00     0          0          0          0
NLB0230          999.00     0          0          0          0
NLB0110          999.00     0          0          0          0
NLB0210          999.00     0          0          0          0
NLB0090          999.00     0          0          0          0
NLB0190          999.00     0          0          0          0
NLB0010          999.00     0          0          0          0
NLN0430          999.00     0          0          0          0
NLN0390          999.00     0          0          0          0
NLN0110          999.00     0          0          0          0
NLN0290          999.00     0          0          0          0
NLN0250          999.00     0          0          0          0
NLN0230          999.00     0          0          0          0
NLN0030          999.00     0          0          0          0
NLN0050          999.00     0          0          0          0
NLN0090          999.00     0          0          0          0
NLN0070          999.00     0          0          0          0
NLC2890          999.00     0          0          0          0
NLC2570          999.00     0          0          0          0
NLC2550          999.00     0          0          0          0
NLC2590          999.00     0          0          0          0
NLC2530          999.00     0          0          0          0
NLC2610          999.00     0          0          0          0
NLC2650          999.00     0          0          0          0
NLC2630          999.00     0          0          0          0
NLC2770          999.00     0          0          0          0
NLC2810          999.00     0          0          0          0
NLG0490          999.00     0          0          0          0
NLG0470          999.00     0          0          0          0
NLG0450          999.00     0          0          0          0
NLG0430          999.00     0          0          0          0
NLG0410          999.00     0          0          0          0
NLG0390          999.00     0          0          0          0
NLG0370          999.00     0          0          0          0
NLG0630          999.00     0          0          0          0
NLG0610          999.00     0          0          0          0
NLG0650          999.00     0          0          0          0
NLG0570          999.00     0          0          0          0
NLG0550          999.00     0          0          0          0
NLG0330          999.00     0          0          0          0
NLG0270          999.00     0          0          0          0
NLI0510          999.00     0          0          0          0
NLI0410          999.00     0          0          0          0
NLI0430          999.00     0          0          0          0
NLI0390          999.00     0          0          0          0
NLI0230          999.00     0          0          0          0
NLI0350          999.00     0          0          0          0
NLI0090          999.00     0          0          0          0
NLI0070          999.00     0          0          0          0
NLI0050          999.00     0          0          0          0
NLI0030          999.00     0          0          0          0
NLI0010          999.00     0          0          0          0
NLM0310          999.00     0          0          0          0
NLM0290          999.00     0          0          0          0
NLE0250          999.00     0          0          0          0
NLE0230          999.00     0          0          0          0
NLM0250          999.00     0          0          0          0
NLM0230          999.00     0          0          0          0
NLM0210          999.00     0          0          0          0
NLM0370          999.00     0          0          0          0
NLM0430          999.00     0          0          0          0
NLM0410          999.00     0          0          0          0
NLM0190          999.00     0          0          0          0
NLM0170          999.00     0          0          0          0
NLM0070          999.00     0          0          0          0
NLE0210          999.00     0          0          0          0
NLE0150          999.00     0          0          0          0
NLE1150          999.00     0          0          0          0
NLE1170          999.00     0          0          0          0
NLE1130          999.00     0          0          0          0
NLE1110          999.00     0          0          0          0
NLE0090          999.00     0          0          0          0
NLE0070          999.00     0          0          0          0
NLE0050          999.00     0          0          0          0
NLE0030          999.00     0          0          0          0
NLG0110          999.00     0          0          0          0
NLG0170          999.00     0          0          0          0
NLG0190          999.00     0          0          0          0
NLG0230          999.00     0          0          0          0
NLG0150          999.00     0          0          0          0
NLG0130          999.00     0          0          0          0
NLG0310          999.00     0          0          0          0
NLG0290          999.00     0          0          0          0
NLG0250          999.00     0          0          0          0
NLG0210          999.00     0          0          0          0
NLE0550          999.00     0          0          0          0
NLE0490          999.00     0          0          0          0
NLE0310          999.00     0          0          0          0
NLE0270          999.00     0          0          0          0
NLK0010          999.00     0          0          0          0
NLK0270          999.00     0          0          0          0
NLK0230          999.00     0          0          0          0
NLK0250          999.00     0          0          0          0
NLK0030          999.00     0          0          0          0
NLK0210          999.00     0          0          0          0
NLK0310          999.00     0          0          0          0
NLK0290          999.00     0          0          0          0
NLK0090          999.00     0          0          0          0
NLK0050          999.00     0          0          0          0
NLC3390          999.00     0          0          0          0
NLK0130          999.00     0          0          0          0
NLK0170          999.00     0          0          0          0
NLK0150          999.00     0          0          0          0
NLC3950          999.00     0          0          0          0
NLC3930          999.00     0          0          0          0
NLC3910          999.00     0          0          0          0
NLC3850          999.00     0          0          0          0
NLC3830          999.00     0          0          0          0
NLC3690          999.00     0          0          0          0
NLC3770          999.00     0          0          0          0
NLC3790          999.00     0          0          0          0
NLC4170          999.00     0          0          0          0
NLC4150          999.00     0          0          0          0
NLC4130          999.00     0          0          0          0
NLC4690          999.00     0          0          0          0
NLC4610          999.00     0          0          0          0
NLC4650          999.00     0          0          0          0
NLC4630          999.00     0          0          0          0
NLC4490          999.00     0          0          0          0
NLC4050          999.00     0          0          0          0
NLC4070          999.00     0          0          0          0
NLC4190          999.00     0          0          0          0
NLC4530          999.00     0          0          0          0
NLC4510          999.00     0          0          0          0
NLC4090          999.00     0          0          0          0
NLC4110          999.00     0          0          0          0
NLC4010          999.00     0          0          0          0
NLC4030          999.00     0          0          0          0
NLC3610          999.00     0          0          0          0
NLC2710          999.00     0          0          0          0
NLC2430          999.00     0          0          0          0
NLC2690          999.00     0          0          0          0
NLC3630          999.00     0          0          0          0
NLC2410          999.00     0          0          0          0
NLC3490          999.00     0          0          0          0
NLC3570          999.00     0          0          0          0
NLC4450          999.00     0          0          0          0
NLC4430          999.00     0          0          0          0
NLC4410          999.00     0          0          0          0
NLC4350          999.00     0          0          0          0
NLC4310          999.00     0          0          0          0
NLC4290          999.00     0          0          0          0
NLC4330          999.00     0          0          0          0
NLC4270          999.00     0          0          0          0
NLC4230          999.00     0          0          0          0
NLC4250          999.00     0          0          0          0
NLC4210          999.00     0          0          0          0
NLC2330          999.00     0          0          0          0
NLC3510          999.00     0          0          0          0
NLC2230          999.00     0          0          0          0
NLC2250          999.00     0          0          0          0
NLC2390          999.00     0          0          0          0
NLC2510          999.00     0          0          0          0
NLC3350          999.00     0          0          0          0
NLC3130          999.00     0          0          0          0
NLC3090          999.00     0          0          0          0
NLC3110          999.00     0          0          0          0
NLC3190          999.00     0          0          0          0
NLB1170          999.00     0          0          0          0
NLC3210          999.00     0          0          0          0
NLC3250          999.00     0          0          0          0
NLC2490          999.00     0          0          0          0
NLC2030          999.00     0          0          0          0
NLC1930          999.00     0          0          0          0
NLC1890          999.00     0          0          0          0
NLC2070          999.00     0          0          0          0
NLC2090          999.00     0          0          0          0
NLC2110          999.00     0          0          0          0
NLC2150          999.00     0          0          0          0
NLC2170          999.00     0          0          0          0
NLC1810          999.00     0          0          0          0
NLC2190          999.00     0          0          0          0
NLC1850          999.00     0          0          0          0
NLG0530          999.00     0          0          0          0
NLG0510          999.00     0          0          0          0
NLC1370          999.00     0          0          0          0
NLC1350          999.00     0          0          0          0
NLC1390          999.00     0          0          0          0
NLC1410          999.00     0          0          0          0
NLC1490          999.00     0          0          0          0
NLC1470          999.00     0          0          0          0
NLC1250          999.00     0          0          0          0
NLC1270          999.00     0          0          0          0
NLC1330          999.00     0          0          0          0
NLC1210          999.00     0          0          0          0
NLC1110          999.00     0          0          0          0
NLC1230          999.00     0          0          0          0
NLC0670          999.00     0          0          0          0
NLC1050          999.00     0          0          0          0
NLC1030          999.00     0          0          0          0
NLC1010          999.00     0          0          0          0
NLC1510          999.00     0          0          0          0
NLC1590          999.00     0          0          0          0
NLC1570          999.00     0          0          0          0
NLC1870          999.00     0          0          0          0
NLC1950          999.00     0          0          0          0
NLC1970          999.00     0          0          0          0
NLC1910          999.00     0          0          0          0
NLC1990          999.00     0          0          0          0
NLC0750          999.00     0          0          0          0
NLC0790          999.00     0          0          0          0
NLC1130          999.00     0          0          0          0
NLC0730          999.00     0          0          0          0
NLC0690          999.00     0          0          0          0
NLC0710          999.00     0          0          0          0
NLC0650          999.00     0          0          0          0
NLC0550          999.00     0          0          0          0
NLC0510          999.00     0          0          0          0
NLC0450          999.00     0          0          0          0
NLC0330          999.00     0          0          0          0
NLC0230          999.00     0          0          0          0
NLC0630          999.00     0          0          0          0
NLC0610          999.00     0          0          0          0
NLC0530          999.00     0          0          0          0
NLC0370          999.00     0          0          0          0
NLC0350          999.00     0          0          0          0
NLC0270          999.00     0          0          0          0
NLC0470          999.00     0          0          0          0
NLC0250          999.00     0          0          0          0
NLC0110          999.00     0          0          0          0
NLC0090          999.00     0          0          0          0
NLC0070          999.00     0          0          0          0
NLC0010          999.00     0          0          0          0
NLC0170          999.00     0          0          0          0
NLC0130          999.00     0          0          0          0
NLC0030          999.00     0          0          0          0
NLA0110          999.00     0          0          0          0
NLA0070          999.00     0          0          0          0
NLA0090          999.00     0          0          0          0
NLA0210          999.00     0          0          0          0
NLA0030          999.00     0          0          0          0
NLA0010          999.00     0          0          0          0
NLA0050          999.00     0          0          0          0
NLC3410          999.00     0          0          0          0
NLC3430          999.00     0          0          0          0
NLC3150          999.00     0          0          0          0
NLB0270          999.00     0          0          0          0
NLB0030          999.00     0          0          0          0
NLI0470          999.00     0          0          0          0
NLI0290          999.00     0          0          0          0
NLI0270          999.00     0          0          0          0
NLG0070          999.00     0          0          0          0
NLG0010          999.00     0          0          0          0
NLE0010          999.00     0          0          0          0
NLG0090          999.00     0          0          0          0
NLG0030          999.00     0          0          0          0
NLG0050          999.00     0          0          0          0
NLE0730          999.00     0          0          0          0
NLC3070          999.00     0          0          0          0
NLP1590          999.00     0          0          0          0
NLP1570          999.00     0          0          0          0
NLP1490          999.00     0          0          0          0
NLP1510          999.00     0          0          0          0
NLP1470          999.00     0          0          0          0
NLP1530          999.00     0          0          0          0
NLP1450          999.00     0          0          0          0
NLP1430          999.00     0          0          0          0
NLP1370          999.00     0          0          0          0
NLP1270          999.00     0          0          0          0
NLP1250          999.00     0          0          0          0
NLP1410          999.00     0          0          0          0
NLP1390          999.00     0          0          0          0
NLP1330          999.00     0          0          0          0
NLP1310          999.00     0          0          0          0
NLP1230          999.00     0          0          0          0
NLP1210          999.00     0          0          0          0
NLP1190          999.00     0          0          0          0
NLP1170          999.00     0          0          0          0
NLP1150          999.00     0          0          0          0
NLP0910          999.00     0          0          0          0
NLP1130          999.00     0          0          0          0
NLP0890          999.00     0          0          0          0
NLP0830          999.00     0          0          0          0
NLP0350          999.00     0          0          0          0
NLP0330          999.00     0          0          0          0
NLP0370          999.00     0          0          0          0
NLP0310          999.00     0          0          0          0
NLP0970          999.00     0          0          0          0
NLP0950          999.00     0          0          0          0
NLP0930          999.00     0          0          0          0
NLP0990          999.00     0          0          0          0
NLP0750          999.00     0          0          0          0
NLP0870          999.00     0          0          0          0
NLP0810          999.00     0          0          0          0
NLP0790          999.00     0          0          0          0
NLP0710          999.00     0          0          0          0
NLP0610          999.00     0          0          0          0
NLP0630          999.00     0          0          0          0
NLP0650          999.00     0          0          0          0
NLP0090          999.00     0          0          0          0
NLP0070          999.00     0          0          0          0
NLP0470          999.00     0          0          0          0
NLP0450          999.00     0          0          0          0
NLE0750          999.00     0          0          0          0
NLE0510          999.00     0          0          0          0
NLE0530          999.00     0          0          0          0
NLP0190          999.00     0          0          0          0
NLP0170          999.00     0          0          0          0
NLP0150          999.00     0          0          0          0
NLP0010          999.00     0          0          0          0
NLP0050          999.00     0          0          0          0
NLD0950          999.00     0          0          0          0
NLD0890          999.00     0          0          0          0
NLD0830          999.00     0          0          0          0
NLD1190          999.00     0          0          0          0
NLD1250          999.00     0          0          0          0
NLD1290          999.00     0          0          0          0
NLD1070          999.00     0          0          0          0
NLD1150          999.00     0          0          0          0
NLC3170          999.00     0          0          0          0
NLP1350          999.00     0          0          0          0
NLD1370          999.00     0          0          0          0
NLD1350          999.00     0          0          0          0
NLD0810          999.00     0          0          0          0
NLD0690          999.00     0          0          0          0
NLD0710          999.00     0          0          0          0
NLD0670          999.00     0          0          0          0
NLD1030          999.00     0          0          0          0
NLD0970          999.00     0          0          0          0
NLD0630          999.00     0          0          0          0
NLD0170          999.00     0          0          0          0
NLD0130          999.00     0          0          0          0
NLD0410          999.00     0          0          0          0
NLD0370          999.00     0          0          0          0
NLD0390          999.00     0          0          0          0
NLD0350          999.00     0          0          0          0
NLD0110          999.00     0          0          0          0
NLD0090          999.00     0          0          0          0
NLD0590          999.00     0          0          0          0
NLD0530          999.00     0          0          0          0
NLD0470          999.00     0          0          0          0
NLD0030          999.00     0          0          0          0
NLN0330          999.00     0          0          0          0
NLE0810          999.00     0          0          0          0
NLE0790          999.00     0          0          0          0
NLE0770          999.00     0          0          0          0
NLE0910          999.00     0          0          0          0
NLE0970          999.00     0          0          0          0
NLE0850          999.00     0          0          0          0
NLE1010          999.00     0          0          0          0
NLE0870          999.00     0          0          0          0
NLE0390          999.00     0          0          0          0
NLE0410          999.00     0          0          0          0
NLE0330          999.00     0          0          0          0
NLE0990          999.00     0          0          0          0
NLN0450          999.00     0          0          0          0
NLN0410          999.00     0          0          0          0
NLI0450          999.00     0          0          0          0
NLM0330          999.00     0          0          0          0
NLM0050          999.00     0          0          0          0
NLM0030          999.00     0          0          0          0
NLM0010          999.00     0          0          0          0
NLK0110          999.00     0          0          0          0
NLC3370          999.00     0          0          0          0
NLC3310          999.00     0          0          0          0
NLE0290          999.00     0          0          0          0
NLK0190          999.00     0          0          0          0
NLP1610          999.00     0          0          0          0
NLE0190          999.00     0          0          0          0
NLE0170          999.00     0          0          0          0
NLE0130          999.00     0          0          0          0
NLI0310          999.00     0          0          0          0
NLI0250          999.00     0          0          0          0
NLP0730          999.00     0          0          0          0
NLP0270          999.00     0          0          0          0
NLP0110          999.00     0          0          0          0
NLD0990          999.00     0          0          0          0
NLD1010          999.00     0          0          0          0
NLD0210          999.00     0          0          0          0
NLE0470          999.00     0          0          0          0
NLD0550          999.00     0          0          0          0
NLC2970          999.00     0          0          0          0
NLD0910          999.00     0          0          0          0
NLC3010          999.00     0          0          0          0
NLC3030          999.00     0          0          0          0
NLB0950          999.00     0          0          0          0
NLC2370          999.00     0          0          0          0
NLE0670          999.00     0          0          0          0
NLE0650          999.00     0          0          0          0
NLE0590          999.00     0          0          0          0
NLE0630          999.00     0          0          0          0
NLE0610          999.00     0          0          0          0
NLE0710          999.00     0          0          0          0
NLE0830          999.00     0          0          0          0
NLC3330          999.00     0          0          0          0
NLD0510          999.00     0          0          0          0
NLD0490          999.00     0          0          0          0
NLC0570          999.00     0          0          0          0
NLP1550          999.00     0          0          0          0
NLP0410          999.00     0          0          0          0
NLC2950          999.00     0          0          0          0
NLA0430          999.00     0          0          0          0
NLP0030          999.00     0          0          0          0
NLP0130          999.00     0          0          0          0
NLP0390          999.00     0          0          0          0
NLN0310          999.00     0          0          0          0
NLC3450          999.00     0          0          0          0
NLC3230          999.00     0          0          0          0
NLB0450          999.00     0          0          0          0
NLP0850          999.00     0          0          0          0
NLD1210          999.00     0          0          0          0
NLD1230          999.00     0          0          0          0
NLD1130          999.00     0          0          0          0
NLD0190          999.00     0          0          0          0
NLD0150          999.00     0          0          0          0
NLC1190          999.00     0          0          0          0
NLC1290          999.00     0          0          0          0
NLP0210          999.00     0          0          0          0
NLC0770          999.00     0          0          0          0
NLC3870          999.00     0          0          0          0
NLC1430          999.00     0          0          0          0
NLC1630          999.00     0          0          0          0
NLC1710          999.00     0          0          0          0
NLC1730          999.00     0          0          0          0
NLC1750          999.00     0          0          0          0
NLC1770          999.00     0          0          0          0
NLC1670          999.00     0          0          0          0
NLC1690          999.00     0          0          0          0
NLC1650          999.00     0          0          0          0
NLA0370          999.00     0          0          0          0
NLA0330          999.00     0          0          0          0
NLP0550          999.00     0          0          0          0
NLP0570          999.00     0          0          0          0
NLP0510          999.00     0          0          0          0
NLP0490          999.00     0          0          0          0
NLP1110          999.00     0          0          0          0
NLP1090          999.00     0          0          0          0
NLD0610          999.00     0          0          0          0
NLP1650          999.00     0          0          0          0
NLP1070          999.00     0          0          0          0
NLP1030          999.00     0          0          0          0
NLP1010          999.00     0          0          0          0
NLP1050          999.00     0          0          0          0
NLD0650          999.00     0          0          0          0
NLC1550          999.00     0          0          0          0
NLC1530          999.00     0          0          0          0
NLP0530          999.00     0          0          0          0
NLC3670          999.00     0          0          0          0
NLC3650          999.00     0          0          0          0
NLC3050          999.00     0          0          0          0
NLG0590          999.00     0          0          0          0
NLP1290          999.00     0          0          0          0
NLD1050          999.00     0          0          0          0
NLC2670          999.00     0          0          0          0
NLD1270          999.00     0          0          0          0
NLP0430          999.00     0          0          0          0
NLD0790          999.00     0          0          0          0
NLN0350          999.00     0          0          0          0
NLN0170          999.00     0          0          0          0
NLN0150          999.00     0          0          0          0
NLN0130          999.00     0          0          0          0
NLN0210          999.00     0          0          0          0
NLN0270          999.00     0          0          0          0
NLN0190          999.00     0          0          0          0
NLB0770          999.00     0          0          0          0
NLC4370          999.00     0          0          0          0
NLZ0080          999.00     0          0          0          0
NLD1170          999.00     0          0          0          0
NLZ0020          999.00     0          0          0          0
NLC2310          999.00     0          0          0          0
NLC1150          999.00     0          0          0          0
NLC1170          999.00     0          0          0          0
NLP0250          999.00     0          0          0          0
NLD0010          999.00     0          0          0          0
NLC0590          999.00     0          0          0          0
NLC2990          999.00     0          0          0          0
NLC0430          999.00     0          0          0          0
NLC4570          999.00     0          0          0          0
NLZ0075          999.00     0          0          0          0
NLZ0065          999.00     0          0          0          0
NLZ0060          999.00     0          0          0          0
NLC2270          999.00     0          0          0          0
NLZ0000          999.00     0          0          0          0
NLZ0050          999.00     0          0          0          0
NLZ0025          999.00     0          0          0          0
NLZ0010          999.00     0          0          0          0
NLC1310          999.00     0          0          0          0
NLB1190          999.00     0          0          0          0
NLC2290          999.00     0          0          0          0
NLB0530          999.00     0          0          0          0
NLZ0070          999.00     0          0          0          0
NLZ0045          999.00     0          0          0          0
NLZ0040          999.00     0          0          0          0
NLZ0035          999.00     0          0          0          0
NLZ0055          999.00     0          0          0          0
NLZ0030          999.00     0          0          0          0
NLD0330          999.00     0          0          0          0
NLD0310          999.00     0          0          0          0
NLD0570          999.00     0          0          0          0
NLD0730          999.00     0          0          0          0
NLD1110          999.00     0          0          0          0
NLD1330          999.00     0          0          0          0
NLD1310          999.00     0          0          0          0
NLD0270          999.00     0          0          0          0
NLZ0015          999.00     0          0          0          0
NLC3970          999.00     0          0          0          0
NLC3890          999.00     0          0          0          0
NLD0770          999.00     0          0          0          0
NLC2930          999.00     0          0          0          0
NLC2910          999.00     0          0          0          0
NLC2870          999.00     0          0          0          0
NLD0870          999.00     0          0          0          0
NLD0850          999.00     0          0          0          0
NLC3710          999.00     0          0          0          0
NLC3750          999.00     0          0          0          0
NLC3730          999.00     0          0          0          0
NLC4470          999.00     0          0          0          0
NLC2350          999.00     0          0          0          0
NLC3530          999.00     0          0          0          0
NLC3550          999.00     0          0          0          0
NLN0010          999.00     0          0          0          0
NLC0210          999.00     0          0          0          0
NLC0190          999.00     0          0          0          0
NLA0190          999.00     0          0          0          0
NLA0150          999.00     0          0          0          0
NLA0130          999.00     0          0          0          0
NLA0170          999.00     0          0          0          0
NLC2830          999.00     0          0          0          0
NLB0050          999.00     0          0          0          0
NLB0070          999.00     0          0          0          0
NLI0490          999.00     0          0          0          0
NLC1450          999.00     0          0          0          0
NLC1790          999.00     0          0          0          0
NLG0350          999.00     0          0          0          0
NLM0350          999.00     0          0          0          0
NLM0150          999.00     0          0          0          0
NLM0130          999.00     0          0          0          0
NLM0090          999.00     0          0          0          0
NLM0110          999.00     0          0          0          0
NLM0390          999.00     0          0          0          0
NLM0270          999.00     0          0          0          0
NLI0370          999.00     0          0          0          0
NLC1610          999.00     0          0          0          0
NLC1090          999.00     0          0          0          0
NLC1070          999.00     0          0          0          0
NLE0110          999.00     0          0          0          0
NLE0370          999.00     0          0          0          0
NLE0450          999.00     0          0          0          0
NLE0690          999.00     0          0          0          0
NLE0570          999.00     0          0          0          0
NLE0890          999.00     0          0          0          0
NLE0950          999.00     0          0          0          0
NLE1090          999.00     0          0          0          0
NLE0930          999.00     0          0          0          0
NLE1070          999.00     0          0          0          0
NLE1050          999.00     0          0          0          0
NLE1030          999.00     0          0          0          0
NLE0430          999.00     0          0          0          0
NLE0350          999.00     0          0          0          0
NLC0490          999.00     0          0          0          0
NLC0310          999.00     0          0          0          0
NLC0290          999.00     0          0          0          0
NLC0150          999.00     0          0          0          0
NLC0050          999.00     0          0          0          0
NLI0210          999.00     0          0          0          0
NLI0170          999.00     0          0          0          0
NLI0190          999.00     0          0          0          0
NLI0150          999.00     0          0          0          0
NLI0130          999.00     0          0          0          0
NLI0110          999.00     0          0          0          0
NLC2130          999.00     0          0          0          0
NLC0410          999.00     0          0          0          0
NLC0390          999.00     0          0          0          0
NLC2010          999.00     0          0          0          0
NLB1070          999.00     0          0          0          0
NLA0250          999.00     0          0          0          0
NLA0270          999.00     0          0          0          0
NLA0290          999.00     0          0          0          0
NLB0290          999.00     0          0          0          0
NLB0310          999.00     0          0          0          0
NLB0350          999.00     0          0          0          0
NLN0370          999.00     0          0          0          0
NLC3270          999.00     0          0          0          0
NLC3290          999.00     0          0          0          0
NLK0070          999.00     0          0          0          0
NLP0290          999.00     0          0          0          0
NLP0230          999.00     0          0          0          0
NLP0690          999.00     0          0          0          0
NLP0670          999.00     0          0          0          0
NLP0770          999.00     0          0          0          0
NLC4390          999.00     0          0          0          0
NLC4730          999.00     0          0          0          0
NLC4710          999.00     0          0          0          0
NLP1630          999.00     0          0          0          0
NLC4550          999.00     0          0          0          0
NLC4590          999.00     0          0          0          0
NLC3990          999.00     0          0          0          0
NLC2210          999.00     0          0          0          0
NLC3810          999.00     0          0          0          0
NLC3590          999.00     0          0          0          0
NLC2730          999.00     0          0          0          0
NLC2790          999.00     0          0          0          0
NLC2750          999.00     0          0          0          0
NLD1090          999.00     0          0          0          0
NLD0070          999.00     0          0          0          0
NLD0050          999.00     0          0          0          0
NLD0450          999.00     0          0          0          0
NLD0430          999.00     0          0          0          0
NLD0930          999.00     0          0          0          0
NLD0290          999.00     0          0          0          0
NLD0250          999.00     0          0          0          0
NLD0230          999.00     0          0          0          0
NLB0570          999.00     0          0          0          0
NLB0150          999.00     0          0          0          0
NLI0330          999.00     0          0          0          0
NLC1830          999.00     0          0          0          0
NLC2470          999.00     0          0          0          0
NLC2450          999.00     0          0          0          0
NLA0390          999.00     0          0          0          0
NLB0250          999.00     0          0          0          0
NLZ0002          999.00     0          0          0          0
NLI0515          999.00     0          0          0          0
NLD0455          999.00     0          0          0          0
NLP0835          999.00     0          0          0          0
NLZ0006          999.00     0          0          0          0
NLZ0009          999.00     0          0          0          0
NLZ0320          999.00     0          0          0          0
NLH1390          999.00     0          0          0          0
NLH1370          999.00     0          0          0          0
NLH1290          999.00     0          0          0          0
NLH1270          999.00     0          0          0          0
NLZ0460          999.00     0          0          0          0
NLH1190          999.00     0          0          0          0
NLZ0400          999.00     0          0          0          0
NLZ0420          999.00     0          0          0          0
NLH1110          999.00     0          0          0          0
NLH1170          999.00     0          0          0          0
NLH1050          999.00     0          0          0          0
NLH1410          999.00     0          0          0          0
NLH1470          999.00     0          0          0          0
NLH0770          999.00     0          0          0          0
NLH0810          999.00     0          0          0          0
NLZ0480          999.00     0          0          0          0
NLZ0520          999.00     0          0          0          0
NLZ0540          999.00     0          0          0          0
NLH0250          999.00     0          0          0          0
NLH0290          999.00     0          0          0          0
NLH0210          999.00     0          0          0          0
NLH1010          999.00     0          0          0          0
NLH0970          999.00     0          0          0          0
NLH0670          999.00     0          0          0          0
NLH0470          999.00     0          0          0          0
NLH0930          999.00     0          0          0          0
NLH2620          999.00     0          0          0          0
NLH2560          999.00     0          0          0          0
NLH2760          999.00     0          0          0          0
NLH2660          999.00     0          0          0          0
NLH2780          999.00     0          0          0          0
NLH2160          999.00     0          0          0          0
NLH2680          999.00     0          0          0          0
NLH2480          999.00     0          0          0          0
NLH2500          999.00     0          0          0          0
NLH2378          999.00     0          0          0          0
NLH0490          999.00     0          0          0          0
NLH0430          999.00     0          0          0          0
NLH0390          999.00     0          0          0          0
NLH0450          999.00     0          0          0          0
NLH0330          999.00     0          0          0          0
NLH0570          999.00     0          0          0          0
NLH0170          999.00     0          0          0          0
NLL0850          999.00     0          0          0          0
NLH2100          999.00     0          0          0          0
NLH2120          999.00     0          0          0          0
NLL0810          999.00     0          0          0          0
NLH2140          999.00     0          0          0          0
NLH2238          999.00     0          0          0          0
NLH2200          999.00     0          0          0          0
NLH2720          999.00     0          0          0          0
NLH2460          999.00     0          0          0          0
NLH2300          999.00     0          0          0          0
NLH2260          999.00     0          0          0          0
NLH2320          999.00     0          0          0          0
NLH1900          999.00     0          0          0          0
NLO0050          999.00     0          0          0          0
NLO0070          999.00     0          0          0          0
NLO0190          999.00     0          0          0          0
NLO0170          999.00     0          0          0          0
NLH1680          999.00     0          0          0          0
NLH1620          999.00     0          0          0          0
NLZ0220          999.00     0          0          0          0
NLH0010          999.00     0          0          0          0
NLO0410          999.00     0          0          0          0
NLO0470          999.00     0          0          0          0
NLO0250          999.00     0          0          0          0
NLL0230          999.00     0          0          0          0
NLH1600          999.00     0          0          0          0
NLH2020          999.00     0          0          0          0
NLH1920          999.00     0          0          0          0
NLZ0440          999.00     0          0          0          0
NLH0090          999.00     0          0          0          0
NLH0050          999.00     0          0          0          0
NLH1820          999.00     0          0          0          0
NLO0270          999.00     0          0          0          0
NLH0870          999.00     0          0          0          0
NLH0630          999.00     0          0          0          0
NLH0710          999.00     0          0          0          0
NLH2080          999.00     0          0          0          0
NLH2220          999.00     0          0          0          0
NLH1960          999.00     0          0          0          0
NLO0390          999.00     0          0          0          0
NLO0490          999.00     0          0          0          0
NLO0350          999.00     0          0          0          0
NLH1940          999.00     0          0          0          0
NLO0370          999.00     0          0          0          0
NLH1230          999.00     0          0          0          0
NLH1130          999.00     0          0          0          0
NLH0730          999.00     0          0          0          0
NLH0270          999.00     0          0          0          0
NLH0890          999.00     0          0          0          0
NLH1330          999.00     0          0          0          0
NLH0070          999.00     0          0          0          0
NLH0080          999.00     0          0          0          0
NLH2420          999.00     0          0          0          0
NLH0690          999.00     0          0          0          0
NLH2520          999.00     0          0          0          0
NLH1070          999.00     0          0          0          0
NLH1090          999.00     0          0          0          0
NLH2540          999.00     0          0          0          0
NLH0370          999.00     0          0          0          0
NLH0510          999.00     0          0          0          0
NLH2180          999.00     0          0          0          0
NLH2600          999.00     0          0          0          0
NLO0310          999.00     0          0          0          0
NLH1980          999.00     0          0          0          0
NLH2280          999.00     0          0          0          0
NLH1640          999.00     0          0          0          0
NLH1700          999.00     0          0          0          0
NLH1760          999.00     0          0          0          0
NLH1740          999.00     0          0          0          0
NLH2580          999.00     0          0          0          0
NLH2700          999.00     0          0          0          0
NLH2640          999.00     0          0          0          0
NLH2360          999.00     0          0          0          0
NLH0610          999.00     0          0          0          0
NLH2040          999.00     0          0          0          0
NLH2000          999.00     0          0          0          0
NLH0650          999.00     0          0          0          0
NLH2740          999.00     0          0          0          0
NLO0430          999.00     0          0          0          0
NLH1840          999.00     0          0          0          0
NLJ0790          999.00     0          0          0          0
NLH2060          999.00     0          0          0          0
NLO0210          999.00     0          0          0          0
NLO0230          999.00     0          0          0          0
NLH1720          999.00     0          0          0          0
NLH1800          999.00     0          0          0          0
NLH1780          999.00     0          0          0          0
NLH1765          999.00     0          0          0          0
NLZ0200          999.00     0          0          0          0
NLO0330          999.00     0          0          0          0
NLO0290          999.00     0          0          0          0
NLO0030          999.00     0          0          0          0
NLO0010          999.00     0          0          0          0
NLH0030          999.00     0          0          0          0
NLH1350          999.00     0          0          0          0
NLH1210          999.00     0          0          0          0
NLH1150          999.00     0          0          0          0
NLH0850          999.00     0          0          0          0
NLH0910          999.00     0          0          0          0
NLH0230          999.00     0          0          0          0
NLZ0600          999.00     0          0          0          0
NLH1030          999.00     0          0          0          0
NLH0750          999.00     0          0          0          0
NLH0950          999.00     0          0          0          0
NLH0990          999.00     0          0          0          0
NLH0590          999.00     0          0          0          0
NLH0790          999.00     0          0          0          0
NLH2400          999.00     0          0          0          0
NLH2440          999.00     0          0          0          0
NLH0550          999.00     0          0          0          0
NLH0190          999.00     0          0          0          0
NLH0110          999.00     0          0          0          0
NLH1450          999.00     0          0          0          0
NLO0450          999.00     0          0          0          0
NLH1860          999.00     0          0          0          0
NLH1660          999.00     0          0          0          0
NLH1430          999.00     0          0          0          0
NLH1490          999.00     0          0          0          0
NLZ0580          999.00     0          0          0          0
NLJ0410          999.00     0          0          0          0
NLJ0570          999.00     0          0          0          0
NLJ0590          999.00     0          0          0          0
NLJ0270          999.00     0          0          0          0
NLJ1500          999.00     0          0          0          0
NLJ1480          999.00     0          0          0          0
NLJ0670          999.00     0          0          0          0
NLJ1903          999.00     0          0          0          0
NLJ2480          999.00     0          0          0          0
NLJ2600          999.00     0          0          0          0
NLJ0050          999.00     0          0          0          0
NLJ1540          999.00     0          0          0          0
NLJ0890          999.00     0          0          0          0
NLJ0650          999.00     0          0          0          0
NLL0710          999.00     0          0          0          0
NLL0289          999.00     0          0          0          0
NLL0350          999.00     0          0          0          0
NLJ2800          999.00     0          0          0          0
NLJ2320          999.00     0          0          0          0
NLJ1220          999.00     0          0          0          0
NLL0110          999.00     0          0          0          0
NLL0090          999.00     0          0          0          0
NLL0190          999.00     0          0          0          0
NLL0570          999.00     0          0          0          0
NLL0048          999.00     0          0          0          0
NLL0210          999.00     0          0          0          0
NLL0390          999.00     0          0          0          0
NLL0330          999.00     0          0          0          0
NLJ1158          999.00     0          0          0          0
NLL0770          999.00     0          0          0          0
NLL0550          999.00     0          0          0          0
NLJ1980          999.00     0          0          0          0
NLJ0030          999.00     0          0          0          0
NLJ0510          999.00     0          0          0          0
NLJ0750          999.00     0          0          0          0
NLJ1100          999.00     0          0          0          0
NLJ1060          999.00     0          0          0          0
NLJ1120          999.00     0          0          0          0
NLJ1380          999.00     0          0          0          0
NLJ1180          999.00     0          0          0          0
NLJ1640          999.00     0          0          0          0
NLJ1940          999.00     0          0          0          0
NLJ1960          999.00     0          0          0          0
NLJ2000          999.00     0          0          0          0
NLJ1520          999.00     0          0          0          0
NLJ1580          999.00     0          0          0          0
NLJ1600          999.00     0          0          0          0
NLJ1560          999.00     0          0          0          0
NLJ1660          999.00     0          0          0          0
NLJ1620          999.00     0          0          0          0
NLJ0070          999.00     0          0          0          0
NLJ0290          999.00     0          0          0          0
NLJ0370          999.00     0          0          0          0
NLJ0350          999.00     0          0          0          0
NLJ0610          999.00     0          0          0          0
NLJ0630          999.00     0          0          0          0
NLJ2840          999.00     0          0          0          0
NLJ2700          999.00     0          0          0          0
NLJ1260          999.00     0          0          0          0
NLJ2280          999.00     0          0          0          0
NLJ2260          999.00     0          0          0          0
NLJ2240          999.00     0          0          0          0
NLJ2460          999.00     0          0          0          0
NLJ2440          999.00     0          0          0          0
NLJ2220          999.00     0          0          0          0
NLJ2200          999.00     0          0          0          0
NLJ2100          999.00     0          0          0          0
NLJ2020          999.00     0          0          0          0
NLJ2040          999.00     0          0          0          0
NLJ2080          999.00     0          0          0          0
NLJ2120          999.00     0          0          0          0
NLJ1320          999.00     0          0          0          0
NLJ1800          999.00     0          0          0          0
NLJ1920          999.00     0          0          0          0
NLJ1760          999.00     0          0          0          0
NLJ1740          999.00     0          0          0          0
NLJ1820          999.00     0          0          0          0
NLJ1900          999.00     0          0          0          0
NLJ1860          999.00     0          0          0          0
NLJ1840          999.00     0          0          0          0
NLJ1700          999.00     0          0          0          0
NLJ2140          999.00     0          0          0          0
NLJ0490          999.00     0          0          0          0
NLJ0530          999.00     0          0          0          0
NLJ0090          999.00     0          0          0          0
NLJ0250          999.00     0          0          0          0
NLJ0170          999.00     0          0          0          0
NLJ0190          999.00     0          0          0          0
NLJ0210          999.00     0          0          0          0
NLJ2500          999.00     0          0          0          0
NLJ2420          999.00     0          0          0          0
NLJ0930          999.00     0          0          0          0
NLJ0910          999.00     0          0          0          0
NLJ0870          999.00     0          0          0          0
NLL0730          999.00     0          0          0          0
NLJ0730          999.00     0          0          0          0
NLL0750          999.00     0          0          0          0
NLJ0770          999.00     0          0          0          0
NLJ0710          999.00     0          0          0          0
NLJ0690          999.00     0          0          0          0
NLL0610          999.00     0          0          0          0
NLL0590          999.00     0          0          0          0
NLL0470          999.00     0          0          0          0
NLL0510          999.00     0          0          0          0
NLL0490          999.00     0          0          0          0
NLL0450          999.00     0          0          0          0
NLL0430          999.00     0          0          0          0
NLL0410          999.00     0          0          0          0
NLL0650          999.00     0          0          0          0
NLL0670          999.00     0          0          0          0
NLL0370          999.00     0          0          0          0
NLL0170          999.00     0          0          0          0
NLL0150          999.00     0          0          0          0
NLL0070          999.00     0          0          0          0
NLL0130          999.00     0          0          0          0
NLL0030          999.00     0          0          0          0
NLJ1400          999.00     0          0          0          0
NLJ1460          999.00     0          0          0          0
NLJ0130          999.00     0          0          0          0
NLJ0110          999.00     0          0          0          0
NLJ0550          999.00     0          0          0          0
NLL0910          999.00     0          0          0          0
NLL0930          999.00     0          0          0          0
NLL0790          999.00     0          0          0          0
NLJ1140          999.00     0          0          0          0
NLJ1340          999.00     0          0          0          0
NLJ0230          999.00     0          0          0          0
NLJ0150          999.00     0          0          0          0
NLJ2820          999.00     0          0          0          0
NLJ0390          999.00     0          0          0          0
NLJ0330          999.00     0          0          0          0
NLJ0310          999.00     0          0          0          0
NLJ0430          999.00     0          0          0          0
NLJ0450          999.00     0          0          0          0
NLJ0470          999.00     0          0          0          0
NLJ2300          999.00     0          0          0          0
NLJ1880          999.00     0          0          0          0
NLJ2378          999.00     0          0          0          0
NLJ1360          999.00     0          0          0          0
NLJ1040          999.00     0          0          0          0
NLJ1020          999.00     0          0          0          0
NLJ1000          999.00     0          0          0          0
NLJ1280          999.00     0          0          0          0
NLJ2060          999.00     0          0          0          0
NLJ1200          999.00     0          0          0          0
NLJ1240          999.00     0          0          0          0
NLJ1720          999.00     0          0          0          0
NLJ2160          999.00     0          0          0          0
NLJ2360          999.00     0          0          0          0
NLJ2780          999.00     0          0          0          0
NLJ2720          999.00     0          0          0          0
NLJ2760          999.00     0          0          0          0
NLJ2740          999.00     0          0          0          0
NLJ2660          999.00     0          0          0          0
NLJ2860          999.00     0          0          0          0
NLL0630          999.00     0          0          0          0
NLL0310          999.00     0          0          0          0
NLL0250          999.00     0          0          0          0
NLL0270          999.00     0          0          0          0
NLL0870          999.00     0          0          0          0
NLL0890          999.00     0          0          0          0
NLJ2680          999.00     0          0          0          0
NLJ2560          999.00     0          0          0          0
NLJ2540          999.00     0          0          0          0
NLL0010          999.00     0          0          0          0
NLO0090          999.00     0          0          0          0
NLH0410          999.00     0          0          0          0
NLH0310          999.00     0          0          0          0
NLL0830          999.00     0          0          0          0
NLJ2400          999.00     0          0          0          0
NLJ2340          999.00     0          0          0          0
NLJ1680          999.00     0          0          0          0
NLJ2520          999.00     0          0          0          0
NLJ2580          999.00     0          0          0          0
NLJ2620          999.00     0          0          0          0
NLJ1300          999.00     0          0          0          0
NLH2340          999.00     0          0          0          0
NLJ0010          999.00     0          0          0          0
NLL0668          999.00     0          0          0          0
NLJ2638          999.00     0          0          0          0
NLJ1418          999.00     0          0          0          0
NLH0530          999.00     0          0          0          0
NLH0350          999.00     0          0          0          0
NLH0130          999.00     0          0          0          0
NLH0150          999.00     0          0          0          0
NLO0150          999.00     0          0          0          0
NLO0130          999.00     0          0          0          0
NLO0110          999.00     0          0          0          0
NLH1250          999.00     0          0          0          0
NLZ0560          999.00     0          0          0          0
NLJ1780          999.00     0          0          0          0
NLZ0500          999.00     0          0          0          0
NLZ0340          999.00     0          0          0          0
NLZ0300          999.00     0          0          0          0
NLZ0240          999.00     0          0          0          0
NLZ0260          999.00     0          0          0          0
NLZ0360          999.00     0          0          0          0
NLZ0380          999.00     0          0          0          0
NLH2800          999.00     0          0          0          0
NLZ0610          999.00     0          0          0          0
NLH1770          999.00     0          0          0          0
NLH0933          999.00     0          0          0          0
NLH1763          999.00     0          0          0          0
NLH1769          999.00     0          0          0          0
NLJ2625          999.00     0          0          0          0
NLJ1878          999.00     0          0          0          0
NLH0931          999.00     0          0          0          0
NLJ1905          999.00     0          0          0          0
NLJ1882          999.00     0          0          0          0
NLJ2380          999.00     0          0          0          0
NLJ2640          999.00     0          0          0          0
NLL0690          999.00     0          0          0          0
NLH2380          999.00     0          0          0          0
NLJ1420          999.00     0          0          0          0
NLJ1160          999.00     0          0          0          0
NLJ2180          999.00     0          0          0          0
NLL0050          999.00     0          0          0          0
NLL0290          999.00     0          0          0          0
NLH1767          999.00     0          0          0          0
NLH0935          999.00     0          0          0          0
NLH2240          999.00     0          0          0          0
NLJ2182          999.00     0          0          0          0
NLJ1907          999.00     0          0          0          0
NLJ1010          999.00     0          0          0          0
NLJ0788          999.00     0          0          0          0
NLH1475          999.00     0          0          0          0
NLZ0003          999.00     0          0          0          0
NLZ0004          999.00     0          0          0          0
NLZ0005          999.00     0          0          0          0
NLZ0007          999.00     0          0          0          0
NLZ0008          999.00     0          0          0          0
NLZ0011          999.00     0          0          0          0
NLZ0012          999.00     0          0          0          0
NLP0590          999.00     0          0          0          0
HW_67            -3.27      0          0          0          0
HW_65            -2.94      0          0          0          0
HW_66            -2.83      0          0          0          0
HW_63            -2.60      0          0          0          0
HW_61            -2.30      0          0          0          0
HW_14            11.12      0          0          0          0
HW_94            10.46      0          0          0          0
HW_60            10.10      0          0          0          0
HW_67_2          -1.90      0          0          0          0
HW_70            0.62       0          0          0          0
HW_75_2          -0.70      0          0          0          0
HW_74            -0.88      0          0          0          0
HW_78            7.88       0          0          0          0
HW_83            6.12       0          0          0          0
HW_84            7.57       0          0          0          0
HW_85            6.56       0          0          0          0
HW_86            6.91       0          0          0          0
HW_87            7.92       0          0          0          0
HW_08            0.67       0          0          0          0
HW_23            -0.68      0          0          0          0
HW_91_2          -1.10      0          0          0          0
HW_12            -0.58      0          0          0          0
HW_10_2          -0.08      0          0          0          0
HW_09_2          0.12       0          0          0          0
HW_32            -1.22      0          0          0          0
HW_37            4.37       0          0          0          0
HW_41            0.85       0          0          0          0
HW_54_2          -0.80      0          0          0          0
HW_63_2          2.47       0          0          0          0
HW_14_4          0.28       0          0          0          0
HW_58_2          0.24       0          0          0          0
HW_59            0.20       0          0          0          0
HW_65_2          7.20       0          0          0          0
HW_64_2          6.62       0          0          0          0
HW_66_2          7.94       0          0          0          0
HW_67_3          6.48       0          0          0          0
HW_68            6.88       0          0          0          0
HW_70_2          9.02       0          0          0          0
HW_73_2          8.20       0          0          0          0
HW_75_3          4.12       0          0          0          0
HW_78_2          5.62       0          0          0          0
HW_48            1.84       0          0          0          0
HW_80            4.32       0          0          0          0
HW_79            1.22       0          0          0          0
HW_84_2          6.36       0          0          0          0
HW_86_2          5.40       0          0          0          0
HW_82_2          0.72       0          0          0          0
HW_88_2          4.12       0          0          0          0
HW_69_2          4.53       0          0          0          0
HW_05_2          8.55       0          0          0          0
HW_93_2          4.91       0          0          0          0
HW_50_2          -0.28      0          0          0          0
HW_53_3          2.60       0          0          0          0
HW_96_2          1.82       0          0          0          0
HW_44            6.03       0          0          0          0
HW_97            6.46       0          0          0          0
HW_98_2          6.28       0          0          0          0
HW_01            5.60       0          0          0          0
HW_00_2          5.95       0          0          0          0
HW_04_3          5.50       0          0          0          0
HW_06_2          5.35       0          0          0          0
HW_05_3          5.30       0          0          0          0
HW_09_3          7.12       0          0          0          0
HW_95            1.12       0          0          0          0
HW_38            1.12       0          0          0          0
HW_11_2          5.12       0          0          0          0
HW_82_3          4.12       0          0          0          0
HW_12_2          4.53       0          0          0          0
HW_15            10.82      0          0          0          0
HW_20_2          8.32       0          0          0          0
HW_71            2.92       0          0          0          0
HW_09_4          2.22       0          0          0          0
HW_71_2          6.42       0          0          0          0
HW_27            5.02       0          0          0          0
HW_29_2          4.37       0          0          0          0
HW_26_2          2.29       0          0          0          0
HW_51_3          2.96       0          0          0          0
HW_32_2          2.62       0          0          0          0
HW_36            8.07       0          0          0          0
HW_38_2          7.82       0          0          0          0
HW_96_3          2.05       0          0          0          0
HW_31_3          1.85       0          0          0          0
HW_53_4          1.69       0          0          0          0
HW_55_3          2.64       0          0          0          0
HW_23_2          4.00       0          0          0          0
HW_57_2          3.89       0          0          0          0
HW_59_2          4.34       0          0          0          0
HW_58_3          3.12       0          0          0          0
HW_54_3          1.49       0          0          0          0
HW_52_2          1.12       0          0          0          0
HW_83_2          -4.60      0          0          0          0
HW_84_3          1.10       0          0          0          0
HW_85_2          0.05       0          0          0          0
HW_86_3          -0.28      0          0          0          0
HW_87_2          0.20       0          0          0          0
HW_89_2          0.42       0          0          0          0
HW_93_3          0.12       0          0          0          0
HW_91_3          -0.88      0          0          0          0
HW_98_3          -0.88      0          0          0          0
HW_36_2          1.10       0          0          0          0
HW_03_2          -2.18      0          0          0          0
HW_02_2          -0.88      0          0          0          0
HW_04_4          -0.77      0          0          0          0
HW_05_4          1.50       0          0          0          0
HW_06_3          -1.08      0          0          0          0
HW_21            5.12       0          0          0          0
HW_16_2          2.72       0          0          0          0
HW_10_3          0.42       0          0          0          0
HW_13_2          0.68       0          0          0          0
HW_12_3          -0.16      0          0          0          0
HW_17_3          -0.88      0          0          0          0
HW_23_3          0.92       0          0          0          0
HW_24            0.44       0          0          0          0
HW_51_5          -2.20      0          0          0          0
HW_58_4          -1.28      0          0          0          0
HW_59_3          -1.28      0          0          0          0
HW_68_3          6.28       0          0          0          0
HW_82_4          -0.88      0          0          0          0
HW_88_3          -0.57      0          0          0          0
HW_93_4          -1.27      0          0          0          0
HW_89_3          -0.87      0          0          0          0
HW_27_4          3.50       0          0          0          0
HW_37_3          7.42       0          0          0          0
HW_36_4          5.32       0          0          0          0
HW_99_2          6.10       0          0          0          0
HW_45_4          5.12       0          0          0          0
HW_46_4          4.62       0          0          0          0
HW_29_6          2.42       0          0          0          0
HW_76_3          3.22       0          0          0          0
HW_16_3          3.52       0          0          0          0
HW_87_4          0.62       0          0          0          0
HW_25_2          -1.29      0          0          0          0
HW_12_4          -1.48      0          0          0          0
HW_58_5          0.50       0          0          0          0
HW_38_3          1.00       0          0          0          0
HW_18_3          1.72       0          0          0          0
HW_61_4          0.30       0          0          0          0
HW_19_3          1.22       0          0          0          0
HW_25_3          0.01       0          0          0          0
HW_20_5          5.00       0          0          0          0
HW_22_2          5.50       0          0          0          0
HW_99_4          3.50       0          0          0          0
HW_21_2          3.50       0          0          0          0
HW_27_5          9.36       0          0          0          0
HW_34_4          -0.56      0          0          0          0
HW_94_2          8.09       0          0          0          0
HW_50_5          1.40       0          0          0          0
HW_58_6          1.12       0          0          0          0
HW_59_4          4.32       0          0          0          0
HW_65_5          -0.55      0          0          0          0
HW_66_4          -5.19      0          0          0          0
HW_68_4          5.02       0          0          0          0
HW_71_4          8.24       0          0          0          0
HW_74_3          2.92       0          0          0          0
HW_75_5          4.12       0          0          0          0
HW_76_4          5.04       0          0          0          0
HW_77_4          5.32       0          0          0          0
HW_72_2          5.70       0          0          0          0
HW_80_3          3.31       0          0          0          0
HW_78_5          3.75       0          0          0          0
HW_97_4          4.50       0          0          0          0
HW_00_6          8.62       0          0          0          0
HW_01_4          1.92       0          0          0          0
HW_03_4          1.40       0          0          0          0
HW_92_2          8.92       0          0          0          0
HW_10_5          3.52       0          0          0          0
HW_11_3          2.84       0          0          0          0
HW_10_6          3.52       0          0          0          0
HW_12_5          1.94       0          0          0          0
HW_15_3          0.80       0          0          0          0
HW_07_3          5.12       0          0          0          0
HW_81_2          -1.60      0          0          0          0
HW_25_4          -0.92      0          0          0          0
HW_76_5          0.70       0          0          0          0
HW_33_3          10.60      0          0          0          0
HW_52_3          10.50      0          0          0          0
HW_33_4          1.90       0          0          0          0
HW_41_6          1.60       0          0          0          0
HW_25_5          3.10       0          0          0          0
HW_24_3          3.10       0          0          0          0
HW_74_4          8.70       0          0          0          0
HW_77_5          0.40       0          0          0          0
HW_80_4          4.50       0          0          0          0
HW_35_4          9.75       0          0          0          0
HW_49_7          2.92       0          0          0          0
HW_30_3          -0.43      0          0          0          0
HW_18_4          1.12       0          0          0          0
HW_32_6          0.35       0          0          0          0
HW_31_6          2.62       0          0          0          0
HW_35_5          0.12       0          0          0          0
HW_44_4          1.62       0          0          0          0
HW_36_5          -0.08      0          0          0          0
HW_20_6          0.62       0          0          0          0
HW_37_4          -0.21      0          0          0          0
HW_44_5          5.96       0          0          0          0
HW_38_4          5.20       0          0          0          0
HW_17_4          7.02       0          0          0          0
HW_21_3          6.43       0          0          0          0
HW_40_2          5.52       0          0          0          0
HW_90_4          -0.98      0          0          0          0
HW_92_4          2.00       0          0          0          0
HW_73_4          2.42       0          0          0          0
HW_16_4          0.19       0          0          0          0
HW_17_5          -0.21      0          0          0          0
HW_20_7          1.70       0          0          0          0
HW_19_4          1.59       0          0          0          0
HW_21_4          1.22       0          0          0          0
HW_22_4          1.14       0          0          0          0
HW_23_5          0.95       0          0          0          0
HW_24_4          6.62       0          0          0          0
HW_10_8          3.12       0          0          0          0
HW_52_4          4.93       0          0          0          0
HW_89_5          3.16       0          0          0          0
HW_54_5          6.32       0          0          0          0
HW_55_5          7.62       0          0          0          0
HW_56_5          6.52       0          0          0          0
HW_58_7          0.40       0          0          0          0
HW_59_5          0.20       0          0          0          0
HW_90_5          9.02       0          0          0          0
HW_81_3          9.01       0          0          0          0
HW_42_6          3.00       0          0          0          0
HW_45_7          -0.58      0          0          0          0
HW_46_6          -0.68      0          0          0          0
HW_47_4          0.42       0          0          0          0
HW_68_6          8.04       0          0          0          0
HW_55_6          8.04       0          0          0          0
HW_57_5          0.12       0          0          0          0
HW_58_8          6.82       0          0          0          0
HW_59_6          9.57       0          0          0          0
HW_61_5          10.40      0          0          0          0
HW_64_6          9.50       0          0          0          0
HW_67_6          6.78       0          0          0          0
HW_69_4          9.11       0          0          0          0
HW_33_6          4.25       0          0          0          0
HW_70_5          7.00       0          0          0          0
HW_08_6          7.12       0          0          0          0
HW_73_5          4.90       0          0          0          0
HW_73_6          7.12       0          0          0          0
HW_74_5          -0.89      0          0          0          0
HW_76_7          1.28       0          0          0          0
HW_77_6          2.30       0          0          0          0
HW_77_7          2.50       0          0          0          0
HW_79_4          1.11       0          0          0          0
HW_80_5          2.15       0          0          0          0
HW_82_5          0.12       0          0          0          0
HW_83_4          0.50       0          0          0          0
HW_72_3          6.12       0          0          0          0
HW_86_6          7.00       0          0          0          0
HW_24_5          -0.71      0          0          0          0
HW_89_6          0.57       0          0          0          0
HW_71_6          8.72       0          0          0          0
HW_70_6          7.05       0          0          0          0
HW_22_5          6.62       0          0          0          0
HW_90_6          0.72       0          0          0          0
HW_47_5          0.62       0          0          0          0
HW_12_7          -1.48      0          0          0          0
HW_12_8          -1.48      0          0          0          0
HW_16_5          7.22       0          0          0          0
HW_46_7          8.02       0          0          0          0
HW_69_5          2.50       0          0          0          0
HW_35_6          6.63       0          0          0          0
HW_07_6          7.93       0          0          0          0
HW_83_5          3.00       0          0          0          0
HW_10_9          9.12       0          0          0          0
HW_13_6          9.12       0          0          0          0
HW_25_7          7.10       0          0          0          0
HW_60_6          7.10       0          0          0          0
HW_98_8          8.20       0          0          0          0
HW_99_5          8.00       0          0          0          0
HW_50_7          9.50       0          0          0          0
HW_40_3          5.70       0          0          0          0
HW_81_4          7.88       0          0          0          0
HW_08_7          6.71       0          0          0          0
HW_85_4          9.07       0          0          0          0
HW_005MRLH2060   9.10       0          0          0          0
HW_26_6          6.12       0          0          0          0
HW_28_5          7.00       0          0          0          0
HW_12_9          7.80       0          0          0          0
HW_34_5          7.80       0          0          0          0
HW_33_7          8.22       0          0          0          0
HW_50_8          8.32       0          0          0          0
HW_87_7          9.50       0          0          0          0
HW_62_4          5.16       0          0          0          0
HW_66_7          4.22       0          0          0          0
HW_51_8          4.05       0          0          0          0
HW_003MRLH1840   1.21       0          0          0          0
HW_91_6          1.50       0          0          0          0
HW_008MRLH1720   0.20       0          0          0          0
HW_42_7          -1.68      0          0          0          0
HW_039MRLH1660   -1.38      0          0          0          0
HW_90_8          0.02       0          0          0          0
HW_38_5          0.42       0          0          0          0
HW_015MRLO0030   3.12       0          0          0          0
HW_78_6          7.40       0          0          0          0
HW_15_5          7.20       0          0          0          0
HW_032MRLH2440   6.63       0          0          0          0
HW_54_6          0.40       0          0          0          0
HW_74_6          -0.54      0          0          0          0
HW_75_8          -0.68      0          0          0          0
HW_017MRLH0030   -0.30      0          0          0          0
HW_41_7          1.02       0          0          0          0
HW_031MRLH2400   9.04       0          0          0          0
HW_018MRLH1350   7.02       0          0          0          0
HW_73_9          3.20       0          0          0          0
HW_31_7          8.62       0          0          0          0
HW_14_6          7.20       0          0          0          0
HW_035MRLH0110   1.50       0          0          0          0
HW_040MRLH1430   8.50       0          0          0          0
HW_012MRLZ0200   2.00       0          0          0          0
HW_29_7          5.69       0          0          0          0
HW_011MRLH1765   2.00       0          0          0          0
HW_001MRLH2740   7.04       0          0          0          0
HW_95_5          9.00       0          0          0          0
HW_15_6          10.47      0          0          0          0
HW_18_7          3.92       0          0          0          0
HW_96_5          8.75       0          0          0          0
HW_81_5          5.00       0          0          0          0
HW_11_5          -0.18      0          0          0          0
HW_33_9          -1.25      0          0          0          0
HW_35_7          -0.60      0          0          0          0
HW_40_5          2.90       0          0          0          0
HW_72_5          9.80       0          0          0          0
HW_77_8          8.30       0          0          0          0
HW_74_7          8.20       0          0          0          0
HW_85_6          5.30       0          0          0          0
HW_03_7          5.90       0          0          0          0
HW_02_8          5.50       0          0          0          0
HW_37_6          7.97       0          0          0          0
HW_34_6          3.60       0          0          0          0
HW_56_8          3.70       0          0          0          0
HW_80_8          -0.47      0          0          0          0
HW_82_6          -1.80      0          0          0          0
HW_88_6          -0.78      0          0          0          0
HW_92_6          -2.78      0          0          0          0
HW_16_7          -1.20      0          0          0          0
HW_15_7          -1.44      0          0          0          0
HW_18_8          -0.10      0          0          0          0
HW_25_8          1.10       0          0          0          0
HW_19_7          -0.10      0          0          0          0
HW_62_5          9.00       0          0          0          0
HW_78_7          2.00       0          0          0          0
HW_72_6          -0.17      0          0          0          0
HW_84_7          6.51       0          0          0          0
HW_001MRLH2740A  6.96       0          0          0          0
HW_94_7          6.95       0          0          0          0
HW_95_6          6.94       0          0          0          0
HW_93_7          6.93       0          0          0          0
HW_61_7          5.56       0          0          0          0
HW_55_7          0.23       0          0          0          0
HW_52_5          0.29       0          0          0          0
HW_54_7          -1.42      0          0          0          0
HW_27_6          0.16       0          0          0          0
HW_11_6          -1.42      0          0          0          0
HW_13_7          -1.50      0          0          0          0
HW_62_6          -0.29      0          0          0          0
HW_60_7          0.30       0          0          0          0
HW_93_8          9.71       0          0          0          0
HW_79_6          0          0          0          0          0
HW_27_7          5.18       0          0          0          0
HW_38_8          0          0          0          0          0
HW_50_9          0          0          0          0          0
HW_62_7          0          0          0          0          0
HW_71_8          0          0          0          0          0
HW_83_7          0          0          0          0          0
HW_90_9          0          0          0          0          0
HW_91_8          0          0          0          0          0
HW_91_9          0          0          0          0          0
HW_72_7          0          0          0          0          0
HW_17_8          0          0          0          0          0
HW_28_8          0          0          0          0          0
HW_30_7          0          0          0          0          0
HW_39_7          0          0          0          0          0
HW_40_8          0          0          0          0          0
HW_07_8          0          0          0          0          0
HW_14_8          0          0          0          0          0
HW_22_7          0          0          0          0          0
HW_73_10         0          0          0          0          0
HW_36_7          0          0          0          0          0
HW_12_10         0          0          0          0          0
HW_81_7          0          0          0          0          0
HW_79_7          0          0          0          0          0
HW_96_6          0          0          0          0          0
HW_99_8          0          0          0          0          0
HW_71_9          0          0          0          0          0
HW_43_7          0          0          0          0          0
HW_68_9          0          0          0          0          0
HW_85_8          9.96       0          0          0          0
HW_15_8          0          0          0          0          0
HW_102MOLJ2280B  8.27       0          0          0          0
HW_25_10         11.67      0          0          0          0
HW_09_8          11.05      0          0          0          0
HW_11_7          11.32      0          0          0          0
HW_11_8          11.53      0          0          0          0
HW_11_9          11.66      0          0          0          0
HW_85_9          11.02      0          0          0          0
HW_78_8          11.97      0          0          0          0
HW_15_9          11.88      0          0          0          0
HW_10_10         11.11      0          0          0          0
HW_15_10         10.97      0          0          0          0
HW_85_10         10.50      0          0          0          0
HW_10_11         11.38      0          0          0          0
HW_10_12         11.25      0          0          0          0
HW_85_11         12.13      0          0          0          0
HW_11_10         11.47      0          0          0          0
HW_13_9          11.29      0          0          0          0
HW_81_8          11.62      0          0          0          0
HW_07_9          10.21      0          0          0          0
HW_11_11         11.28      0          0          0          0
HW_016MOLO0010B  5.09       0          0          0          0
HW_008MOLH1720   4.08       0          0          0          0
HW_54_8          6.35       0          0          0          0
HW_89_8          5.13       0          0          0          0
HW_41_9          5.16       0          0          0          0
HW_41_10         5.14       0          0          0          0
HW_88_7          11.19      0          0          0          0
HW_98_9          10.94      0          0          0          0
HW_008MOLH1720B  4.29       0          0          0          0
HW_82_7          11.86      0          0          0          0
HW_032MOLH2440A  11.24      0          0          0          0
HW_28_9          11.86      0          0          0          0
HW_012MOLZ0200A  6.31       0          0          0          0
HW_23_8          6.53       0          0          0          0
HW_53_8          5.10       0          0          0          0
HW_11_12         11.22      0          0          0          0
HW_31_9          11.16      0          0          0          0
HW_98_10         11.29      0          0          0          0
HW_95_8          12.00      0          0          0          0
HW_036MOLH1450   12.31      0          0          0          0
HW_31_10         11.41      0          0          0          0
HW_53_9          5.40       0          0          0          0
HW_018MOLH1350A  8.61       0          0          0          0
HW_73_11         8.85       0          0          0          0
HW_13_10         11.09      0          0          0          0
HW_99_9          11.40      0          0          0          0
HW_34_8          10.65      0          0          0          0
HW_78_9          11.99      0          0          0          0
HW_15_11         10.45      0          0          0          0
HW_51_9          11.66      0          0          0          0
HW_82_8          10.25      0          0          0          0
HW_88_9          11.64      0          0          0          0
HW_93_9          11.71      0          0          0          0
HW_89_9          4.20       0          0          0          0
HW_67_9          5.15       0          0          0          0
HW_06_9          9.64       0          0          0          0
HW_50_10         4.84       0          0          0          0
HW_89_10         2.60       0          0          0          0
HW_23_9          6.93       0          0          0          0
HW_14_9          5.05       0          0          0          0
HW_10_13         5.91       0          0          0          0
HW_22_9          5.23       0          0          0          0
HW_22_10         5.44       0          0          0          0
HW_03_10         5.74       0          0          0          0
HW_03_11         4.10       0          0          0          0
HW_62_9          3.81       0          0          0          0
HW_62_10         4.25       0          0          0          0
HW_27_8          3.85       0          0          0          0
HW_62_11         4.14       0          0          0          0
HW_62_12         4.16       0          0          0          0
HW_62_13         4.01       0          0          0          0
HW_14_10         5.57       0          0          0          0
HW_51_10         1.79       0          0          0          0
HW_51_11         2.00       0          0          0          0
HW_50_11         6.15       0          0          0          0
HW_60_9          3.51       0          0          0          0
HW_79_11         8.46       0          0          0          0
HW_71_10         9.86       0          0          0          0
HW_85_13         9.43       0          0          0          0
HW_33_10         8.62       0          0          0          0
HW_59_9          12.41      0          0          0          0
HW_71_11         11.82      0          0          0          0
HW_59_10         11.92      0          0          0          0
HW_99_11         11.02      0          0          0          0
HW_79_12         8.08       0          0          0          0
HW_17_9          4.03       0          0          0          0
HW_71_12         12.36      0          0          0          0
HW_71_13         11.74      0          0          0          0
HW_53_10         11.17      0          0          0          0
HW_58_11         9.55       0          0          0          0
HW_26_9          8.81       0          0          0          0
HW_28_10         8.37       0          0          0          0
HW_28_11         8.14       0          0          0          0
HW_33_11         8.41       0          0          0          0
HW_79_13         8.10       0          0          0          0
HW_79_14         7.03       0          0          0          0
HW_58_12         11.93      0          0          0          0
HW_58_13         12.57      0          0          0          0
HW_71_14         12.62      0          0          0          0
HW_71_15         12.30      0          0          0          0
HW_72_9          12.20      0          0          0          0
HW_72_10         12.37      0          0          0          0
HW_68_10         12.08      0          0          0          0
HW_82_9          4.49       0          0          0          0
HW_53_11         12.09      0          0          0          0
HW_95_10         10.06      0          0          0          0
HW_26_10         8.05       0          0          0          0
HW_33_12         8.76       0          0          0          0
HW_67_10         11.45      0          0          0          0
HW_67_11         11.31      0          0          0          0
HW_53_12         9.61       0          0          0          0
HW_95_11         10.05      0          0          0          0
HW_31_11         8.29       0          0          0          0
HW_82_10         3.69       0          0          0          0
HW_96_8          7.46       0          0          0          0
HW_52_8          11.79      0          0          0          0
HW_67_12         11.47      0          0          0          0
HW_76_8          4.75       0          0          0          0
HW_19_12         5.01       0          0          0          0
HW_19_13         5.30       0          0          0          0
HW_90_11         9.64       0          0          0          0
HW_90_12         9.45       0          0          0          0
HW_50_16         9.55       0          0          0          0
HW_62_14         3.30       0          0          0          0
HW_38_9          3.04       0          0          0          0
HW_38_10         2.85       0          0          0          0
HW_38_11         3.53       0          0          0          0
HW_79_15         10.94      0          0          0          0
HW_50_17         4.15       0          0          0          0
HW_50_18         4.13       0          0          0          0
HW_89_11         5.84       0          0          0          0
HW_89_12         6.65       0          0          0          0
HW_89_13         6.01       0          0          0          0
HW_23_10         6.65       0          0          0          0
HW_25_12         6.58       0          0          0          0
HW_09_9          6.57       0          0          0          0
HW_23_11         6.45       0          0          0          0
HW_10_14         1.80       0          0          0          0
HW_09_10         5.62       0          0          0          0
HW_40_11         7.97       0          0          0          0
HW_98_12         10.50      0          0          0          0
HW_99_12         11.23      0          0          0          0
HW_38_12         6.08       0          0          0          0
HW_02_14         6.33       0          0          0          0
HW_17_11         10.11      0          0          0          0
HW_38_13         8.47       0          0          0          0
HW_07_15         5.89       0          0          0          0
HW_17_12         9.83       0          0          0          0
HW_01_12         10.75      0          0          0          0
HW_17_13         10.15      0          0          0          0
HW_17_14         10.77      0          0          0          0
HW_21_9          10.84      0          0          0          0
HW_40_12         6.83       0          0          0          0
HW_05_15         5.05       0          0          0          0
HW_02_15         10.55      0          0          0          0
HW_21_10         10.51      0          0          0          0
HW_02_16         10.20      0          0          0          0
HW_39_12         10.30      0          0          0          0
HW_39_13         10.83      0          0          0          0
HW_39_14         10.34      0          0          0          0
HW_27_9          5.10       0          0          0          0
HW_22_11         7.68       0          0          0          0
HW_22_12         7.41       0          0          0          0
HW_68_11         9.75       0          0          0          0
HW_21_11         5.63       0          0          0          0
HW_05_16         4.33       0          0          0          0
HW_05_17         4.26       0          0          0          0
HW_32_9          5.27       0          0          0          0
HW_83_9          9.76       0          0          0          0
HW_83_10         9.74       0          0          0          0
HW_81_9          10.24      0          0          0          0
HW_81_10         10.35      0          0          0          0
HW_79_16         10.77      0          0          0          0
HW_50_19         10.29      0          0          0          0
HW_81_11         9.68       0          0          0          0
HW_86_10         11.71      0          0          0          0
HW_82_11         9.79       0          0          0          0
HW_85_14         9.48       0          0          0          0
HW_50_20         10.88      0          0          0          0
HW_82_12         9.09       0          0          0          0
HW_35_10         5.49       0          0          0          0
HW_92_7          3.95       0          0          0          0
HW_22_13         9.98       0          0          0          0
HW_50_21         10.52      0          0          0          0
HW_38_14         7.56       0          0          0          0
HW_34_9          5.04       0          0          0          0
HW_50_22         10.55      0          0          0          0
HW_68_12         12.56      0          0          0          0
HW_18_10         11.67      0          0          0          0
HW_07_16         10.88      0          0          0          0
HW_06_12         9.82       0          0          0          0
HW_06_13         10.43      0          0          0          0
HW_71_16         10.51      0          0          0          0
HW_21_12         10.53      0          0          0          0
HW_69_9          8.41       0          0          0          0
HW_50_23         10.53      0          0          0          0
HW_95_14         10.98      0          0          0          0
HW_33_13         8.45       0          0          0          0
HW_75_9          8.32       0          0          0          0
HW_87_10         11.99      0          0          0          0
HW_50_24         10.50      0          0          0          0
HW_53_13         11.11      0          0          0          0
HW_53_14         9.89       0          0          0          0
HW_45_17         10.98      0          0          0          0
HW_17_15         9.72       0          0          0          0
HW_67_13         11.18      0          0          0          0
HW_05_18         11.66      0          0          0          0
HW_96_11         7.03       0          0          0          0
HW_79_17         11.97      0          0          0          0
HW_05_19         11.88      0          0          0          0
HW_30_11         8.33       0          0          0          0
HW_30_12         8.51       0          0          0          0
HW_22_14         9.08       0          0          0          0
HW_25_13         6.66       0          0          0          0
HW_79_18         12.35      0          0          0          0
HW_16_8          11.06      0          0          0          0
HW_24_10         8.12       0          0          0          0
HW_79_19         11.83      0          0          0          0
HW_55_10         8.45       0          0          0          0
HW_85_15         11.57      0          0          0          0
HW_58_14         3.57       0          0          0          0
HW_22_15         10.41      0          0          0          0
HW_65_9          5.35       0          0          0          0
HW_24_11         6.10       0          0          0          0
HW_79_20         11.70      0          0          0          0
HW_79_21         9.34       0          0          0          0
HW_79_22         8.39       0          0          0          0
HW_12_14         9.16       0          0          0          0
HW_58_15         3.95       0          0          0          0
HW_82_13         5.00       0          0          0          0
HW_58_16         5.18       0          0          0          0
HW_27_10         8.06       0          0          0          0
HW_52_9          12.70      0          0          0          0
HW_76_10         4.74       0          0          0          0
HW_76_11         5.13       0          0          0          0
HW_56_14         11.41      0          0          0          0
HW_59_11         8.19       0          0          0          0
HW_59_12         7.65       0          0          0          0
HW_66_11         2.44       0          0          0          0
HW_59_13         4.48       0          0          0          0
HW_56_15         11.78      0          0          0          0
HW_82_14         10.68      0          0          0          0
HW_87_14         11.86      0          0          0          0
HW_89_16         2.83       0          0          0          0
HW_23_14         8.21       0          0          0          0
HW_76_12         6.09       0          0          0          0
HW_76_13         4.91       0          0          0          0
HW_78_10         12.45      0          0          0          0
HW_82_15         11.59      0          0          0          0
HW_10_15         8.29       0          0          0          0
HW_77_9          5.98       0          0          0          0
HW_15_16         6.17       0          0          0          0
HW_87_16         12.38      0          0          0          0
HW_33_14         12.78      0          0          0          0
HW_78_11         14.03      0          0          0          0
HW_59_15         7.51       0          0          0          0
HW_82_16         12.09      0          0          0          0
HW_74_8          4.25       0          0          0          0
HW_77_10         4.72       0          0          0          0
HW_27_11         8.02       0          0          0          0
HW_27_12         8.00       0          0          0          0
HW_77_12         4.47       0          0          0          0
HW_10_16         7.50       0          0          0          0
HW_15_17         5.45       0          0          0          0
HW_77_13         5.18       0          0          0          0
HW_82_17         12.20      0          0          0          0
HW_22_16         11.36      0          0          0          0
HW_82_18         12.40      0          0          0          0
HW_36_10         12.97      0          0          0          0
HW_64_14         12.98      0          0          0          0
HW_47_11         8.01       0          0          0          0
HW_36_11         13.41      0          0          0          0
HW_36_12         11.91      0          0          0          0
HW_75_10         4.65       0          0          0          0
HW_75_11         5.04       0          0          0          0
HW_67_14         4.96       0          0          0          0
HW_74_9          5.18       0          0          0          0
HW_67_15         4.97       0          0          0          0
HW_63_8          4.27       0          0          0          0
HW_67_16         7.02       0          0          0          0
HW_15_18         13.96      0          0          0          0
HW_61_10         5.64       0          0          0          0
HW_45_18         7.70       0          0          0          0
HW_43_12         8.23       0          0          0          0
HW_67_17         5.52       0          0          0          0
HW_67_18         5.88       0          0          0          0
HW_67_19         5.55       0          0          0          0
HW_82_19         4.05       0          0          0          0
HW_67_20         4.46       0          0          0          0
HW_14_14         13.22      0          0          0          0
HW_67_21         5.05       0          0          0          0
HW_12_15         5.78       0          0          0          0
HW_12_16         6.23       0          0          0          0
HW_68_18         11.99      0          0          0          0
HW_68_19         12.11      0          0          0          0
HW_87_17         4.06       0          0          0          0
HW_87_18         5.19       0          0          0          0
HW_87_19         5.40       0          0          0          0
HW_54_9          2.42       0          0          0          0
HW_62_18         3.55       0          0          0          0
HW_27_15         3.51       0          0          0          0
HW_55_14         4.00       0          0          0          0
HW_60_15         3.42       0          0          0          0
HW_58_17         3.95       0          0          0          0
HW_18_15         3.89       0          0          0          0
HW_14_15         2.64       0          0          0          0
HW_58_18         2.75       0          0          0          0
HW_59_16         3.55       0          0          0          0
HW_54_10         2.28       0          0          0          0
HW_57_13         6.42       0          0          0          0
HW_74_10         4.10       0          0          0          0
HW_87_20         4.34       0          0          0          0
HW_89_18         4.03       0          0          0          0
HW_83_11         3.73       0          0          0          0
HW_76_14         3.82       0          0          0          0
HW_35_13         5.22       0          0          0          0
HW_18_16         3.35       0          0          0          0
HW_23_15         6.22       0          0          0          0
HW_19_16         5.79       0          0          0          0
HW_89_19         6.06       0          0          0          0
HW_19_17         5.93       0          0          0          0
HW_83_12         0          0          0          0          0

[OUTFALLS]
;;Name           Elev       Type       Stage      Gated
;;-------------- ---------- ---------- ---------- -----
NLB0550          999.00     FREE                  NO

[CONDUITS]
;;Name           From             To               Length     Roughness  InOffset   OutOffset  InitFlow   MaxFlow
;;-------------- ---------------- ---------------- ---------- ---------- ---------- ---------- ---------- ----------
75               NLP1470          NLI0510          357.00     0.0120     4.59       3.66       0          0
76               NLC1870          NLD0450          525.00     0.0120     9.40       9.00       0          0
77               NLN0370          NLP0830          440.00     0.0120     0.98       0          0          0
18               NLJ1560          NLB1050          42.00      0.0240     4.80       4.71       0          0
04               NLP0650          NLB0790          42.00      0.0120     0.32       0.25       0          0
67               HW_67            NLZ0002          210.00     0.0120     0          0          0          0
65               HW_65            NLB0010          335.00     0.0120     0          0          0          0
66               HW_66            NLB0010          335.00     0.0120     0          0          0          0
63               HW_63            NLB0090          371.00     0.0120     0          0          0          0
64               NLB0370          NLB0190          371.00     0.0120     0          0          0          0
61               HW_61            NLB0110          319.00     0.0120     0          0          0          0
62               NLB0910          NLB0210          319.00     0.0120     0          0          0          0
14               HW_14            NLC3130          583.00     0.0120     11.12      11.04      0          0
94               HW_94            NLC3390          82.00      0.0120     10.46      10.62      0          0
60               HW_60            NLC3430          173.00     0.0120     10.10      9.32       0          0
67_2             HW_67_2          NLB0130          441.00     0.0120     0          0          0          0
11               NLE1130          NLB0170          98.00      0.0120     0          0          0          0
10               NLC3770          NLB0330          448.00     0.0120     0          0          0          0
09               NLC2710          NLB0370          407.00     0.0120     0          0          0          0
60_2             NLC1030          NLB0390          184.00     0.0120     0          0          0          0
45               NLC1030          NLA0410          614.00     0.0120     1.79       0.12       0          0
46               NLC2230          NLA0390          718.00     0.0120     0.12       0          0          0
82               NLE1130          NLA0310          270.00     0.0120     0.62       0.19       0          0
49               NLI0050          NLA0230          250.00     0.0120     0.19       0          0          0
50               NLZ0075          NLB0710          390.00     0.0120     4.82       4.41       0          0
51               NLN0170          NLB0690          502.00     0.0120     4.41       3.88       0          0
52               NLP1650          NLB0670          141.00     0.0120     3.88       3.67       0          0
54               NLH2020          NLC0930          136.00     0.0120     2.87       2.16       0          0
55               NLH1700          NLC0950          277.00     0.0120     3.16       2.87       0          0
56               NLH0730          NLC0950          71.00      0.0120     3.62       3.42       0          0
53               NLH2200          NLC0870          215.00     0.0120     1.66       1.43       0          0
58               NLH1170          NLC0870          30.00      0.0120     6.48       5.77       0          0
57               NLC2470          NLC0850          236.00     0.0120     1.43       0.68       0          0
14_2             NLN0110          NLN0250          255.00     0.0120     2.36       1.89       0          0
72               NLB0730          NLN0230          220.00     0.0120     1.89       1.32       0          0
73               NLB0910          NLN0190          528.00     0.0120     1.32       0.80       0          0
69               NLC2710          NLN0370          718.00     0.0120     0          0          0          0
70               HW_70            NLN0050          716.00     0.0120     0.62       0          0          0
75_2             HW_75_2          NLN0030          111.00     0.0120     0          0          0          0
74               HW_74            NLN0010          340.00     0.0120     0          0          0          0
78               HW_78            NLC2610          622.00     0.0120     7.88       6.62       0          0
83               HW_83            NLC2590          24.00      0.0120     6.12       6.02       0          0
84               HW_84            NLC2630          230.00     0.0120     7.57       7.06       0          0
85               HW_85            NLC2610          196.00     0.0120     6.56       6.12       0          0
86               HW_86            NLC2730          272.00     0.0120     6.91       6.32       0          0
87               HW_87            NLC2770          314.00     0.0120     7.92       6.91       0          0
88               NLA0210          NLG0470          263.00     0.0120     5.61       4.86       0          0
89               NLC0330          NLG0430          105.00     0.0120     4.86       4.70       0          0
90               NLC1030          NLG0430          45.00      0.0120     5.10       5.00       0          0
91               NLC2170          NLG0410          62.00      0.0120     4.32       4.71       0          0
93               NLC2710          NLG0370          21.00      0.0230     5.49       5.70       0          0
96               NLM0330          NLG0590          20.00      0.0120     9.02       8.32       0          0
98               NLD1150          NLG0550          75.00      0.0120     6.49       6.39       0          0
00               NLE1130          NLG0270          194.00     0.0120     4.22       2.85       0          0
02               NLP1590          NLI0430          950.00     0.0120     3.54       2.55       0          0
04_2             NLC2170          NLI0390          491.00     0.0120     2.55       2.03       0          0
03               NLC2230          NLI0390          450.00     0.0120     1.60       0.70       0          0
05               NLC2710          NLI0350          605.00     0.0120     2.03       1.40       0          0
07               NLK0010          NLI0090          647.00     0.0120     1.40       0.72       0          0
08               HW_08            NLI0070          45.00      0.0120     0.67       0.62       0          0
06               NLB0910          NLI0090          120.00     0.0120     0.84       0.12       0          0
13               NLI0050          NLM0290          274.00     0.0120     2.32       1.82       0          0
14_3             NLG0450          NLM0250          657.00     0.0220     1.82       1.52       0          0
18_2             NLB0910          NLM0210          240.00     0.0120     0.32       0          0          0
17               NLB0730          NLM0230          42.00      0.0120     0.52       0.32       0          0
22               NLC2230          NLM0370          31.00      0.0090     5.40       5.32       0          0
19               NLB0370          NLM0190          192.00     0.0120     0          0          0          0
23               HW_23            NLM0170          42.00      0.0120     0          0          0          0
20               NLC3770          NLM0330          700.00     0.0120     0.85       0          0          0
91_2             HW_91_2          NLM0070          211.00     0.0120     0          0          0          0
12               HW_12            NLZ0001          80.00      0.0120     0          0          0          0
10_2             HW_10_2          NLI0030          66.00      0.0120     0          0          0          0
09_2             HW_09_2          NLI0050          70.00      0.0120     0.12       0.02       0          0
26               NLB0370          NLE0230          386.00     0.0120     1.14       0.74       0          0
28               NLL0410          NLE1170          59.00      0.0120     0.14       0.07       0          0
29               NLJ0150          NLE1130          196.00     0.0120     0          0          0          0
31               NLJ2020          NLE0090          94.00      0.0120     0          0          0          0
32               HW_32            NLE0070          75.00      0.0120     0          0          0          0
39               NLB0910          NLG0150          19.00      0.0120     2.86       2.90       0          0
37               HW_37            NLG0150          100.00     0.0120     4.37       4.00       0          0
41               HW_41            NLG0110          235.00     0.0120     0.85       1.20       0          0
43               NLG0450          NLG0270          50.00      0.0120     5.16       4.99       0          0
45_2             NLB0370          NLG0150          37.00      0.0120     4.00       3.80       0          0
56_2             NLP1590          NLE0490          546.00     0.0120     2.12       0          0          0
31_2             NLC0330          NLE1130          182.00     0.0120     0          0          0          0
17_2             NLG0450          NLE0090          200.00     0.0120     0.45       0          0          0
16               NLB0910          NLE0090          94.00      0.0120     0.63       0.61       0          0
51_2             NLN0110          NLK0250          1274.00    0.0120     0          0          0          0
53_2             NLB0730          NLK0230          101.00     0.0120     0          0          0          0
55_2             NLB0370          NLK0030          36.00      0.0120     0          0          0          0
54_2             HW_54_2          NLZ0001          30.00      0.0120     0          0          0          0
56_3             NLI0050          NLK0290          72.00      0.0120     0          0          0          0
63_2             HW_63_2          NLK0130          200.00     0.0120     2.47       1.72       0          0
14_4             HW_14_4          NLK0090          147.00     0.0120     0.28       0.26       0          0
58_2             HW_58_2          NLK0050          35.00      0.0120     0.24       0.22       0          0
59               HW_59            NLK0030          35.00      0.0120     0.20       0.18       0          0
65_2             HW_65_2          NLC3910          130.00     0.0120     7.20       7.00       0          0
64_2             HW_64_2          NLC3930          30.00      0.0120     6.62       6.32       0          0
66_2             HW_66_2          NLC3850          350.00     0.0120     7.94       6.54       0          0
67_3             HW_67_3          NLC3830          162.00     0.0120     6.48       6.67       0          0
68               HW_68            NLC3810          1150.00    0.0120     6.88       4.93       0          0
70_2             HW_70_2          NLC3690          36.00      0.0120     9.02       8.82       0          0
73_2             HW_73_2          NLC4130          66.00      0.0240     8.20       8.00       0          0
75_3             HW_75_3          NLC4670          242.00     0.0120     4.12       3.52       0          0
78_2             HW_78_2          NLC4610          28.00      0.0120     5.62       3.22       0          0
48               HW_48            NLC4490          312.00     0.0120     1.84       1.22       0          0
80               HW_80            NLC4030          58.00      0.0120     4.32       4.12       0          0
79               HW_79            NLC4190          244.00     0.0120     1.22       0.72       0          0
84_2             HW_84_2          NLC4490          208.00     0.0120     6.36       5.32       0          0
86_2             HW_86_2          NLC4090          47.00      0.0120     5.40       5.30       0          0
82_2             HW_82_2          NLC4010          60.00      0.0120     0.72       0.62       0          0
88_2             HW_88_2          NLC4010          96.00      0.0120     4.12       0.62       0          0
69_2             HW_69_2          NLC3610          660.00     0.0120     4.53       3.16       0          0
05_2             HW_05_2          NLC2650          30.00      0.0120     8.55       8.07       0          0
93_2             HW_93_2          NLC3610          439.00     0.0120     4.91       3.16       0          0
50_2             HW_50_2          NLC3490          655.00     0.0120     0          0          0          0
53_3             HW_53_3          NLC3570          513.00     0.0120     2.60       1.82       0          0
96_2             HW_96_2          NLC3490          108.00     0.0120     1.82       1.67       0          0
44               HW_44            NLC4350          248.00     0.0120     6.03       5.95       0          0
97               HW_97            NLC4430          256.00     0.0120     6.46       6.28       0          0
98_2             HW_98_2          NLC4410          250.00     0.0120     6.28       6.10       0          0
01               HW_01            NLC4290          81.00      0.0120     5.60       5.50       0          0
00_2             HW_00_2          NLC4330          50.00      0.0150     5.95       5.90       0          0
04_3             HW_04_3          NLC4230          50.00      0.0120     5.50       5.50       0          0
06_2             HW_06_2          NLC4230          157.00     0.0120     5.35       5.30       0          0
05_3             HW_05_3          NLC4210          770.00     0.0120     5.30       5.12       0          0
09_3             HW_09_3          NLC3490          60.00      0.0120     7.12       6.77       0          0
95               HW_95            NLC3450          290.00     0.0120     1.12       1.12       0          0
38               HW_38            NLC2230          190.00     0.0120     1.12       1.12       0          0
11_2             HW_11_2          NLC2230          70.00      0.0120     5.12       4.70       0          0
82_3             HW_82_3          NLC2510          241.00     0.0120     4.12       3.92       0          0
12_2             HW_12_2          NLC2510          120.00     0.0120     4.53       4.32       0          0
15               HW_15            NLC3110          450.00     0.0120     10.82      11.15      0          0
20_2             HW_20_2          NLB1170          86.00      0.0120     8.32       8.31       0          0
71               HW_71            NLC3090          470.00     0.0120     2.92       2.72       0          0
09_4             HW_09_4          NLC3050          767.00     0.0120     2.22       1.92       0          0
71_2             HW_71_2          NLC2390          107.00     0.0120     6.42       5.82       0          0
27               HW_27            NLC2070          20.00      0.0120     5.02       4.92       0          0
29_2             HW_29_2          NLC2070          440.00     0.0120     4.37       3.20       0          0
26_2             HW_26_2          NLC1810          662.00     0.0120     2.29       1.85       0          0
51_3             HW_51_3          NLC2190          426.00     0.0120     2.96       2.62       0          0
32_2             HW_32_2          NLC2070          482.00     0.0120     2.62       2.29       0          0
34               NLP1150          NLG0510          61.00      0.0120     6.06       5.75       0          0
36               HW_36            NLC1350          50.00      0.0120     8.07       7.97       0          0
38_2             HW_38_2          NLC1370          18.00      0.0120     7.82       7.72       0          0
49_2             NLJ1903          NLC1030          441.00     0.0120     1.42       1.02       0          0
50_3             NLH0790          NLC1010          91.00      0.0120     1.02       0.92       0          0
51_4             NLH1780          NLC0670          68.00      0.0120     0.92       0.82       0          0
96_3             HW_96_3          NLC1590          192.00     0.0120     2.05       1.69       0          0
31_3             HW_31_3          NLC1570          389.00     0.0120     1.85       1.49       0          0
53_4             HW_53_4          NLC1570          76.00      0.0120     1.69       1.25       0          0
55_3             HW_55_3          NLC1810          630.00     0.0120     2.64       1.85       0          0
23_2             HW_23_2          NLC2010          500.00     0.0120     4.00       3.50       0          0
57_2             HW_57_2          NLC1950          452.00     0.0120     3.89       2.90       0          0
59_2             HW_59_2          NLC1970          250.00     0.0120     4.34       3.89       0          0
58_3             HW_58_3          NLC1870          194.00     0.0120     3.12       2.30       0          0
54_3             HW_54_3          NLC1510          501.00     0.0120     1.49       1.12       0          0
52_2             HW_52_2          NLC0670          394.00     0.0120     1.12       0.82       0          0
61_2             NLM0130          NLC0750          111.00     0.0120     1.81       1.71       0          0
60_3             NLC3990          NLC0830          448.00     0.0120     0.18       0          0          0
63_3             NLZ0075          NLC0710          37.00      0.0120     1.67       0.92       0          0
65_3             NLN0170          NLC0690          267.00     0.0120     0.92       0.74       0          0
64_3             NLP1650          NLC0670          232.00     0.0120     0.74       0.52       0          0
48_2             NLC0770          NLC0650          438.00     0.0120     0.82       0.67       0          0
66_3             NLP1550          NLC0550          605.00     0.0120     0.67       0.46       0          0
68_2             NLP1590          NLC0450          51.00      0.0120     0.26       0.16       0          0
73_3             NLM0330          NLC0590          103.00     0.0120     1.34       1.70       0          0
74_2             NLP1150          NLC0510          55.50      0.0120     0.40       0.02       0          0
77_2             NLN0110          NLC0230          160.00     0.0120     0.13       0          0          0
78_3             NLC0330          NLC0450          134.00     0.0120     1.02       0.92       0          0
79_2             NLB0730          NLC0230          220.00     0.0120     0.22       0.01       0          0
71_3             NLB0910          NLC0110          80.00      0.0120     0          0          0          0
83_2             HW_83_2          NLZ0001          30.00      0.0120     0          0          0          0
84_3             HW_84_3          NLC0110          215.00     0.0120     1.10       1.00       0          0
85_2             HW_85_2          NLC0110          113.00     0.0120     0.05       0          0          0
86_3             HW_86_3          NLC0010          136.00     0.0120     0          0          0          0
87_2             HW_87_2          NLA0070          120.00     0.0120     0.20       0          0          0
89_2             HW_89_2          NLA0070          106.00     0.0120     0.42       0.12       0          0
90_2             NLB0370          NLA0070          104.00     0.0120     1.12       0.12       0          0
93_3             HW_93_3          NLA0010          111.00     0.0120     0.12       0.42       0          0
91_3             HW_91_3          NLA0010          100.00     0.0120     0          0          0          0
97_2             NLN0110          NLB0250          165.00     0.0120     2.75       2.27       0          0
98_3             HW_98_3          NLB0010          10.00      0.0120     0          0          0          0
99               NLC0330          NLI0450          310.00     0.0120     3.42       2.82       0          0
00_3             NLG0450          NLI0270          266.00     0.0120     1.21       0.98       0          0
01_2             NLN0110          NLI0230          260.00     0.0120     0.98       0.84       0          0
36_2             HW_36_2          NLG0070          63.00      0.0120     1.10       0.81       0          0
03_2             HW_03_2          NLZ0001          100.00     0.0120     0          0          0          0
02_2             HW_02_2          NLG0010          643.00     0.0120     0          0          0          0
04_4             HW_04_4          NLG0010          125.00     0.0120     0          0          0          0
05_4             HW_05_4          NLG0070          85.00      0.0120     1.50       1.20       0          0
06_3             HW_06_3          NLZ0001          270.00     0.0120     0          0          0          0
46_2             NLP0650          NLE0730          66.00      0.0120     2.53       2.26       0          0
21               HW_21            NLC3230          309.00     0.0120     5.12       4.82       0          0
16_2             HW_16_2          NLC3070          637.00     0.0120     2.72       2.22       0          0
10_3             HW_10_3          NLP1570          419.00     0.0120     0.42       0.26       0          0
13_2             HW_13_2          NLP1470          30.00      0.0120     0.68       0          0          0
12_3             HW_12_3          NLP1530          490.00     0.0120     0          0          0          0
17_3             HW_17_3          NLP1430          63.00      0.0120     0          0          0          0
20_3             NLZ0004          NLP1250          100.00     0.0120     0.39       0.41       0          0
20_4             NLZ0004          NLP1450          638.00     0.0120     4.45       0          0          0
23_3             HW_23_3          NLP1370          21.00      0.0120     0.92       0.82       0          0
24               HW_24            NLP1310          344.00     0.0120     0.44       0.22       0          0
27_2             NLH0310          NLP1190          60.00      0.0120     0          0          0          0
26_3             NLO0110          NLP1210          865.00     0.0120     0          0          0          0
29_3             NLJ0150          NLP1150          60.00      0.0120     0          0          0          0
32_3             NLJ0190          NLP0910          60.00      0.0120     0          0          0          0
33               NLH1170          NLP0830          60.00      0.0120     0          0          0          0
37_2             NLC3770          NLP0350          93.00      0.0120     1.70       1.56       0          0
35               NLK0010          NLP0330          140.00     0.0120     1.38       1.00       0          0
36_3             NLE1130          NLP0310          370.00     0.0120     1.00       0.23       0          0
39_2             NLH0730          NLP0950          450.00     0.0120     0.86       0.58       0          0
41_2             NLH2200          NLP0910          515.00     0.0120     0.42       0          0          0
42               NLH1700          NLP0970          50.00      0.0090     0.92       0.72       0          0
61_3             NLC3990          NLP0830          451.00     0.0120     0          0          0          0
45_3             NLE1030          NLP0790          212.00     0.0120     0          0          0          0
47               NLN0170          NLP0610          43.00      0.0120     0          0          0          0
49_3             NLD0210          NLP0610          460.00     0.0120     0          0          0          0
50_4             NLP1550          NLP0630          424.00     0.0120     0          0          0          0
51_5             HW_51_5          NLP0070          84.00      0.0120     0          0          0          0
53_5             NLC0330          NLP0450          45.00      0.0120     1.00       0.90       0          0
58_4             HW_58_4          NLP0170          160.00     0.0120     0          0          0          0
59_3             HW_59_3          NLP0150          62.00      0.0120     0          0          0          0
49_4             NLN0110          NLE0230          17.00      0.0120     1.90       1.22       0          0
15_2             NLB0730          NLE0230          19.00      0.0120     2.01       1.12       0          0
46_3             NLP0650          NLE0510          141.00     0.0120     0.27       0          0          0
63_4             NLH2020          NLD0890          479.00     0.0220     9.46       8.51       0          0
64_4             NLH1170          NLD0830          623.00     0.0120     8.51       6.72       0          0
68_3             HW_68_3          NLD1250          126.00     0.0120     6.28       5.75       0          0
19_2             NLJ0150          NLD1150          605.00     0.0120     7.47       5.87       0          0
63_5             NLO0110          NLD1150          491.00     0.0120     5.13       4.79       0          0
64_5             NLJ0190          NLD1090          226.00     0.0120     4.80       4.61       0          0
77_3             NLN0170          NLD0690          339.00     0.0120     8.46       4.77       0          0
65_4             NLA0270          NLD0810          943.00     0.0120     6.72       5.14       0          0
75_4             NLE1030          NLD0790          600.00     0.0120     5.14       4.13       0          0
76_2             NLP1650          NLD0670          386.00     0.0120     3.46       2.82       0          0
55_4             NLD0570          NLE0550          30.00      0.0120     2.93       2.53       0          0
48_3             NLI0050          NLE0290          19.00      0.0120     1.61       1.22       0          0
04_5             NLJ1903          NLD1030          325.00     0.0120     4.42       3.78       0          0
29_4             NLH1780          NLD0990          228.00     0.0120     3.72       3.28       0          0
80_2             NLH0730          NLD0670          328.00     0.0120     2.93       2.62       0          0
78_4             NLC0770          NLD0630          471.00     0.0120     2.54       2.05       0          0
82_4             HW_82_4          NLD0150          293.00     0.0120     0          0          0          0
86_4             NLC2710          NLD0370          231.00     0.0120     1.78       1.14       0          0
91_4             NLP1150          NLD0350          421.00     0.0120     1.65       0.30       0          0
87_3             NLK0010          NLD0110          456.00     0.0120     0.30       0          0          0
88_3             HW_88_3          NLD0090          302.00     0.0120     0          0          0          0
93_4             HW_93_4          NLD0010          460.00     0.0120     0          0          0          0
81               NLD0210          NLD0590          178.00     0.0120     2.05       1.87       0          0
90_3             NLD0590          NLD0530          207.00     0.0120     1.87       1.65       0          0
85_3             NLC3770          NLD0350          428.00     0.0120     1.14       0.30       0          0
41_3             NLD0590          NLB0570          318.00     0.0120     0          0          0          0
89_3             HW_89_3          NLD0030          456.00     0.0120     0          0          0          0
35_2             NLA0270          NLB0810          40.00      0.0120     3.60       3.50       0          0
27_3             NLH0730          NLB0810          40.00      0.0120     4.36       4.26       0          0
25               NLH1780          NLB0990          40.00      0.0120     4.49       4.39       0          0
27_4             HW_27_4          NLC1950          160.00     0.0120     3.50       3.20       0          0
28_2             NLL0330          NLB1050          25.00      0.0120     5.00       4.80       0          0
29_5             NLB0730          NLA0270          350.00     0.0120     0.62       0          0          0
30               NLN0110          NLA0290          359.00     0.0120     0          0          0          0
31_4             NLG0450          NLA0230          121.00     0.0120     0          0          0          0
32_4             NLG0450          NLB0310          180.00     0.0120     2.12       1.32       0          0
33_2             NLI0050          NLB0170          38.00      0.0120     1.32       1.19       0          0
34_2             NLK0010          NLB0330          18.00      0.0120     0          0          0          0
35_3             NLC3770          NLN0030          292.00     0.0120     0          0          0          0
37_3             HW_37_3          NLC3270          75.00      0.0120     7.42       7.22       0          0
36_4             HW_36_4          NLC3250          316.00     0.0120     5.32       5.12       0          0
39_3             NLG0450          NLP0270          68.00      0.0120     1.10       0.90       0          0
42_2             NLC0770          NLP0650          266.00     0.0120     0          0          0          0
41_4             NLP1650          NLP0670          452.00     0.0120     0          0          0          0
42_3             NLC0770          NLP0770          30.00      0.0120     0.12       0          0          0
99_2             HW_99_2          NLC4390          239.00     0.0120     6.10       6.03       0          0
45_4             HW_45_4          NLC4710          252.00     0.0120     5.12       4.62       0          0
46_4             HW_46_4          NLC4690          259.00     0.0130     4.62       4.12       0          0
29_6             HW_29_6          NLC4550          291.00     0.0120     2.42       1.84       0          0
76_3             HW_76_3          NLC4590          140.00     0.0120     3.22       2.92       0          0
16_3             HW_16_3          NLC4610          136.00     0.0120     3.52       3.22       0          0
87_4             HW_87_4          NLC3990          250.00     0.0120     0.62       0          0          0
1184MRLJ1000     NLH0650          NLJ1020          186.33     0.0120     0          0          0          0
1101MRLJ1260     NLL0290          NLJ1280          51.34      0.0120     2.92       2.66       0          0
1186MRLJ2060     NLJ2060          NLJ2080          433.58     0.0120     5.27       5.02       0          0
1124MRLJ2140     NLJ2140          NLJ2160          39.08      0.0120     2.60       2.50       0          0
1195MRLJ2740     NLJ2740          NLJ2760          45.59      0.0120     7.00       6.90       0          0
1201MRLL0270     NLN0110          NLL0310          392.89     0.0120     8.34       8.00       0          0
1200MRLL0250     NLB0730          NLL0310          223.00     0.0120     6.60       6.20       0          0
1198MRLL0630     NLD0210          NLL0590          341.94     0.0120     7.20       3.42       0          0
1196MRLJ2660     NLJ2660          NLJ2680          37.68      0.0120     9.60       9.60       0          0
1100MRLJ2700     NLJ2700          NLJ2720          43.73      0.0120     8.60       8.50       0          0
1203MRLL0890     NLH1170          NLL0910          40.89      0.0120     10.20      10.10      0          0
1106MRLJ2440A    NLJ2440          NLJ2360          32.00      0.0120     6.09       5.94       0          0
1205MRLJ2560     NLJ2560          NLJ2540          81.95      0.0120     5.76       5.68       0          0
1158MRLL0030     NLL0030          NLL0010          455.21     0.0120     0          0          0          0
1207MRLL0010     NLL0010          NLZ0003          107.55     0.0120     0          0          0          0
1115MRLJ1800A    NLJ1800          NLJ1820          103.32     0.0120     5.50       3.70       0          0
927              NLE1030          NLL0830          36.24      0.0120     12.30      12.20      0          0
1197MRLJ2860     NLJ2860          NLJ2840          131.17     0.0120     7.80       6.80       0          0
1061MRLJ2320     NLJ2320          NLJ2300          380.25     0.0120     6.00       5.80       0          0
1132MRLJ2500A    NLJ2500          NLJ2580          622.87     0.0120     2.50       2.40       0          0
1218MRLJ1300     NLJ1300          NLJ1320          328.86     0.0120     3.90       3.70       0          0
948              NLB0910          NLL0250          40.00      0.0120     8.52       7.42       0          0
1167MRLJ1140     NLJ0770          NLJ1120          92.00      0.0120     0.51       0.41       0          0
1123MRLJ1700     NLJ1700          NLJ1720          50.00      0.0120     4.50       4.46       0          0
1118MRLJ1740     NLJ1740          NLJ1760          155.00     0.0120     4.46       2.12       0          0
1233MRLJ1780     NLJ1780          NLJ1760          89.33      0.0120     2.16       2.14       0          0
1179MRLJ1880     NLJ1880          NLJ1878          13.00      0.0120     8.14       8.12       0          0
31_5             NLH1170          NLB0870          42.00      0.0240     5.54       5.31       0          0
57_3             NLI0050          NLN0290          253.00     0.0120     3.26       2.43       0          0
96_4             NLM0130          NLE0770          40.00      0.0120     5.30       5.20       0          0
98_4             NLH2660          NLE0890          30.00      0.0120     5.40       5.30       0          0
98_5             NLH2660          NLE0970          30.00      0.0120     5.40       5.30       0          0
97_3             NLC4470          NLE0750          38.00      0.0120     3.90       3.80       0          0
99_3             NLH0730          NLE0950          38.00      0.0120     4.00       3.90       0          0
04_6             NLH1170          NLE0870          38.00      0.0120     4.00       3.90       0          0
09_5             NLJ1903          NLE1030          117.00     0.0120     1.47       0.54       0          0
00_4             NLC3990          NLE0830          38.00      0.0120     3.90       3.80       0          0
03_3             NLC2710          NLE0290          366.00     0.0120     0.62       0.31       0          0
01_3             NLC1030          NLE0430          38.00      0.0120     3.90       3.80       0          0
04_7             NLC2230          NLE0390          38.00      0.0120     3.02       2.92       0          0
00_5             NLC3770          NLE0350          38.00      0.0120     3.50       3.40       0          0
05_5             NLE1130          NLE0310          38.00      0.0120     3.50       3.40       0          0
06_4             NLH1700          NLE0950          19.00      0.0150     3.28       3.22       0          0
09_6             NLC1030          NLI0430          120.00     0.0120     2.79       2.55       0          0
10_4             NLE1130          NLM0170          205.00     0.0120     0          0          0          0
25_2             HW_25_2          NLM0050          180.00     0.0120     0          0          0          0
12_4             HW_12_4          NLM0010          85.00      0.0120     0          0          0          0
58_5             HW_58_5          NLZ0001          40.00      0.0120     0.50       0.30       0          0
38_3             HW_38_3          NLK0050          35.00      0.0120     1.00       0.80       0          0
18_3             HW_18_3          NLK0130          40.00      0.0120     1.72       1.82       0          0
61_4             HW_61_4          NLK0110          262.00     0.0120     0.30       0.28       0          0
19_3             HW_19_3          NLP1590          32.00      0.0120     1.22       1.12       0          0
25_3             HW_25_3          NLP1470          646.00     0.0120     0.01       0          0          0
20_5             HW_20_5          NLE0170          40.00      0.0120     5.00       4.90       0          0
22_2             HW_22_2          NLE0110          40.00      0.0120     5.50       5.40       0          0
99_4             HW_99_4          NLE0270          40.00      0.0120     3.50       3.40       0          0
21_2             HW_21_2          NLE0250          40.00      0.0120     3.50       3.40       0          0
23_4             NLI0050          NLI0290          17.00      0.0090     3.42       2.48       0          0
24_2             NLB0730          NLI0230          50.00      0.0090     4.40       4.50       0          0
49_5             NLD0210          NLP0730          30.00      0.0120     3.10       3.00       0          0
28_3             NLH1700          NLD0970          134.00     0.0120     3.15       2.86       0          0
79_3             NLH0790          NLD1010          30.00      0.0120     3.78       3.72       0          0
30_2             NLB0370          NLD0190          273.00     0.0120     0.45       0          0          0
34_3             NLH2660          NLD0890          64.00      0.0120     10.72      10.52      0          0
27_5             HW_27_5          NLC2510          190.00     0.0120     9.36       9.00       0          0
42_4             NLD0210          NLE0610          237.00     0.0120     0          0          0          0
45_5             NLA0270          NLE0550          36.00      0.0120     2.76       2.53       0          0
06_5             NLJ1560          NLE1070          67.00      0.0120     3.18       1.77       0          0
47_2             NLA0210          NLE0470          151.00     0.0120     0          0          0          0
08_2             NLC0330          NLB0450          184.00     0.0120     0          0          0          0
40               NLP1550          NLE0630          254.00     0.0120     0          0          0          0
43_2             NLM0330          NLE0590          212.00     0.0120     0          0          0          0
41_5             NLD0590          NLZ0001          409.00     0.0120     0          0          0          0
39_4             NLC0770          NLE0650          62.00      0.0120     0          0          0          0
34_4             HW_34_4          NLE0030          33.00      0.0120     0          0          0          0
48_4             NLA0210          NLD0470          300.00     0.0120     2.50       2.00       0          0
94_2             HW_94_2          NLC2390          785.00     0.0120     8.09       7.12       0          0
49_6             NLD1150          NLC0550          55.00      0.0120     4.50       4.00       0          0
50_5             HW_50_5          NLP1530          41.00      0.0120     1.40       1.30       0          0
54_4             NLC1030          NLP0430          260.00     0.0120     0.80       0.80       0          0
51_6             NLC2230          NLP0090          510.00     0.0120     0.80       0          0          0
53_6             NLC2170          NLA0410          408.00     0.0120     3.50       2.68       0          0
56_4             NLC2710          NLP0370          41.00      0.0120     1.80       1.70       0          0
48_5             NLK0010          NLA0330          140.00     0.0120     0.62       0.19       0          0
94_3             NLE1130          NLN0310          244.00     0.0120     3.82       3.26       0          0
58_6             HW_58_6          NLC2230          125.00     0.0120     1.12       1.12       0          0
59_4             HW_59_4          NLC3190          409.00     0.0120     4.32       4.02       0          0
44_2             NLC2470          NLP0850          59.00      0.0120     1.41       0          0          0
67_4             NLJ1905          NLD1230          40.00      0.0120     5.76       5.74       0          0
63_6             NLO0110          NLD1210          482.00     0.0120     5.69       4.61       0          0
70_3             NLL0410          NLD1130          265.00     0.0120     5.03       4.80       0          0
62_2             NLH0310          NLD1130          400.00     0.0120     4.61       4.51       0          0
65_5             HW_65_5          NLD0170          21.00      0.0120     0          0          0          0
66_4             HW_66_4          NLD0130          189.00     0.0120     0          0          0          0
68_4             HW_68_4          NLC1250          40.00      0.0120     5.02       5.04       0          0
42_5             NLJ1905          NLC1230          49.00      0.0120     4.87       4.57       0          0
70_4             NLC4470          NLC0750          60.00      0.0120     1.72       1.52       0          0
71_4             HW_71_4          NLC3850          46.00      0.0120     8.24       8.12       0          0
74_3             HW_74_3          NLC1630          190.00     0.0120     2.92       2.42       0          0
75_5             HW_75_5          NLC1710          359.00     0.0120     4.12       2.92       0          0
76_4             HW_76_4          NLC1730          358.00     0.0120     5.04       4.12       0          0
77_4             HW_77_4          NLC1750          216.00     0.0120     5.32       5.04       0          0
72_2             HW_72_2          NLC1770          306.00     0.0120     5.70       5.04       0          0
80_3             HW_80_3          NLC1630          57.00      0.0120     3.31       3.11       0          0
78_5             HW_78_5          NLC1650          154.00     0.0120     3.75       3.32       0          0
84_4             NLD1150          NLP0550          33.00      0.0120     1.50       1.40       0          0
83_3             NLP0650          NLP0530          30.00      0.0120     1.30       1.20       0          0
86_5             NLA0210          NLP0470          308.00     0.0120     1.10       1.09       0          0
89_4             NLM0330          NLD0590          36.00      0.0120     4.20       4.00       0          0
87_5             NLJ2020          NLP1090          65.00      0.0120     4.25       4.11       0          0
88_4             NLJ1560          NLP1070          127.00     0.0120     4.11       3.89       0          0
92               NLH0790          NLP1010          70.00      0.0120     2.50       2.45       0          0
94_4             NLJ1903          NLP1010          51.00      0.0120     2.54       2.45       0          0
91_5             NLL0330          NLP1050          759.00     0.0120     3.89       2.54       0          0
93_5             NLH1780          NLP0990          366.00     0.0120     2.45       1.80       0          0
95_2             NLP1550          NLD0630          30.00      0.0120     6.00       5.90       0          0
97_4             HW_97_4          NLC1510          100.00     0.0120     4.50       4.00       0          0
98_6             NLP1150          NLP0510          30.00      0.0120     1.30       1.20       0          0
00_6             HW_00_6          NLC3610          220.00     0.0120     8.62       6.07       0          0
28_4             NLC2170          NLC0350          482.00     0.0120     2.40       2.20       0          0
01_4             HW_01_4          NLC2510          105.00     0.0120     1.92       1.72       0          0
03_4             HW_03_4          NLP1270          61.00      0.0120     1.40       0          0          0
69_3             NLL0330          NLD1050          28.00      0.0120     4.45       4.42       0          0
92_2             HW_92_2          NLC2670          30.00      0.0120     8.92       8.72       0          0
06_6             NLZ0004          NLD1250          335.00     0.0120     9.00       8.50       0          0
07_2             NLC2170          NLP0410          218.00     0.0120     0.80       0.80       0          0
08_3             NLM0130          NLD0690          405.00     0.0120     4.13       3.46       0          0
09_7             NLK0010          NLN0030          657.00     0.0120     0.92       0.52       0          0
10_5             HW_10_5          NLN0150          130.00     0.0120     3.52       2.82       0          0
11_3             HW_11_3          NLN0130          507.00     0.0120     2.84       1.94       0          0
71_5             NLG0450          NLN0270          245.00     0.0120     2.61       2.36       0          0
10_6             HW_10_6          NLN0210          525.00     0.0120     3.52       2.36       0          0
12_5             HW_12_5          NLN0110          717.00     0.0120     1.94       0.62       0          0
13_3             NLB0370          NLN0130          136.00     0.0120     4.12       2.19       0          0
15_3             HW_15_3          NLN0110          130.00     0.0120     0.80       0.62       0          0
13_4             NLB0370          NLN0190          705.00     0.0120     2.36       0.80       0          0
05_6             NLM0130          NLB0770          172.00     0.0120     0.30       0.22       0          0
66_5             NLJ2160          NLD1170          356.00     0.0120     8.02       7.47       0          0
07_3             HW_07_3          NLC4190          128.00     0.0120     5.12       0.72       0          0
22_3             NLL0410          NLC1110          21.00      0.0120     4.00       3.60       0          0
81_2             HW_81_2          NLC0070          122.00     0.0120     0          0          0          0
25_4             HW_25_4          NLZ0000          460.00     0.0120     0          0          0          0
68_5             NLC2170          NLN0410          308.00     0.0120     1.30       0.90       0          0
08_4             NLC2230          NLN0390          54.00      0.0120     0.90       0.30       0          0
07_4             NLC1030          NLN0410          689.00     0.0120     2.40       1.80       0          0
67_5             NLJ2160          NLC1110          389.00     0.0120     3.52       1.72       0          0
46_5             NLJ2020          NLC1050          207.00     0.0120     1.72       1.42       0          0
92_3             NLC0330          NLD0350          34.00      0.0120     0.90       0.80       0          0
32_5             NLP0650          NLD0530          52.00      0.0120     5.30       4.50       0          0
76_5             HW_76_5          NLN0070          429.00     0.0120     0.70       0.40       0          0
33_3             HW_33_3          NLC2950          46.00      0.0120     10.60      10.50      0          0
52_3             HW_52_3          NLC2930          36.00      0.0120     10.50      10.40      0          0
43_3             NLZ0004          NLC1250          50.00      0.0120     4.30       4.09       0          0
45_6             NLH0310          NLC1190          47.00      0.0120     4.30       4.20       0          0
47_3             NLO0110          NLC1190          131.00     0.0120     4.57       3.52       0          0
44_3             NLN0170          NLE0690          30.00      0.0120     2.40       2.05       0          0
33_4             HW_33_4          NLC1810          94.50      0.0120     1.90       1.85       0          0
41_6             HW_41_6          NLC1330          20.00      0.0240     1.60       1.50       0          0
25_5             HW_25_5          NLC1870          204.00     0.0120     3.10       3.00       0          0
05_7             NLH2020          NLE0930          137.00     0.0120     3.80       3.70       0          0
07_5             NLH2200          NLE0870          44.00      0.0120     2.92       2.81       0          0
02_3             NLC2470          NLE1070          25.00      0.0120     2.61       1.77       0          0
24_3             HW_24_3          NLC1870          115.00     0.0120     3.10       3.00       0          0
33_5             NLC3990          NLC2050          54.00      0.0120     3.00       2.35       0          0
62_3             NLJ0190          NLC1110          309.00     0.0120     1.90       1.90       0          0
76_6             NLK0010          NLC0330          926.00     0.0120     2.20       0.50       0          0
84_5             NLC2230          NLD0370          27.00      0.0120     3.00       2.90       0          0
74_4             HW_74_4          NLD1070          650.00     0.0120     8.70       8.00       0          0
77_5             HW_77_5          NLN0050          113.00     0.0120     0.40       0.40       0          0
80_4             HW_80_4          NLC2530          45.00      0.0120     4.50       4.30       0          0
75_6             NLC3770          NLC0350          440.00     0.0120     3.40       2.20       0          0
26_4             NLD0590          NLC0550          30.00      0.0230     0.86       0.92       0          0
35_4             HW_35_4          NLC2990          27.00      0.0120     9.75       9.72       0          0
49_7             HW_49_7          NLC4570          278.00     0.0120     2.92       2.42       0          0
30_3             HW_30_3          NLZ0000          20.00      0.0120     0          0          0          0
18_4             HW_18_4          NLZ0075          320.00     0.0120     1.12       0          0          0
32_6             HW_32_6          NLZ0000          20.00      0.0120     0.35       0          0          0
31_6             HW_31_6          NLZ0060          126.00     0.0120     2.62       2.13       0          0
35_5             HW_35_5          NLZ0000          145.00     0.0120     0.12       0          0          0
44_4             HW_44_4          NLZ0000          78.00      0.0120     1.62       0          0          0
36_5             HW_36_5          NLZ0000          167.00     0.0120     0          0          0          0
20_6             HW_20_6          NLZ0015          62.00      0.0120     0.62       0.12       0          0
37_4             HW_37_4          NLZ0000          82.00      0.0120     0          0          0          0
44_5             HW_44_5          NLC1290          40.00      0.0120     5.96       5.67       0          0
38_4             HW_38_4          NLC1290          80.00      0.0120     5.20       5.00       0          0
17_4             HW_17_4          NLC4350          650.00     0.0120     7.02       6.02       0          0
39_5             NLJ2160          NLB1170          20.00      0.0120     8.90       8.50       0          0
21_3             HW_21_3          NLC2290          580.00     0.0120     6.43       5.12       0          0
40_2             HW_40_2          NLC2250          392.00     0.0120     5.52       5.12       0          0
90_4             HW_90_4          NLM0090          125.00     0.0120     0          0          0          0
92_4             HW_92_4          NLM0090          422.00     0.0120     2.00       1.00       0          0
93_6             NLC2710          NLM0370          232.00     0.0120     3.00       2.50       0          0
94_5             NLN0110          NLM0250          281.00     0.0120     2.85       2.30       0          0
95_3             NLC3770          NLI0350          139.00     0.0120     2.95       2.30       0          0
73_4             HW_73_4          NLC1610          197.00     0.0120     2.42       2.05       0          0
97_5             NLJ1560          NLC1070          33.00      0.0120     2.32       2.12       0          0
98_7             NLL0330          NLC1050          104.00     0.0120     2.12       1.92       0          0
02_4             NLP1650          NLE0670          97.00      0.0120     0          0          0          0
03_5             NLD1150          NLZ0001          330.00     0.0120     0.12       0          0          0
08_5             NLL0330          NLE1050          100.00     0.0120     1.77       1.47       0          0
02_5             NLC2470          NLE0830          270.00     0.0120     2.81       2.76       0          0
10_7             NLH0790          NLE0550          62.00      0.0120     0.54       0.27       0          0
11_4             NLC2170          NLE0390          64.00      0.0120     2.57       0.62       0          0
12_6             NLK0010          NLE0290          35.00      0.0120     1.87       0.45       0          0
13_5             NLA0210          NLC0470          79.00      0.0120     1.12       1.02       0          0
14_5             NLI0050          NLC0290          70.00      0.0120     0.62       0.51       0          0
15_4             NLG0450          NLC0270          262.00     0.0120     0.32       0.13       0          0
16_4             HW_16_4          NLC0130          80.00      0.0120     0.19       0.07       0          0
17_5             HW_17_5          NLC0030          80.00      0.0120     0          0          0          0
18_5             NLB0370          NLI0190          213.00     0.0120     2.02       1.70       0          0
20_7             HW_20_7          NLI0170          68.00      0.0120     1.70       1.59       0          0
19_4             HW_19_4          NLI0150          233.00     0.0120     1.59       1.22       0          0
21_4             HW_21_4          NLI0130          105.00     0.0120     1.22       1.14       0          0
22_4             HW_22_4          NLI0110          268.00     0.0120     1.14       0.95       0          0
23_5             HW_23_5          NLI0090          287.00     0.0120     0.95       0.72       0          0
24_4             HW_24_4          NLC2070          100.00     0.0120     6.62       5.62       0          0
25_6             NLC2230          NLC0390          68.00      0.0120     3.80       3.70       0          0
26_5             NLC2710          NLC0370          35.00      0.0120     3.70       3.40       0          0
10_8             HW_10_8          NLC2210          192.00     0.0120     3.12       2.96       0          0
52_4             HW_52_4          NLC3690          1150.00    0.0120     4.93       4.53       0          0
89_5             HW_89_5          NLC3590          367.00     0.0120     3.16       2.60       0          0
54_5             HW_54_5          NLC2610          100.00     0.0120     6.32       6.12       0          0
55_5             HW_55_5          NLC2770          49.00      0.0120     7.62       7.36       0          0
56_5             HW_56_5          NLC2730          55.00      0.0120     6.52       6.32       0          0
57_4             NLJ1560          NLD1070          182.00     0.0120     4.61       4.45       0          0
58_7             HW_58_7          NLD0050          125.00     0.0120     0.40       0.20       0          0
59_5             HW_59_5          NLD0030          361.00     0.0120     0.20       0          0          0
90_5             HW_90_5          NLC2430          470.00     0.0120     9.02       7.97       0          0
81_3             HW_81_3          NLC2810          260.00     0.0120     9.01       8.42       0          0
60_4             NLC1030          NLD0430          529.00     0.0120     9.00       5.10       0          0
42_6             HW_42_6          NLZ0065          250.00     0.0120     3.00       2.62       0          0
45_7             HW_45_7          NLZ0000          127.00     0.0120     0          0          0          0
46_6             HW_46_6          NLZ0000          210.00     0.0120     0          0          0          0
47_4             HW_47_4          NLZ0025          300.00     0.0120     0.42       0          0          0
49_8             NLI0050          NLD0290          157.00     0.0120     2.00       1.95       0          0
48_6             NLE1130          NLD0310          250.00     0.0120     2.50       2.00       0          0
50_6             NLD1150          NLD0530          156.00     0.0120     3.50       3.20       0          0
51_7             NLD0570          NLD0710          287.00     0.0120     9.64       8.46       0          0
53_7             NLJ2020          NLD1070          90.00      0.0120     6.30       6.00       0          0
68_6             HW_68_6          NLD1310          336.00     0.0120     8.04       2.89       0          0
55_6             HW_55_6          NLD1330          260.00     0.0120     8.04       7.12       0          0
57_5             HW_57_5          NLZ0010          62.00      0.0120     0.12       0          0          0
58_8             HW_58_8          NLC3950          170.00     0.0120     6.82       6.62       0          0
59_6             HW_59_6          NLC3870          24.00      0.0120     9.57       8.24       0          0
60_5             NLC4470          NLD0710          927.00     0.0120     9.12       8.46       0          0
61_5             HW_61_5          NLC2910          30.00      0.0120     10.40      10.30      0          0
64_6             HW_64_6          NLC2830          260.00     0.0120     9.50       9.00       0          0
65_6             NLC2470          NLD0850          350.00     0.0120     8.92       8.72       0          0
66_6             NLC3990          NLD0830          3.60       0.0120     8.12       7.56       0          0
67_6             HW_67_6          NLC3690          330.00     0.0120     6.78       5.87       0          0
69_4             HW_69_4          NLC3690          77.00      0.0120     9.11       7.62       0          0
33_6             HW_33_6          NLC2250          89.00      0.0120     4.25       4.00       0          0
70_5             HW_70_5          NLC4450          342.00     0.0130     7.00       6.46       0          0
08_6             HW_08_6          NLC2290          151.00     0.0120     7.12       6.21       0          0
73_5             HW_73_5          NLC2350          104.00     0.0120     4.90       4.87       0          0
73_6             HW_73_6          NLC3530          605.00     0.0120     7.12       5.62       0          0
74_5             HW_74_5          NLZ0001          183.00     0.0120     0          0          0          0
75_7             NLB0370          NLC0190          1492.00    0.0123     1.82       1.28       0          0
76_7             HW_76_7          NLC0170          3.65       0.0120     1.28       1.10       0          0
77_6             HW_77_6          NLA0150          157.00     0.0120     2.30       2.00       0          0
77_7             HW_77_7          NLA0210          42.00      0.0120     2.50       2.00       0          0
79_4             HW_79_4          NLZ0002          170.00     0.0120     1.11       0          0          0
80_5             HW_80_5          NLA0150          75.00      0.0120     2.15       2.00       0          0
82_5             HW_82_5          NLB0030          178.00     0.0120     0.12       0          0          0
83_4             HW_83_4          NLZ0002          407.00     0.0120     0.50       0          0          0
84_6             NLA0210          NLI0470          268.00     0.0120     3.72       3.42       0          0
72_3             HW_72_3          NLC1370          27.00      0.0130     6.12       6.02       0          0
86_6             HW_86_6          NLC1770          175.00     0.0120     7.00       6.50       0          0
87_6             NLK0010          NLG0330          270.00     0.0120     9.00       7.00       0          0
88_5             NLK0010          NLM0330          100.00     0.0120     2.50       2.00       0          0
24_5             HW_24_5          NLM0130          294.00     0.0120     0          0          0          0
89_6             HW_89_6          NLM0130          36.00      1.0120     0.57       0.20       0          0
71_6             HW_71_6          NLB1170          120.00     0.0120     8.72       8.42       0          0
70_6             HW_70_6          NLC2450          31.00      0.0120     7.05       6.42       0          0
22_5             HW_22_5          NLC2450          122.00     0.0120     6.62       6.42       0          0
72_4             NLC2710          NLA0230          640.00     0.0120     0          0          0          0
73_7             NLB0730          NLB0030          92.00      0.0120     2.27       2.00       0          0
73_8             NLB0730          NLA0350          823.00     0.0120     2.27       0.62       0          0
90_6             HW_90_6          NLP1590          460.00     0.0120     0.72       0.42       0          0
47_5             HW_47_5          NLP1590          66.00      0.0120     0.62       0.42       0          0
68_7             NLE1130          NLG0110          460.00     0.0120     1.60       1.20       0          0
61_6             NLC2170          NLD0410          228.00     0.0120     5.10       3.00       0          0
63_7             NLG0450          NLD0250          264.00     0.0120     1.95       0          0          0
64_7             NLB0730          NLD0230          151.00     0.0120     0          0          0          0
56_6             NLN0110          NLD0250          164.00     0.0120     0          0          0          0
65_7             NLB0910          NLD0130          66.00      0.0120     0          0          0          0
12_7             HW_12_7          NLB0230          894.00     0.0120     0          0          0          0
12_8             HW_12_8          NLB0150          439.00     0.0120     0          0          0          0
16_5             HW_16_5          NLC3270          373.00     0.0120     7.22       6.82       0          0
46_7             HW_46_7          NLC3310          284.00     0.0120     8.02       7.72       0          0
68_8             NLE1130          NLI0290          20.00      0.0120     1.60       1.50       0          0
69_5             HW_69_5          NLC1850          762.00     0.0120     2.50       1.90       0          0
014MRLO0290      NLG0450          NLO0270          325.00     0.0120     2.10       1.21       0          0
35_6             HW_35_6          NLH2300          40.00      0.0120     6.63       8.22       0          0
07_6             HW_07_6          NLH2640          181.00     0.0120     7.93       7.93       0          0
83_5             HW_83_5          NLH1270          40.00      0.0120     3.00       2.90       0          0
90_7             NLJ0150          NLH1190          41.30      0.0120     7.09       6.88       0          0
909              NLH2760          NLH2740          408.00     0.0120     7.76       7.27       0          0
911              NLH2780          NLH2740          138.00     0.0120     7.44       7.27       0          0
10_9             HW_10_9          NLH2700          80.00      0.0120     9.12       8.62       0          0
13_6             HW_13_6          NLH2700          100.00     0.0120     9.12       8.62       0          0
25_7             HW_25_7          NLH2120          152.00     0.0120     7.10       7.00       0          0
60_6             HW_60_6          NLH2120          156.00     0.0120     7.10       7.00       0          0
98_8             HW_98_8          NLH2020          40.00      0.0120     8.20       8.00       0          0
99_5             HW_99_5          NLH2020          40.00      0.0120     8.00       7.80       0          0
50_7             HW_50_7          NLH1960          57.00      0.0120     9.50       9.40       0          0
46_8             NLC0330          NLO0490          25.00      0.0120     3.15       3.32       0          0
884              NLZ0004          NLH1250          491.00     0.0120     5.79       3.81       0          0
968              NLO0110          NLH1210          170.00     0.0120     3.51       6.73       0          0
40_3             HW_40_3          NLO0190          40.00      0.0120     5.70       4.30       0          0
947              NLB0730          NLO0230          40.00      0.0120     1.21       0.73       0          0
882              NLH1370          NLH1350          30.00      0.0120     8.11       6.97       0          0
81_4             HW_81_4          NLH2560          284.00     0.0120     7.88       6.71       0          0
08_7             HW_08_7          NLH2580          124.00     0.0120     6.71       6.71       0          0
85_4             HW_85_4          NLH2580          106.59     0.0120     9.07       8.71       0          0
005MRLH2060      HW_005MRLH2060   NLH2080          48.47      0.0120     9.10       9.00       0          0
881              NLH1390          NLH1350          40.00      0.0120     8.82       8.52       0          0
26_6             HW_26_6          NLH2140          652.60     0.0120     6.12       6.50       0          0
28_5             HW_28_5          NLH2180          487.87     0.0120     7.00       5.10       0          0
12_9             HW_12_9          NLH2180          62.22      0.0120     7.80       6.10       0          0
34_5             HW_34_5          NLH2280          44.23      0.0120     7.80       7.70       0          0
33_7             HW_33_7          NLH2280          38.18      0.0120     8.22       7.70       0          0
50_8             HW_50_8          NLH2280          576.59     0.0120     8.32       7.70       0          0
87_7             HW_87_7          NLH1960          44.47      0.0120     9.50       9.40       0          0
62_4             HW_62_4          NLH1940          625.43     0.0120     5.16       4.22       0          0
66_7             HW_66_7          NLH1920          381.18     0.0120     4.22       4.00       0          0
51_8             HW_51_8          NLH1900          290.18     0.0120     4.05       4.05       0          0
936              NLH1900          NLH1860          556.34     0.0120     3.68       3.65       0          0
003MRLH1840      HW_003MRLH1840   NLH1820          708.62     0.0120     1.21       1.21       0          0
955              NLH1820          NLH1780          206.91     0.0120     1.21       1.10       0          0
1009MRLH1800     NLH1800          NLH1780          47.34      0.0120     2.50       2.40       0          0
1010MRLH1780     NLH1780          NLH1765          1331.72    0.0120     2.40       2.00       0          0
91_6             HW_91_6          NLH1740          188.68     0.0120     1.50       0.92       0          0
992              NLH1740          NLH1720          27.64      0.0120     0.92       0.20       0          0
008MRLH1720      HW_008MRLH1720   NLH1620          378.97     0.0120     0.20       0          0          0
42_7             HW_42_7          NLH1600          200.90     0.0200     0          0          0          0
039MRLH1660      HW_039MRLH1660   NLH1700          31.00      0.0120     0          0.02       0          0
90_8             HW_90_8          NLH1620          210.59     0.0120     0.02       0          0          0
1006MRLO0210     NLB0370          NLO0150          517.00     0.0120     0.42       0.42       0          0
38_5             HW_38_5          NLO0050          282.64     0.0120     0.42       0.42       0          0
937              NLO0050          NLO0010          627.23     0.0120     0.42       0          0          0
015MRLO0030      HW_015MRLO0030   NLO0050          150.00     0.0120     3.12       0.42       0          0
1016MRLO0010     NLO0010          NLZ0003          64.95      0.0120     0          0          0          0
964              NLA0210          NLO0290          1066.44    0.0120     2.10       2.10       0          0
963              NLC2710          NLO0330          90.69      0.0120     9.50       8.95       0          0
78_6             HW_78_6          NLH2500          269.48     0.0120     7.40       7.20       0          0
15_5             HW_15_5          NLH2480          312.80     0.0120     7.20       7.20       0          0
932              NLH2460          NLH2440          346.28     0.0120     5.80       5.70       0          0
976              NLH2420          NLH2440          291.37     0.0120     6.00       5.90       0          0
032MRLH2440      HW_032MRLH2440   NLH2320          944.02     0.0120     6.63       6.63       0          0
894              NLC4470          NLH0790          75.23      0.0120     9.00       8.97       0          0
95_4             NLE1030          NLH0870          37.94      0.0120     4.20       3.89       0          0
57_6             NLC2470          NLH0890          181.14     0.0120     3.89       3.45       0          0
022MRLH0910      NLH2660          NLH0930          76.13      0.0120     3.29       3.18       0          0
1026MRLH0750     NLD0570          NLH0950          636.73     0.0120     3.17       3.00       0          0
06_7             NLH2200          NLH1010          1367.60    0.0120     3.18       2.80       0          0
902              NLH1780          NLH1030          54.64      0.0120     2.80       2.76       0          0
903              NLH0730          NLH0990          63.32      0.0120     2.90       2.60       0          0
1025MRLH1030     NLH0790          NLH0990          116.78     0.0120     2.76       2.48       0          0
886              NLJ2160          NLH1150          320.25     0.0120     2.73       2.72       0          0
89_7             NLJ2020          NLH1130          265.00     0.0120     4.45       3.75       0          0
028MRLH0990      NLH1700          NLH0730          438.73     0.0120     2.48       2.11       0          0
59_7             NLN0170          NLH0730          113.89     0.0120     2.20       2.11       0          0
87_8             NLC4350          NLZ0420          301.02     0.0120     4.02       3.82       0          0
952              NLC1490          NLZ0003          120.00     0.0120     3.82       0          0          0
85_5             NLC0750          NLZ0440          400.63     0.0120     4.54       3.82       0          0
91_7             NLJ1903          NLH1070          164.93     0.0120     3.60       3.77       0          0
79_5             NLL0330          NLH1090          45.00      0.0120     3.77       3.95       0          0
80_6             NLJ1560          NLH1130          835.59     0.0120     3.73       3.73       0          0
99_6             NLB0730          NLH0270          392.08     0.0120     3.98       3.54       0          0
70_7             NLZ0075          NLH0690          566.11     0.0120     2.11       2.00       0          0
958              NLD0210          NLH0650          74.11      0.0120     3.37       3.12       0          0
997              NLM0330          NLH0590          28.64      0.0120     1.93       1.72       0          0
1000MRLH0650     NLP1550          NLH0590          222.32     0.0120     1.62       1.62       0          0
977              NLP1650          NLH0650          288.16     0.0120     2.00       1.62       0          0
029MRLH0590      NLD0590          NLH0570          547.96     0.0120     1.24       1.24       0          0
71_7             NLN0110          NLH0290          559.22     0.0120     3.54       3.12       0          0
922              NLD1150          NLH0190          252.17     0.0120     1.24       1.11       0          0
54_6             HW_54_6          NLH0070          418.90     0.0120     0.40       0.34       0          0
74_6             HW_74_6          NLH0080          127.91     0.0120     0          0          0          0
1034MRLH0190     NLH0190          NLH0150          838.74     0.0120     1.11       0.72       0          0
75_8             HW_75_8          NLH0010          834.18     0.0120     0          0          0          0
017MRLH0030      HW_017MRLH0030   NLH0010          367.64     0.0120     0          0          0          0
969              NLJ0190          NLH1030          507.64     0.0120     3.75       2.76       0          0
41_7             HW_41_7          NLH1700          283.20     0.0120     1.02       0.02       0          0
031MRLH2400      HW_031MRLH2400   NLH2420          377.00     0.0120     9.04       7.20       0          0
05_8             NLC0330          NLH0490          305.43     0.0120     7.42       5.82       0          0
17_6             NLA0210          NLH0510          38.00      0.0120     5.98       5.82       0          0
18_6             NLC2170          NLH0510          24.00      0.0120     6.12       5.82       0          0
19_5             NLC2710          NLH0370          502.73     0.0120     5.40       5.30       0          0
983              NLP1590          NLH0530          102.00     0.0120     5.82       5.66       0          0
982              NLC3770          NLH0550          44.00      0.0120     4.77       3.81       0          0
033MRLH0550      NLP0650          NLH0610          715.08     0.0120     3.81       1.24       0          0
80_7             NLM0370          NLZ0000          102.35     0.0120     3.60       3.00       0          0
018MRLH1350      HW_018MRLH1350   NLH1270          44.09      0.0120     7.02       6.02       0          0
73_9             HW_73_9          NLH1290          75.91      0.0120     3.20       3.00       0          0
019MRLH1210      NLH0310          NLH1190          190.20     0.0120     6.73       6.55       0          0
020MRLH1150      NLL0410          NLH1130          115.80     0.0120     2.87       2.85       0          0
021MRLH0850      NLC3990          NLH0870          30.00      0.0120     4.32       4.00       0          0
972              NLH1170          NLH0910          344.44     0.0120     3.44       3.34       0          0
024MRLZ0600      NLE0850          NLZ0480          767.99     0.0120     2.68       2.66       0          0
023MRLH0230      NLB0910          NLH0250          30.58      0.0120     4.00       3.98       0          0
906              NLH2200          NLH0750          20.14      0.0120     3.18       3.17       0          0
027MRLH0950      NLH2020          NLH0970          628.92     0.0120     3.00       2.90       0          0
31_7             HW_31_7          NLH2700          70.00      0.0120     8.62       8.62       0          0
14_6             HW_14_6          NLH2460          159.87     0.0120     7.20       7.00       0          0
916              NLH2378          NLH2400          73.00      0.0130     10.16      9.76       0          0
20_8             NLC1030          NLH0430          37.90      0.0120     6.50       6.12       0          0
923              NLH0170          NLH0190          44.27      0.0120     1.20       1.11       0          0
953              NLH0090          NLH0110          62.35      0.0120     1.60       1.50       0          0
035MRLH0110      HW_035MRLH0110   NLH0080          170.53     0.0120     1.50       1.20       0          0
040MRLH1430      HW_040MRLH1430   NLH1370          683.66     0.0120     8.50       6.86       0          0
945              NLC2230          NLO0430          73.56      0.0120     8.00       7.80       0          0
037MRLO0450      NLC1030          NLO0490          9.20       0.0120     3.21       3.27       0          0
1038MRLH1860     NLH1860          NLH1840          47.62      0.0120     2.57       2.94       0          0
1036MRLH1450     NLH1450          NLH1430          65.00      0.0120     8.78       8.52       0          0
1041MRLH1490     NLH1490          NLH1450          394.24     0.0120     9.50       9.40       0          0
924              NLC3990          NLL0870          75.98      0.0120     8.52       8.10       0          0
949              NLH1600          NLZ0003          368.80     0.0120     0          0          0          0
943              NLB1150          NLZ0003          375.90     0.0120     1.80       0          0          0
944              NLH0010          NLZ0003          583.40     0.0120     0          0          0          0
209MRLH0410      NLC2230          NLH0370          359.53     0.0120     6.70       6.50       0          0
1210MRLH0310     NLI0050          NLH0350          60.07      0.0120     5.00       4.77       0          0
939              NLO0190          NLO0210          83.00      0.0120     4.30       4.20       0          0
012MRLZ0200      HW_012MRLZ0200   NLZ0220          1072.48    0.0120     2.00       1.80       0          0
013MRLO0330      NLE1130          NLO0310          233.00     0.0120     8.95       8.80       0          0
030MRLH0790      NLM0130          NLH0810          30.00      0.0120     4.82       4.95       0          0
04_8             NLC0770          NLH0690          552.00     0.0120     2.10       2.00       0          0
219MRLH2340      NLB1130          NLH2360          593.38     0.0120     9.50       8.50       0          0
921              NLE1130          NLH0350          800.00     0.0120     4.50       5.00       0          0
29_7             HW_29_7          NLH2220          372.00     0.0120     5.69       6.63       0          0
892              NLH1410          NLH1450          170.00     0.0120     9.26       8.99       0          0
011MRLH1765      HW_011MRLH1765   NLH1760          500.00     0.0120     2.00       1.50       0          0
1071MRLJ1158     NLL0030          NLJ1180          40.00      0.0120     2.52       2.32       0          0
1080MRLJ1100     NLJ2700          NLJ1100          163.00     0.0120     0.41       0          0          0
1181MRLJ1360     NLJ1360          NLJ1380          176.49     0.0120     1.50       1.40       0          0
1160MRLJ1460     NLJ1460          NLJ1400          114.60     0.0120     0.50       0          0          0
1048MRLJ1480     NLJ1480          NLJ1500          196.14     0.0120     4.50       4.20       0          0
1089MRLJ1600     NLJ1600          NLJ1580          68.03      0.0120     2.38       1.40       0          0
1092MRLJ1620     NLJ1620          NLJ1600          34.34      0.0240     5.10       5.00       0          0
1214MRLJ1680     NLJ1680          NLJ1660          75.14      0.0120     2.00       2.50       0          0
1110MRLJ2020     NLJ2020          NLJ2040          156.50     0.0120     7.25       5.21       0          0
1111MRLJ2040     NLJ2040          NLJ2080          71.00      0.0120     5.21       5.02       0          0
1112MRLJ2080     NLJ2080          NLJ2100          518.01     0.0120     5.77       5.07       0          0
1109MRLJ2100     NLJ2100          NLJ2120          229.15     0.0120     5.07       2.39       0          0
1084MRLJ1940     NLJ1940          NLJ1960          94.00      0.0120     5.59       5.44       0          0
1085MRLJ1960     NLJ1960          NLJ1980          6.00       0.0120     4.95       4.65       0          0
1074MRLJ1980     NLJ1980          NLJ2000          152.00     0.0120     2.70       2.39       0          0
1115MRLJ1800     NLJ1800          NLJ1920          90.98      0.0120     5.50       4.70       0          0
1116MRLJ1920     NLJ1920          NLJ1820          40.89      0.0120     2.70       3.70       0          0
1161MRLJ0130     NLJ0130          NLJ0110          39.80      0.0120     5.10       5.00       0          0
1169MRLJ0230     NLB0910          NLJ0150          338.00     0.0120     4.52       4.74       0          0
1170MRLJ0150     NLJ0150          NLJ0110          54.34      0.0120     5.50       5.30       0          0
1162MRLJ0110     NLJ0110          NLJ0090          56.31      0.0120     3.90       3.80       0          0
1127MRLJ0090     NLJ0090          NLJ0070          252.53     0.0120     3.80       3.34       0          0
1128MRLJ0250     NLB0730          NLJ0090          550.00     0.0120     5.30       4.12       0          0
1129MRLJ0170     NLJ0170          NLJ0150          307.20     0.0120     6.30       4.76       0          0
1130MRLJ0190     NLJ0190          NLJ0170          224.60     0.0120     7.40       6.30       0          0
1131MRLJ0210     NLB0370          NLJ0190          13.91      0.0120     7.50       7.40       0          0
1122MRLJ1840     NLJ1840          NLJ1860          111.35     0.0120     6.20       6.10       0          0
1120MRLJ1900     NLJ1900          NLJ1860          38.11      0.0120     5.96       5.81       0          0
1133MRLJ2420     NLJ2420          NLJ2440          32.00      0.0120     1.27       0.63       0          0
1106MRLJ2440     NLJ2440          NLJ2460          77.97      0.0120     3.07       2.64       0          0
1051MRLJ2480     NLJ2480          NLJ2460          86.00      0.0120     3.77       3.56       0          0
1132MRLJ2500     NLJ2500          NLJ2520          28.00      0.0120     4.70       4.57       0          0
1215MRLJ2520     NLJ2520          NLJ2440          73.00      0.0120     4.42       4.37       0          0
1060MRLJ2800     NLJ2800          NLJ2600          982.99     0.0120     6.00       5.40       0          0
1171MRLJ2820     NLJ2820          NLJ2800          1050.93    0.0120     6.70       6.00       0          0
1099MRLJ2840     NLJ2840          NLJ2820          70.25      0.0120     6.80       6.70       0          0
1143MRLL0610     NLM0330          NLL0590          396.15     0.0120     3.50       3.42       0          0
1073MRLL0550     NLP0650          NLL0570          119.57     0.0120     1.42       1.37       0          0
1147MRLL0490     NLA0210          NLL0510          463.54     0.0120     6.28       5.62       0          0
1146MRLL0510     NLP1590          NLL0550          400.02     0.0120     6.30       6.10       0          0
1145MRLL0470     NLC0330          NLL0570          578.32     0.0120     6.80       1.37       0          0
1148MRLL0450     NLC1030          NLL0430          95.74      0.0120     1.37       1.32       0          0
1150MRLL0410     NLC2230          NLL0370          316.66     0.0120     1.17       1.57       0          0
1153MRLL0370     NLC3770          NLL0330          866.18     0.0120     1.80       1.12       0          0
1070MRLL0330     NLE1130          NLL0210          448.96     0.0120     1.10       0.90       0          0
1065MRLL0190     NLL0190          NLL0210          81.78      0.0120     2.30       2.48       0          0
1068MRLL0210     NLB0370          NLL0170          1023.83    0.0120     0.90       0.70       0          0
1154MRLL0170     NLL0170          NLL0150          42.24      0.0120     0.70       0.68       0          0
1155MRLL0150     NLL0150          NLL0130          848.85     0.0120     0.68       0          0          0
1063MRLL0110     NLL0110          NLL0130          257.04     0.0120     0          0          0          0
1157MRLL0130     NLL0130          NLL0090          333.00     0.0120     0          0          0          0
1064MRLL0090     NLL0090          NLL0070          257.65     0.0120     0          0          0          0
1156MRLL0070     NLL0070          NLL0030          939.15     0.0120     0.12       0          0          0
1095MRLJ0370     NLC3770          NLJ0350          351.76     0.0120     7.50       7.20       0          0
1096MRLJ0350     NLK0010          NLJ0330          353.00     0.0120     7.20       7.00       0          0
1172MRLJ0390     NLC2710          NLJ0370          632.36     0.0120     7.80       7.50       0          0
1173MRLJ0330     NLE1130          NLJ0310          347.26     0.0120     7.00       6.70       0          0
1043MRLJ0410     NLC2230          NLJ0430          343.62     0.0120     7.60       7.20       0          0
1175MRLJ0430     NLC2170          NLJ0450          338.55     0.0120     7.20       7.00       0          0
1176MRLJ0450     NLC1030          NLJ0470          324.67     0.0120     7.00       6.70       0          0
1177MRLJ0470     NLC0330          NLJ0290          634.63     0.0120     6.70       6.50       0          0
1174MRLJ0310     NLI0050          NLJ0290          332.47     0.0120     6.70       6.50       0          0
1044MRLJ0570     NLD1150          NLJ0590          364.61     0.0120     8.53       8.30       0          0
1076MRLJ0510     NLP1590          NLJ0490          68.96      0.0120     2.30       2.20       0          0
1163MRLJ0550     NLP0650          NLJ0530          57.13      0.0120     2.10       1.80       0          0
1098MRLJ0630     NLD0210          NLJ0650          162.02     0.0120     7.33       6.92       0          0
1097MRLJ0610     NLM0330          NLJ0630          488.49     0.0120     7.39       7.33       0          0
1045MRLJ0590     NLD0590          NLJ0610          317.70     0.0120     8.01       7.64       0          0
1049MRLJ0670     NLC0770          NLJ0650          40.00      0.0120     7.82       7.02       0          0
1141MRLJ0710     NLN0170          NLJ0750          421.59     0.0120     6.17       5.26       0          0
1142MRLJ0690     NLP1650          NLJ0710          178.38     0.0120     6.50       6.42       0          0
1140MRLJ0770     NLC4470          NLJ0750          295.14     0.0120     4.12       3.50       0          0
1138MRLJ0730     NLZ0075          NLJ0750          118.00     0.0120     4.12       3.50       0          0
1072MRLL0770     NLC4470          NLL0790          38.40      0.0120     2.80       2.50       0          0
1165MRLL0930     NLH2200          NLL0790          36.80      0.0120     4.00       2.50       0          0
1139MRLL0750     NLD0570          NLL0790          31.70      0.0120     3.00       2.50       0          0
1137MRLL0730     NLZ0075          NLL0750          39.01      0.0120     3.10       3.00       0          0
1164MRLL0910     NLH2660          NLL0930          43.54      0.0120     9.20       9.10       0          0
1134MRLJ0930     NLH2200          NLJ0910          95.09      0.0120     8.12       7.59       0          0
1135MRLJ0910     NLH2660          NLJ0870          346.28     0.0120     5.86       5.77       0          0
1178MRLJ2300     NLJ2300          NLJ2280          311.54     0.0120     5.80       5.55       0          0
1102MRLJ2280     NLJ2280          NLJ2260          564.38     0.0120     5.55       4.12       0          0
1151MRLL0650     NLP1550          NLL0670          66.52      0.0120     7.76       7.59       0          0
1144MRLL0590     NLD0590          NLL0570          955.88     0.0120     3.42       1.32       0          0
1052MRLJ2600     NLJ2600          NLJ2480          637.96     0.0120     5.40       5.00       0          0
1075MRLJ0030     NLJ0030          NLJ0050          84.70      0.0120     6.73       6.55       0          0
1094MRLJ0290     NLG0450          NLJ0050          153.40     0.0120     6.70       6.50       0          0
1046MRLJ0270     NLN0110          NLJ0050          100.00     0.0120     0.45       0.25       0          0
1093MRLJ0070     NLJ0070          NLJ0050          165.00     0.0120     3.34       0.25       0          0
1180MRLJ2378     NLJ2378          NLJ2340          45.00      0.0120     6.44       6.15       0          0
1213MRLJ2340     NLJ2340          NLJ2320          262.43     0.0120     6.15       6.00       0          0
1079MRLJ1040     NLH1430          NLJ1040          128.00     0.0120     0          0          0          0
1078MRLJ1060     NLJ2800          NLJ1060          228.00     0.0120     0          0          0          0
1182MRLJ1020     NLH1150          NLJ1020          243.00     0.0120     0          0          0          0
1247MRLJ2625     NLJ2625          NLJ2620          82.00      0.0120     6.12       5.12       0          0
1194MRLJ2760     NLJ2760          NLJ2780          154.88     0.0120     6.80       6.70       0          0
1192MRLJ2780     NLJ2780          NLJ2625          140.00     0.0120     6.38       6.12       0          0
1136MRLJ0870     NLC2470          NLJ0790          398.10     0.0120     5.77       5.34       0          0
1004MRLJ0790     NLM0130          NLJ0770          643.37     0.0120     8.30       4.12       0          0
1223MRLJ1418     NLJ1418          NLJ1400          30.00      0.0120     2.52       2.32       0          0
1220MRLJ0010     NLJ0010          NLJ0030          90.00      0.0120     8.00       7.94       0          0
1168MRLJ1340     NLJ1340          NLJ1380          36.60      0.0120     3.20       3.14       0          0
1247MRLJ2625A    NLJ2625          NLJ2638          398.48     0.0120     6.88       6.12       0          0
1221MRLL0668     NLC1290          NLL0710          1333.17    0.0120     9.43       9.28       0          0
1152MRLL0670     NLC0770          NLL0668          57.34      0.0120     8.80       9.43       0          0
1224MRLH0530     NLP1150          NLH0550          580.89     0.0120     5.66       3.81       0          0
224MRLH0530A     NLP1150          NLH0390          422.50     0.0120     5.66       5.50       0          0
225MRLH0350      NLK0010          NLH0370          296.90     0.0120     4.77       4.77       0          0
1226MRLH0130     NLH0130          NLH0150          50.00      0.0120     0.74       0.72       0          0
1227MRLH0150     NLH0150          NLH0110          355.00     0.0120     0.72       0.62       0          0
228MRLO0150      NLB1050          NLO0070          486.46     0.0120     0.42       0.42       0          0
1229MRLO0130     NLO0130          NLO0110          104.00     0.0120     3.87       3.62       0          0
1230MRLO0110     NLO0110          NLO0150          28.00      0.0120     2.62       0.42       0          0
231MRLH1250      NLJ1905          NLH1230          39.00      0.0120     3.81       3.51       0          0
1042MRLZ0580     NLD0970          NLZ0003          296.00     0.0120     1.83       1.12       0          0
232MRLZ0560      NLP0150          NLZ0540          196.00     0.0120     2.10       1.98       0          0
1208MRLO0090     NLO0090          NLO0110          213.00     0.0120     0.60       0.24       0          0
898              NLP0950          NLZ0003          410.00     0.0120     1.98       0          0          0
897              NLP1270          NLZ0003          412.00     0.0120     3.50       3.20       0          0
1234MRLZ0500     NLI0290          NLZ0003          491.00     0.0120     3.50       3.20       0          0
896              NLC0110          NLZ0003          345.00     0.0120     2.66       0          0          0
1235MRLZ0340     NLG0150          NLZ0360          82.00      0.0120     1.93       0.95       0          0
236MRLZ0300      NLG0330          NLZ0000          138.00     0.0120     3.60       3.00       0          0
1237MRLZ0240     NLB0630          NLZ0003          320.00     0.0120     1.99       0.89       0          0
1238MRLZ0260     NLC0850          NLZ0003          400.00     0.0120     0.85       0          0          0
1239MRLZ0360     NLC3390          NLZ0380          385.00     0.0120     0.95       0          0          0
240MRLZ0380      NLC4050          NLZ0000          189.00     0.0120     0          0          0          0
241MRLH2800      NLB0590          NLH2780          538.00     0.0120     7.54       7.44       0          0
1245MRLH1763     NLH1763          NLH1769          50.00      0.0120     3.12       3.12       0          0
1245MRLH1763A    NLH1763          NLH1765          30.00      0.0240     2.12       0          0          0
1246MRLH1769     NLH1769          NLH1765          30.00      0.0240     0.12       0          0          0
56_7             NLN0110          NLO0250          425.00     0.0120     1.21       1.21       0          0
1007MRLO0230     NLB0910          NLO0210          372.00     0.0120     0.73       0.42       0          0
1189MRLJ1720     NLJ1720          NLJ1740          608.00     0.0120     4.46       4.46       0          0
1244MRLH0933     NLH2300          NLH0931          34.00      0.0120     10.50      10.19      0          0
1050MRLJ1903     NLJ1903          NLJ1905          198.00     0.0120     4.02       3.87       0          0
1055MRLJ0890     NLH1170          NLJ0870          253.00     0.0120     10.01      5.34       0          0
1067MRLL0048     NLL0048          NLL0030          125.00     0.0120     1.12       0.62       0          0
1058MRLL0289     NLG0470          NLL0370          290.00     0.0120     6.79       5.92       0          0
67_7             NLC3770          NLH1900          331.00     0.0120     8.43       7.12       0          0
65_8             NLK0010          NLO0370          61.00      0.0120     9.07       8.99       0          0
1264MRLJ2182     NLJ2182          NLJ2180          204.00     0.0120     6.26       6.04       0          0
1258MRLJ2180     NLJ2180          NLJ2200          243.00     0.0120     5.52       4.02       0          0
1053MRLJ0050     NLJ0050          NLJ1600          38.00      0.0120     1.30       1.10       0          0
1183MRLJ1020A    NLH1150          NLJ1010          99.50      0.0120     0          0          0          0
1267MRLJ0788     NLM0350          NLJ0730          25.00      0.0120     4.00       4.00       0          0
268MRLH1475      NLN0430          NLH1470          25.00      0.0120     10.00      9.71       0          0
001MRLH2740      HW_001MRLH2740   NLC4650          56.00      0.0120     7.04       6.96       0          0
07_7             NLA0210          NLB0470          146.00     0.0120     0          0          0          0
04_9             NLP0650          NLB0510          180.00     0.0120     0.30       0.16       0          0
06_8             NLP1590          NLB0490          380.00     0.0120     0.16       0          0          0
02_6             NLE1030          NLC0790          94.00      0.0120     0          0          0          0
95_5             HW_95_5          NLC3150          292.00     0.0120     9.00       8.75       0          0
15_6             HW_15_6          NLC3350          489.00     0.0120     10.47      6.94       0          0
18_7             HW_18_7          NLC3170          470.00     0.0120     3.92       3.82       0          0
96_5             HW_96_5          NLC3170          22.00      0.0120     8.75       8.72       0          0
03_6             NLA0270          NLC0810          211.00     0.0120     0          0          0          0
14_7             NLC2170          NLB0390          43.00      0.0090     4.87       4.12       0          0
21_5             NLH0790          NLB1010          1000.00    0.0120     5.50       4.49       0          0
23_6             NLH0310          NLB1170          20.00      0.0120     8.90       8.50       0          0
37_5             NLC0770          NLB0650          64.00      0.0120     3.67       3.57       0          0
39_6             NLD0570          NLB0610          485.00     0.0120     0          0          0          0
16_6             NLC4470          NLB0750          461.00     0.0120     0.22       0          0          0
40_4             NLD0210          NLB0610          96.00      0.0120     1.08       1.02       0          0
38_6             NLM0330          NLB0590          816.00     0.0120     0          0          0          0
66_8             NLD1150          NLB0170          316.00     0.0120     0          0          0          0
42_8             NLP1590          NLA0490          85.00      0.0120     3.02       2.77       0          0
44_6             NLA0210          NLA0470          110.00     0.0120     2.77       2.67       0          0
43_4             NLC0330          NLA0450          600.00     0.0120     2.67       1.79       0          0
47_6             NLB0910          NLA0070          50.00      0.0120     0          0          0          0
19_6             NLJ0150          NLB1110          627.00     0.0130     7.42       5.72       0          0
17_7             NLJ2020          NLB1090          1260.00    0.0130     5.72       4.82       0          0
26_7             NLH1700          NLB0970          226.00     0.0130     4.39       4.36       0          0
28_6             NLJ1903          NLB0810          624.00     0.0130     4.80       4.20       0          0
24_6             NLE1030          NLB0550          805.00     0.0130     3.50       0.30       0          0
30_4             NLH2660          NLB0890          620.00     0.0130     6.90       5.31       0          0
33_8             NLC3990          NLB0830          1132.00    0.0130     3.00       3.60       0          0
32_7             NLC2470          NLB0850          614.00     0.0130     5.31       3.00       0          0
81_5             HW_81_5          NLC2530          897.00     0.0130     5.00       4.12       0          0
92_5             NLC2230          NLG0390          284.00     0.0130     4.71       5.49       0          0
02_7             NLD0590          NLG0570          1186.00    0.0130     7.50       6.49       0          0
11_5             HW_11_5          NLI0010          365.00     0.0130     0          0          0          0
33_9             HW_33_9          NLE0050          245.00     0.0130     0          0          0          0
35_7             HW_35_7          NLE0010          1230.00    0.0130     0          0          0          0
40_5             HW_40_5          NLG0130          1054.00    0.0130     2.90       0.85       0          0
44_7             NLB0730          NLG0230          651.00     0.0130     3.73       2.86       0          0
01_5             NLN0110          NLG0250          651.00     0.0130     4.50       3.73       0          0
94_6             NLC3770          NLG0330          589.00     0.0130     5.70       4.22       0          0
57_7             NLG0450          NLK0030          414.00     0.0130     0          0          0          0
72_5             HW_72_5          NLC4150          616.00     0.0130     9.80       8.20       0          0
77_8             HW_77_8          NLC4630          620.00     0.0130     8.30       6.50       0          0
74_7             HW_74_7          NLC4110          849.00     0.0130     8.20       5.40       0          0
85_6             HW_85_6          NLC4030          304.00     0.0130     5.30       5.00       0          0
03_7             HW_03_7          NLC4310          202.00     0.0130     5.90       5.60       0          0
02_8             HW_02_8          NLC4270          248.00     0.0130     5.50       5.50       0          0
99_7             NLP0650          NLG0530          378.00     0.0130     6.58       6.06       0          0
35_8             NLP1590          NLG0370          602.00     0.0130     5.76       5.70       0          0
37_6             HW_37_6          NLC1330          396.00     0.0130     7.97       7.30       0          0
34_6             HW_34_6          NLC1950          866.00     0.0130     3.60       4.20       0          0
56_8             HW_56_8          NLC1870          936.00     0.0130     3.70       2.64       0          0
67_8             NLP0650          NLC0510          374.00     0.0130     0.50       0.26       0          0
69_6             NLC1030          NLC0330          588.00     0.0130     0.32       0.01       0          0
70_8             NLE1130          NLC0230          660.00     0.0130     0.01       0          0          0
80_8             HW_80_8          NLC0090          564.00     0.0130     0          0          0          0
82_6             HW_82_6          NLC0010          365.00     0.0130     0          0          0          0
88_6             HW_88_6          NLA0010          1085.00    0.0130     0          0          0          0
92_6             HW_92_6          NLZ0002          757.00     0.0130     0          0          0          0
16_7             HW_16_7          NLP1470          908.00     0.0130     0          0          0          0
15_7             HW_15_7          NLP1450          420.00     0.0130     0          0          0          0
18_8             HW_18_8          NLP1370          867.00     0.0130     0          0          0          0
25_8             HW_25_8          NLP1270          424.00     0.0130     1.10       0.39       0          0
21_6             NLJ1905          NLP1230          186.00     0.0130     0.41       0          0          0
19_7             HW_19_7          NLP1350          540.00     0.0130     0          0          0          0
28_7             NLJ2160          NLP1170          145.00     0.0130     0.50       0.40       0          0
83_6             NLP0650          NLP0810          417.00     0.0130     1.30       0.58       0          0
85_7             NLP1590          NLP0490          473.00     0.0130     1.20       1.10       0          0
62_5             HW_62_5          NLC2890          640.00     0.0130     9.00       7.88       0          0
78_7             HW_78_7          NLA0130          1260.00    0.0130     2.00       1.11       0          0
97_6             NLP1550          NLG0590          360.00     0.0130     8.00       7.50       0          0
32_8             NLG0450          NLB0270          876.00     0.0130     3.00       2.75       0          0
40_6             NLB0910          NLP0210          763.00     0.0130     0          0          0          0
46_9             NLM0130          NLP0770          250.00     0.0130     0.39       0.28       0          0
807MRLP0590      NLD0590          NLP0010          281.00     0.0130     0          0          0          0
72_6             HW_72_6          NLP1210          280.00     0.0130     0          0          0          0
002MRLO0430      NLC2170          NLO0470          758.71     0.0130     7.08       7.08       0          0
84_7             HW_84_7          NLH2220          565.96     0.0130     6.51       6.51       0          0
001MRLH2740A     HW_001MRLH2740A  NLH2720          574.56     0.0130     6.96       6.96       0          0
94_7             HW_94_7          NLH2640          106.29     0.0130     6.95       6.95       0          0
95_6             HW_95_6          NLH2580          460.45     0.0130     6.94       6.94       0          0
93_7             HW_93_7          NLH2460          702.63     0.0130     6.93       6.93       0          0
61_7             HW_61_7          NLH2320          694.27     0.0130     5.56       5.56       0          0
1081MRLJ1380     NLJ1380          NLJ1400          437.32     0.0130     1.25       1.25       0          0
30_5             NLL0410          NLP1130          193.00     0.0130     0.30       0.20       0          0
31_8             NLH2660          NLP0890          195.00     0.0130     0.20       0.10       0          0
40_7             NLH2020          NLP0930          391.00     0.0130     0.58       0          0          0
34_7             NLA0270          NLP0750          772.00     0.0130     0.10       0          0          0
43_5             NLC4470          NLP0750          1158.00    0.0130     0.39       0          0          0
24_7             NLB0730          NLP0230          427.00     0.0130     0          0          0          0
55_7             HW_55_7          NLP0110          486.00     0.0130     0.23       0.16       0          0
43_6             NLD0570          NLP0730          498.00     0.0130     0          0          0          0
548              NLM0330          NLP0590          747.00     0.0130     0          0          0          0
52_5             HW_52_5          NLP0050          409.00     0.0130     0.29       0          0          0
54_7             HW_54_7          NLP0010          460.00     0.0130     0          0          0          0
25_9             NLZ0075          NLP0710          495.00     0.0130     0          0          0          0
38_7             NLI0050          NLP0270          597.00     0.0130     0.23       0          0          0
27_6             HW_27_6          NLP0090          222.00     0.0130     0.16       0.12       0          0
08_8             NLZ0075          NLE0710          349.00     0.0130     2.26       1.20       0          0
11_6             HW_11_6          NLM0030          265.00     0.0130     0          0          0          0
13_7             HW_13_7          NLZ0001          422.00     0.0130     0          0          0          0
26_8             NLN0110          NLP0250          1172.00    0.0130     0          0          0          0
62_6             HW_62_6          NLP0030          425.00     0.0130     0          0          0          0
60_7             HW_60_7          NLP0130          414.00     0.0130     0.30       0.23       0          0
69_7             NLB0370          NLP0190          1190.00    0.0130     0          0          0          0
81_6             NLC3770          NLA0330          688.00     0.0130     3.00       1.07       0          0
1159MRLJ1400     NLJ1400          NLJ1180          708.83     0.0130     0.77       0.77       0          0
1047MRLJ1500     NLJ1500          NLJ1460          158.62     0.0130     0.76       0.76       0          0
1087MRLJ1520     NLJ1520          NLJ1500          1150.86    0.0130     0.86       0.86       0          0
1090MRLJ1560     NLJ1560          NLJ1520          442.48     0.0130     1.20       1.20       0          0
1088MRLJ1580     NLJ1580          NLJ1560          280.03     0.0130     1.21       1.21       0          0
1091MRLJ1660     NLJ1660          NLJ1640          533.83     0.0130     0.87       0.87       0          0
1124MRLJ2140A    NLJ2140          NLJ2120          276.09     0.0130     2.60       2.60       0          0
1107MRLJ2220     NLJ2220          NLJ2200          500.10     0.0130     2.64       2.64       0          0
1133MRLJ2420A    NLJ2420          NLJ2220          777.69     0.0130     2.64       2.64       0          0
1149MRLL0430     NLC2170          NLL0410          1181.46    0.0130     2.00       2.00       0          0
1125MRLJ0490     NLA0210          NLJ0270          525.73     0.0130     3.19       3.19       0          0
1126MRLJ0530     NLP1150          NLJ0510          526.01     0.0130     3.43       3.19       0          0
1056MRLJ0650     NLP1550          NLJ0550          758.62     0.0130     3.80       3.44       0          0
1077MRLJ0750     NLD0570          NLJ0650          569.22     0.0130     4.44       4.00       0          0
1139MRLL0750A    NLD0570          NLL0710          735.30     0.0130     7.00       7.00       0          0
1104MRLJ2240     NLJ2240          NLJ2200          606.43     0.0130     2.29       2.29       0          0
1103MRLJ2260     NLJ2260          NLJ2240          604.98     0.0130     2.31       2.31       0          0
1120MRLJ1900A    NLJ1900          NLJ1905          1298.09    0.0130     3.96       3.96       0          0
1105MRLJ2460     NLJ2460          NLJ2400          480.24     0.0130     2.00       2.00       0          0
1082MRLJ1180     NLJ2378          NLJ1020          655.75     0.0130     0.10       0.10       0          0
1185MRLJ1280     NLJ1280          NLJ1320          260.24     0.0130     3.98       3.98       0          0
1114MRLJ1320     NLJ1320          NLJ1340          626.56     0.0130     3.98       3.95       0          0
1187MRLJ1200     NLL0250          NLJ1240          513.98     0.0130     3.68       3.67       0          0
1188MRLJ1240     NLZ0380          NLJ1260          518.13     0.0130     3.67       3.67       0          0
1108MRLJ2200     NLJ2200          NLJ2160          252.75     0.0130     2.64       2.64       0          0
1191MRLJ2360     NLJ2360          NLJ2260          395.82     0.0130     2.41       2.31       0          0
1057MRLL0710     NLN0170          NLL0630          1257.78    0.0130     9.00       9.00       0          0
1199MRLL0310     NLI0050          NLL0330          592.63     0.0130     6.00       6.00       0          0
1193MRLJ2720     NLJ2720          NLJ2740          694.79     0.0130     6.00       6.00       0          0
1202MRLL0870     NLC2470          NLL0910          621.56     0.0130     9.00       9.00       0          0
1204MRLJ2680     NLJ2680          NLJ2760          1182.41    0.0130     7.00       7.00       0          0
1211MRLL0830     NLA0270          NLL0890          956.31     0.0130     9.70       9.70       0          0
1117MRLJ1760     NLJ1760          NLJ1680          303.06     0.0130     1.62       1.62       0          0
1248MRLJ1878     NLJ1878          NLJ1860          563.55     0.0130     7.50       7.50       0          0
1212MRLJ2400     NLJ2400          NLJ2340          254.69     0.0130     1.90       1.90       0          0
1113MRLJ2120     NLJ2120          NLJ2000          224.17     0.0130     2.50       2.50       0          0
1086MRLJ2000     NLJ2000          NLJ1920          439.62     0.0130     1.41       1.41       0          0
1054MRLJ1540     NLJ1540          NLJ1520          199.78     0.0130     4.74       4.74       0          0
1080MRLJ1120     NLJ1900          NLJ1380          1256.62    0.0130     2.00       1.25       0          0
1119MRLJ1820     NLJ1820          NLJ1780          161.00     0.0130     2.53       2.53       0          0
1066MRLL0570     NLD1150          NLL0450          111.87     0.0130     2.00       2.00       0          0
1217MRLJ2620     NLJ2620          NLJ2580          419.38     0.0130     4.00       4.00       0          0
1216MRLJ2580     NLJ2580          NLJ2560          287.10     0.0130     4.00       4.00       0          0
1206MRLJ2540     NLJ2540          NLJ2520          227.63     0.0130     4.00       4.00       0          0
1243MRLH1770     NLH1770          NLH1765          163.00     0.0130     5.94       0          0          0
249MRLH0931      NLH2720          NLH0930          533.82     0.0130     8.50       8.50       0          0
1250MRLJ1905     NLJ1905          NLJ1820          1298.09    0.0130     3.96       3.96       0          0
1083MRLJ1640     NLJ1640          NLJ1500          468.00     0.0130     2.24       2.24       0          0
1171MRLJ2820A    NLJ2820          NLL0550          706.00     0.0130     7.23       5.30       0          0
986              NLI0050          NLO0290          620.00     0.0130     7.50       7.50       0          0
1062MRLJ1220     NLJ0010          NLJ1200          1168.26    0.0130     8.27       5.77       0          0
93_8             HW_93_8          NLH0770          757.83     0.0130     9.71       6.60       0          0
1076MOLJ0510     NLP1590          NLJ0470          30.00      0.0130     9.66       9.63       0          0
1125MOLJ0490B    NLA0210          NLJ0470          30.00      0.0130     9.54       9.51       0          0
1126MOLJ0530     NLP1150          NLJ0470          30.00      0.0130     10.34      10.31      0          0
1163MOLJ0550A    NLP0650          NLJ0470          30.00      0.0130     9.92       9.89       0          0
1053MOLJ0050A    NLJ0050          NLJ1540          30.00      0.0130     8.75       8.72       0          0
1190MOLJ2160     NLJ2160          NLJ2120          30.00      0.0130     7.04       7.01       0          0
1109MOLJ2100A    NLJ2100          NLJ2160          30.00      0.0130     7.73       7.70       0          0
1103MOLJ2260     NLJ2260          NLJ2320          30.00      0.0130     8.40       8.37       0          0
1178MOLJ2300A    NLJ2300          NLJ2260          30.00      0.0130     8.28       8.25       0          0
1191MOLJ2360     NLJ2360          NLJ2320          30.00      0.0130     8.27       8.24       0          0
102MOLJ2280B     HW_102MOLJ2280B  NLP1610          30.00      0.0130     8.27       8.24       0          0
1252MOLJ2380     NLJ2380          NLJ2340          30.00      0.0130     6.15       6.12       0          0
1252MOLJ2380A    NLJ2380          NLJ2460          30.00      0.0130     7.50       7.47       0          0
1252MOLJ2380B    NLJ2380          NLJ2320          30.00      0.0130     8.42       8.39       0          0
1175MOLJ0430     NLC2170          NLJ0330          30.00      0.0130     9.56       9.53       0          0
1215MOLJ2520     NLJ2520          NLJ2480          30.00      0.0130     8.59       8.56       0          0
1051MOLJ2480     NLJ2480          NLJ2580          30.00      0.0130     8.76       8.73       0          0
1049MOLJ0670     NLC0770          NLJ0550          30.00      0.0130     11.36      11.33      0          0
1052MOLJ2600     NLJ2600          NLJ2580          30.00      0.0130     8.99       8.96       0          0
1052MOLJ2600A    NLJ2600          NLJ2780          30.00      0.0130     10.05      10.02      0          0
1216MOLJ2580A    NLJ2580          NLJ2780          30.00      0.0130     9.97       9.94       0          0
1253MOLJ2640     NLJ2640          NLJ2780          30.00      0.0130     9.41       9.38       0          0
1253MOLJ2640A    NLJ2640          NLJ2580          30.00      0.0130     9.66       9.63       0          0
1147MOLL0490     NLA0210          NLJ2800          30.00      0.0130     9.14       9.11       0          0
1100MOLJ2700     NLJ2700          NLJ2740          30.00      0.0130     9.91       9.88       0          0
1100MOLJ2700A    NLJ2700          NLJ2760          30.00      0.0130     9.99       9.96       0          0
1100MOLJ2700B    NLJ2700          NLJ2840          30.00      0.0130     10.27      10.24      0          0
1099MOLJ2840     NLJ2840          NLJ2740          30.00      0.0130     10.34      10.31      0          0
1197MOLJ2860     NLJ2860          NLL0590          30.00      0.0130     10.03      10.00      0          0
1096MOLJ0350B    NLK0010          NLJ0410          30.00      0.0130     9.40       9.37       0          0
1133MOLJ2420A    NLJ2420          NLJ2500          30.00      0.0130     8.74       8.71       0          0
095MOLJ0370A     NLC3770          NLG0490          30.00      0.0130     10.02      9.99       0          0
1107MOLJ2220     NLJ2220          NLJ2180          30.00      0.0130     6.03       6.00       0          0
1174MOLJ0310B    NLI0050          NLJ0450          30.00      0.0130     8.51       8.48       0          0
1258MOLJ2180     NLJ2180          NLJ2160          30.00      0.0130     8.40       8.37       0          0
1043MOLJ0410     NLC2230          NLJ0390          30.00      0.0130     10.24      10.21      0          0
1122MOLJ1840     NLJ1840          NLJ0170          30.00      0.0130     9.12       9.09       0          0
1169MOLJ0230     NLB0910          NLJ0170          30.00      0.0130     9.49       9.46       0          0
1121MOLJ1860     NLJ1860          NLJ1880          30.00      0.0130     8.14       8.11       0          0
1128MOLJ0250B    NLB0730          NLJ0230          30.00      0.0130     9.43       9.40       0          0
1149MOLL0430     NLC2170          NLL0390          30.00      0.0130     9.39       9.36       0          0
1059MOLL0350     NLK0010          NLL0410          30.00      0.0130     8.31       8.28       0          0
1059MOLL0350A    NLK0010          NLL0370          30.00      0.0130     8.20       8.17       0          0
1049MOLJ0670B    NLC0770          NLJ0750          30.00      0.0130     11.40      11.37      0          0
1254MOLL0690     NLP1650          NLL0650          30.00      0.0130     11.62      11.59      0          0
1150MOLL0410     NLC2230          NLL0690          30.00      0.0130     10.89      10.86      0          0
1140MOLJ0770     NLC4470          NLJ0730          30.00      0.0130     11.24      11.21      0          0
1140MOLJ0770A    NLC4470          NLJ0610          30.00      0.0130     11.49      11.46      0          0
1044MOLJ0570A    NLD1150          NLJ0790          30.00      0.0130     11.82      11.79      0          0
1134MOLJ0930     NLH2200          NLJ0790          30.00      0.0130     11.83      11.80      0          0
1004MOLJ0790     NLM0130          NLJ0590          30.00      0.0130     11.69      11.66      0          0
1044MOLJ0570B    NLD1150          NLJ0930          30.00      0.0130     11.53      11.50      0          0
1004MOLJ0790B    NLM0130          NLJ0910          30.00      0.0130     11.45      11.42      0          0
925              NLH2100          NLJ0910          30.00      0.0130     11.58      11.55      0          0
25_10            HW_25_10         NLL0850          30.00      0.0130     11.67      11.64      0          0
925_2            NLH2100          NLJ0890          30.00      0.0130     11.82      11.79      0          0
924_2            NLC3990          NLJ0890          30.00      0.0130     11.52      11.49      0          0
924_3            NLC3990          NLL0910          30.00      0.0130     11.65      11.62      0          0
09_8             HW_09_8          NLC4570          30.00      0.0130     11.05      11.02      0          0
11_7             HW_11_7          NLC4670          30.00      0.0130     11.32      11.29      0          0
241MOLH2800      NLB0590          NLC4710          30.00      0.0130     11.62      11.59      0          0
11_8             HW_11_8          NLC4690          30.00      0.0130     11.53      11.50      0          0
11_9             HW_11_9          NLC4710          30.00      0.0130     11.66      11.63      0          0
1200MOLL0250     NLB0730          NLL0330          30.00      0.0130     8.66       8.63       0          0
946              NLC0330          NLO0290          30.00      0.0130     8.46       8.43       0          0
1063MOLL0110     NLL0110          NLZ0260          30.00      0.0130     5.26       5.23       0          0
1238MOLZ0260     NLC0850          NLL0130          30.00      0.0130     5.94       5.91       0          0
947_2            NLB0730          NLL0170          30.00      0.0130     8.04       8.01       0          0
1006MOLO0210     NLB0370          NLL0170          30.00      0.0130     8.76       8.73       0          0
947_3            NLB0730          NLO0210          30.00      0.0130     8.58       8.55       0          0
1006MOLO0210A    NLB0370          NLO0130          30.00      0.0130     7.48       7.45       0          0
013MOLO0330      NLE1130          NLO0270          30.00      0.0130     10.16      10.13      0          0
56_9             NLN0110          NLO0310          30.00      0.0130     8.34       8.31       0          0
1207MOLL0010A    NLL0010          NLL0070          30.00      0.0130     3.82       3.79       0          0
1207MOLL0010B    NLL0010          NLZ0005          30.00      0.0130     3.49       3.46       0          0
1156MOLL0070     NLL0070          NLZ0005          30.00      0.0130     4.55       4.52       0          0
85_9             HW_85_9          NLH2520          30.00      0.0130     11.02      10.99      0          0
78_8             HW_78_8          NLH0770          30.00      0.0130     11.97      11.94      0          0
15_9             HW_15_9          NLH0810          30.00      0.0130     11.88      11.85      0          0
10_10            HW_10_10         NLH2600          30.00      0.0130     11.11      11.08      0          0
15_10            HW_15_10         NLH2600          30.00      0.0130     10.97      10.94      0          0
85_10            HW_85_10         NLH2460          30.00      0.0130     10.50      10.47      0          0
10_11            HW_10_11         NLH2720          30.00      0.0130     11.38      11.35      0          0
10_12            HW_10_12         NLH2640          30.00      0.0130     11.25      11.22      0          0
85_11            HW_85_11         NLH2640          30.00      0.0130     12.13      12.10      0          0
11_10            HW_11_10         NLH2680          30.00      0.0130     11.47      11.44      0          0
13_9             HW_13_9          NLH2720          30.00      0.0130     11.29      11.26      0          0
81_8             HW_81_8          NLH2620          30.00      0.0130     11.62      11.59      0          0
263MOLH2240      NLB0110          NLH2620          30.00      0.0130     11.95      11.92      0          0
981              NLH2540          NLH2440          30.00      0.0130     11.53      11.50      0          0
1101MOLJ1260B    NLL0290          NLJ1200          30.00      0.0130     7.24       7.21       0          0
1238MOLZ0260A    NLC0850          NLZ0005          30.00      0.0130     4.80       4.77       0          0
1016MOLO0010     NLO0010          NLZ0260          30.00      0.0130     4.88       4.85       0          0
07_9             HW_07_9          NLH2560          30.00      0.0130     10.21      10.18      0          0
11_11            HW_11_11         NLH2720          30.00      0.0130     11.28      11.25      0          0
1018MOLH1350     NLH1350          NLH1250          30.00      0.0130     9.12       9.09       0          0
235MOLZ0340      NLG0150          NLZ0400          30.00      0.0130     5.76       5.73       0          0
84_8             NLZ0004          NLZ0440          30.00      0.0130     8.06       8.03       0          0
90_10            NLJ0150          NLH1130          30.00      0.0130     8.64       8.61       0          0
1016MOLO0010A    NLO0010          NLZ0005          30.00      0.0130     4.59       4.56       0          0
897_2            NLP1270          NLZ0500          30.00      0.0130     5.10       5.07       0          0
016MOLO0010B     HW_016MOLO0010B  NLO0070          30.00      0.0130     5.09       5.06       0          0
971              NLN0110          NLZ0004          30.00      0.0130     6.01       5.98       0          0
1016MOLO0010C    NLO0010          NLO0030          30.00      0.0130     4.86       4.83       0          0
941              NLH1680          NLH1720          30.00      0.0130     5.31       5.28       0          0
008MOLH1720      HW_008MOLH1720   NLH1600          30.00      0.0130     4.08       4.05       0          0
208MOLO0090      NLB0470          NLH1600          30.00      0.0130     5.43       5.40       0          0
1140MOLJ0770B    NLC4470          NLL0910          30.00      0.0130     11.39      11.36      0          0
54_8             HW_54_8          NLH1760          30.00      0.0130     6.35       6.32       0          0
263MOLH2240A     NLB0110          NLH2180          30.00      0.0130     11.54      11.51      0          0
79_8             NLL0330          NLH0670          30.00      0.0130     7.67       7.64       0          0
969_2            NLJ0190          NLH0990          30.00      0.0130     7.80       7.77       0          0
02_9             NLH1780          NLH1130          30.00      0.0130     7.68       7.65       0          0
02_10            NLH1780          NLH0970          30.00      0.0130     6.82       6.79       0          0
89_8             HW_89_8          NLH1620          30.00      0.0130     5.13       5.10       0          0
1008MOLH1720A    NLH1720          NLZ0005          30.00      0.0130     4.56       4.53       0          0
41_9             HW_41_9          NLH1620          30.00      0.0130     5.16       5.13       0          0
940              NLO0170          NLO0210          30.00      0.0130     7.40       7.37       0          0
41_10            HW_41_10         NLH1760          30.00      0.0130     5.14       5.11       0          0
1179MOLJ1880     NLJ1880          NLJ2500          30.00      0.0130     8.74       8.71       0          0
88_7             HW_88_7          NLH2320          30.00      0.0130     11.19      11.16      0          0
1226MOLH0130     NLH0130          NLH0190          30.00      0.0130     5.16       5.13       0          0
98_9             HW_98_9          NLH2280          30.00      0.0130     10.94      10.91      0          0
19_9             NLC2710          NLH0510          30.00      0.0130     8.33       8.30       0          0
917              NLA0210          NLH0530          30.00      0.0130     7.95       7.92       0          0
1012MOLZ0200     NLZ0200          NLH1720          30.00      0.0130     3.60       3.57       0          0
008MOLH1720B     HW_008MOLH1720B  NLH1760          30.00      0.0130     4.29       4.26       0          0
977_2            NLP1650          NLH0990          30.00      0.0130     7.81       7.78       0          0
958_2            NLD0210          NLH0990          30.00      0.0130     7.69       7.66       0          0
029MOLH0590      NLD0590          NLH0690          30.00      0.0130     6.58       6.55       0          0
1029MOLH0590B    NLD0590          NLH0350          30.00      0.0130     7.12       7.09       0          0
70_9             NLZ0075          NLH0470          30.00      0.0130     9.66       9.63       0          0
943_2            NLB1150          NLZ0005          30.00      0.0130     4.78       4.75       0          0
225MOLH0350B     NLK0010          NLH0170          30.00      0.0130     7.15       7.12       0          0
1226MOLH0130A    NLH0130          NLH0310          30.00      0.0130     6.74       6.71       0          0
82_7             HW_82_7          NLH1410          30.00      0.0130     11.86      11.83      0          0
1017MOLH0030     NLH0030          NLZ0610          30.00      0.0130     4.15       4.12       0          0
979              NLL0330          NLZ0600          30.00      0.0130     7.79       7.76       0          0
957              NLC2470          NLH0910          30.00      0.0130     11.05      11.02      0          0
032MOLH2440A     HW_032MOLH2440A  NLH2300          30.00      0.0130     11.24      11.21      0          0
1072MOLL0770     NLC4470          NLJ0730          30.00      0.0130     9.66       9.63       0          0
943_3            NLB1150          NLH1720          30.00      0.0130     4.72       4.69       0          0
965              NLK0010          NLH1767          30.00      0.0130     9.88       9.85       0          0
1009MOLH1800     NLH1800          NLH1769          30.00      0.0130     6.82       6.79       0          0
1255MOLH2380     NLH2380          NLH0935          30.00      0.0130     10.60      10.57      0          0
976_2            NLH2420          NLH2380          30.00      0.0130     11.82      11.79      0          0
1030MOLH0790     NLM0130          NLH0850          30.00      0.0130     10.07      10.04      0          0
137MOLL0730      NLZ0075          NLL0810          30.00      0.0130     12.18      12.15      0          0
28_9             HW_28_9          NLL0810          30.00      0.0130     11.86      11.83      0          0
203MOLL0890A     NLH1170          NLL0810          30.00      0.0130     13.12      13.09      0          0
1208MOLO0090A    NLO0090          NLZ0005          30.00      0.0130     5.45       5.42       0          0
246MOLH1769      NLA0410          NLH1760          30.00      0.0130     4.32       4.29       0          0
012MOLZ0200A     HW_012MOLZ0200A  NLH0050          30.00      0.0130     6.31       6.28       0          0
949_2            NLH1600          NLZ0005          30.00      0.0130     4.69       4.66       0          0
261MOLH1767      NLB0130          NLH1760          30.00      0.0130     5.06       5.03       0          0
19_10            NLC2710          NLH0430          30.00      0.0130     8.94       8.91       0          0
921_2            NLE1130          NLH0410          30.00      0.0130     8.88       8.85       0          0
187MOLJ1200      NLL0250          NLP0390          30.00      0.0130     6.14       6.11       0          0
23_8             HW_23_8          NLH0570          30.00      0.0130     6.53       6.50       0          0
921_3            NLE1130          NLH0310          30.00      0.0130     8.88       8.85       0          0
53_8             HW_53_8          NLH0010          30.00      0.0130     5.10       5.07       0          0
953_2            NLH0090          NLH0130          30.00      0.0130     5.03       5.00       0          0
921_4            NLE1130          NLH1840          30.00      0.0130     8.94       8.91       0          0
921_5            NLE1130          NLH1860          30.00      0.0130     9.62       9.59       0          0
965_2            NLK0010          NLO0330          30.00      0.0130     9.84       9.81       0          0
923_2            NLH0170          NLH0310          30.00      0.0130     7.31       7.28       0          0
029MOLH0590C     NLD0590          NLH0170          30.00      0.0130     7.32       7.29       0          0
013MOLO0330B     NLE1130          NLO0250          30.00      0.0130     9.87       9.84       0          0
11_12            HW_11_12         NLC4650          30.00      0.0130     11.22      11.19      0          0
31_9             HW_31_9          NLC4650          30.00      0.0130     11.16      11.13      0          0
98_10            HW_98_10         NLH2000          30.00      0.0130     11.29      11.26      0          0
981_2            NLH2540          NLH2240          30.00      0.0130     11.75      11.72      0          0
58_9             NLD0210          NLH0690          30.00      0.0130     7.20       7.17       0          0
03_8             NLH0730          NLH0730          30.00      0.0130     7.70       7.67       0          0
03_9             NLH0730          NLH2360          30.00      0.0130     12.24      12.21      0          0
95_8             HW_95_8          NLH2560          30.00      0.0130     12.00      11.97      0          0
036MOLH1450      HW_036MOLH1450   NLC3970          30.00      0.0130     12.31      12.28      0          0
263MOLH2240B     NLB0110          NLH2320          30.00      0.0130     11.37      11.34      0          0
1263MOLH2240C    NLH2240          NLH2440          30.00      0.0130     11.09      11.06      0          0
1165MOLL0930A    NLH2200          NLJ0730          30.00      0.0130     9.66       9.63       0          0
1032MOLH2440C    NLH2440          NLH2380          30.00      0.0130     11.77      11.74      0          0
31_10            HW_31_10         NLH2640          30.00      0.0130     11.41      11.38      0          0
902_2            NLH1780          NLH0990          30.00      0.0130     7.19       7.16       0          0
957_2            NLC2470          NLH0790          30.00      0.0130     10.15      10.12      0          0
95_9             NLE1030          NLH0770          30.00      0.0130     10.78      10.75      0          0
85_12            NLC0750          NLH1090          30.00      0.0130     8.22       8.19       0          0
893              NLH1470          NLH0790          30.00      0.0130     11.75      11.72      0          0
234MOLZ0500      NLI0290          NLZ0480          30.00      0.0130     6.03       6.00       0          0
1234MOLZ0500A    NLI0290          NLZ0004          30.00      0.0130     5.22       5.19       0          0
882_2            NLH1370          NLH1250          30.00      0.0130     12.26      12.23      0          0
952_2            NLC1490          NLZ0004          30.00      0.0130     5.42       5.39       0          0
1237MOLZ0240     NLB0630          NLZ0005          30.00      0.0130     4.82       4.79       0          0
53_9             HW_53_9          NLH0070          30.00      0.0130     5.40       5.37       0          0
018MOLH1350A     HW_018MOLH1350A  NLH1290          30.00      0.0130     8.61       8.58       0          0
887              NLC4350          NLZ0004          30.00      0.0130     5.89       5.86       0          0
73_11            HW_73_11         NLH1370          30.00      0.0130     8.85       8.82       0          0
1235MOLZ0340A    NLG0150          NLZ0004          30.00      0.0130     5.92       5.89       0          0
235MOLZ0340B     NLG0150          NLZ0320          30.00      0.0130     6.15       6.12       0          0
236MOLZ0300      NLG0330          NLZ0320          30.00      0.0130     6.72       6.69       0          0
88_8             NLC3210          NLZ0440          30.00      0.0130     5.52       5.49       0          0
902_3            NLH1780          NLH0910          30.00      0.0130     11.50      11.47      0          0
944_2            NLH0010          NLZ0004          30.00      0.0130     3.30       3.27       0          0
86_7             NLJ2160          NLH1130          30.00      0.0130     7.92       7.89       0          0
79_9             NLL0330          NLZ0460          30.00      0.0130     8.06       8.03       0          0
919              NLC2710          NLH0550          30.00      0.0130     7.73       7.70       0          0
944_3            NLH0010          NLH0190          30.00      0.0130     3.47       3.44       0          0
58_10            NLD0210          NLH0610          30.00      0.0130     6.51       6.48       0          0
13_10            HW_13_10         NLH2640          30.00      0.0130     11.09      11.06      0          0
1024MOLZ0600     NLE0850          NLH0230          30.00      0.0130     7.32       7.29       0          0
1158MOLL0030     NLL0030          NLZ0007          30.00      0.0130     3.49       3.46       0          0
1065MOLL0190     NLL0190          NLL0330          30.00      0.0130     8.74       8.71       0          0
99_9             HW_99_9          NLH1980          30.00      0.0130     11.40      11.37      0          0
897_3            NLP1270          NLZ0004          30.00      0.0130     4.85       4.82       0          0
34_8             HW_34_8          NLH2320          30.00      0.0130     10.65      10.62      0          0
955_2            NLH1820          NLH1770          30.00      0.0130     6.76       6.73       0          0
78_9             HW_78_9          NLH0810          30.00      0.0130     11.99      11.96      0          0
226MOLH0130B     NLB0990          NLH0010          30.00      0.0130     5.27       5.24       0          0
029MOLH0590D     NLD0590          NLH0630          30.00      0.0130     6.64       6.61       0          0
1166MOLL0790C    NLM0130          NLJ0730          30.00      0.0130     9.69       9.66       0          0
15_11            HW_15_11         NLH2460          30.00      0.0130     10.45      10.42      0          0
1238MOLZ0260B    NLC0850          NLL0150          30.00      0.0130     7.10       7.07       0          0
70_10            NLZ0075          NLH0630          30.00      0.0130     7.23       7.20       0          0
1061MOLJ2320     NLJ2320          NLZ0007          30.00      0.0130     8.21       8.18       0          0
1064MOLL0090A    NLL0090          NLL0170          30.00      0.0130     7.90       7.87       0          0
1051MOLJ2480B    NLJ2480          NLZ0007          30.00      0.0130     4.74       4.71       0          0
1238MOLZ0260C    NLC0850          NLL0170          30.00      0.0130     7.82       7.79       0          0
955_3            NLH1820          NLH1769          30.00      0.0130     7.42       7.39       0          0
1118MOLJ1740     NLJ1740          NLJ1820          30.00      0.0130     9.00       8.97       0          0
1253MOLJ2640B    NLJ2640          NLJ0190          30.00      0.0130     9.18       9.15       0          0
1194MOLJ2760B    NLJ2760          NLJ2660          30.00      0.0130     10.42      10.39      0          0
989              NLH1640          NLO0210          30.00      0.0130     7.18       7.15       0          0
1092MOLJ1620A    NLJ1620          NLJ1680          30.00      0.0130     9.30       9.27       0          0
1097MOLJ0610A    NLM0330          NLJ0650          30.00      0.0130     11.59      11.56      0          0
1261MOLH1767A    NLH1767          NLH1770          30.00      0.0130     7.28       7.25       0          0
51_9             HW_51_9          NLO0390          30.00      0.0130     11.66      11.63      0          0
91_10            NLJ1903          NLZ0480          30.00      0.0130     7.96       7.93       0          0
952_3            NLC1490          NLH1250          30.00      0.0130     8.78       8.75       0          0
1044MOLJ0570C    NLD1150          NLJ0430          30.00      0.0130     11.60      11.57      0          0
973              NLH1330          NLH1350          30.00      0.0130     9.31       9.28       0          0
82_8             HW_82_8          NLH1390          30.00      0.0130     10.25      10.22      0          0
184MOLJ1000A     NLH0650          NLM0070          30.00      0.0130     4.97       4.94       0          0
184MOLJ1000B     NLH0650          NLM0110          30.00      0.0130     5.76       5.73       0          0
1259MOLL0050     NLL0050          NLL0030          30.00      0.0130     3.76       3.73       0          0
1259MOLL0050A    NLL0050          NLL0170          30.00      0.0130     7.81       7.78       0          0
1043MOLJ0410B    NLC2230          NLJ0570          30.00      0.0130     11.49      11.46      0          0
044MOLJ0570D     NLD1150          NLC4470          30.00      0.0130     11.61      11.58      0          0
135MOLJ0910      NLH2660          NLC4730          30.00      0.0130     11.78      11.75      0          0
52_7             NLC1490          NLZ0480          30.00      0.0130     6.22       6.19       0          0
235MOLZ0340C     NLG0150          NLH1290          30.00      0.0130     8.88       8.85       0          0
1004MOLJ0790C    NLM0130          NLL0910          30.00      0.0130     11.72      11.69      0          0
88_9             HW_88_9          NLH1940          30.00      0.0130     11.64      11.61      0          0
1176MOLJ0450     NLC1030          NLJ0590          30.00      0.0130     11.41      11.38      0          0
880              NLM0370          NLZ0004          30.00      0.0130     6.09       6.06       0          0
898_2            NLP0950          NLZ0004          30.00      0.0130     4.55       4.52       0          0
923_3            NLH0170          NLH0130          30.00      0.0130     5.15       5.12       0          0
1242MOLZ0610     NLM0330          NLZ0004          30.00      0.0130     3.94       3.91       0          0
1017MOLH0030A    NLH0030          NLZ0004          30.00      0.0130     3.36       3.33       0          0
1203MOLL0890B    NLH1170          NLL0930          30.00      0.0130     12.20      12.17      0          0
93_9             HW_93_9          NLC4170          30.00      0.0130     11.71      11.68      0          0
1021MOLH0850     NLC3990          NLH0910          30.00      0.0130     11.67      11.64      0          0
1065MOLL0190A    NLL0190          NLL0170          30.00      0.0130     7.39       7.36       0          0
88_10            NLA0210          NLC4370          30.00      0.0130     9.82       9.79       0          0
25_11            NLH1780          NLB1050          30.00      0.0130     7.40       7.37       0          0
89_9             HW_89_9          NLD0270          30.00      0.0130     4.20       4.17       0          0
56_10            NLN0110          NLD0230          30.00      0.0130     4.51       4.48       0          0
48_7             NLK0010          NLB0270          30.00      0.0130     5.03       5.00       0          0
67_9             HW_67_9          NLN0350          30.00      0.0130     5.15       5.12       0          0
41_11            NLP1650          NLP0810          30.00      0.0130     3.86       3.83       0          0
79_10            NLB0730          NLC0350          30.00      0.0130     5.34       5.31       0          0
08_9             NLC2230          NLN0210          30.00      0.0130     6.43       6.40       0          0
06_9             HW_06_9          NLC4210          30.00      0.0130     9.64       9.61       0          0
50_10            HW_50_10         NLP1570          30.00      0.0130     4.84       4.81       0          0
01_7             NLN0110          NLI0250          30.00      0.0130     5.41       5.38       0          0
89_10            HW_89_10         NLD0150          30.00      0.0130     2.60       2.57       0          0
97_7             NLN0110          NLB0110          30.00      0.0130     5.62       5.59       0          0
40_9             NLB0910          NLP0470          30.00      0.0130     3.81       3.78       0          0
23_9             HW_23_9          NLC1930          30.00      0.0130     6.93       6.90       0          0
14_9             HW_14_9          NLP1470          30.00      0.0130     5.05       5.02       0          0
44_8             NLC2470          NLP0830          30.00      0.0130     4.09       4.06       0          0
98_11            NLD1150          NLC1830          30.00      0.0130     7.70       7.67       0          0
19_11            NLJ0150          NLD1270          30.00      0.0130     12.95      12.92      0          0
10_13            HW_10_13         NLN0330          30.00      0.0130     5.91       5.88       0          0
20_10            NLL0410          NLB1130          30.00      0.0130     11.89      11.86      0          0
22_9             HW_22_9          NLP1370          30.00      0.0130     5.23       5.20       0          0
43_8             NLC4470          NLP0730          30.00      0.0130     3.14       3.11       0          0
41_12            NLH2200          NLP0870          30.00      0.0130     4.10       4.07       0          0
22_10            HW_22_10         NLP1430          30.00      0.0130     5.44       5.41       0          0
48_8             NLM0330          NLP0650          30.00      0.0130     3.87       3.84       0          0
43_9             NLC4470          NLP0830          30.00      0.0130     3.89       3.86       0          0
40_10            NLH2020          NLP0870          30.00      0.0130     4.33       4.30       0          0
03_10            HW_03_10         NLP1430          30.00      0.0130     5.74       5.71       0          0
03_11            HW_03_11         NLP1250          30.00      0.0130     4.10       4.07       0          0
62_9             HW_62_9          NLP0110          30.00      0.0130     3.81       3.78       0          0
62_10            HW_62_10         NLP0090          30.00      0.0130     4.25       4.22       0          0
27_8             HW_27_8          NLP0070          30.00      0.0130     3.85       3.82       0          0
62_11            HW_62_11         NLP0650          30.00      0.0130     4.14       4.11       0          0
43_10            NLC4470          NLP0690          30.00      0.0130     3.89       3.86       0          0
43_11            NLC4470          NLP0810          30.00      0.0130     3.96       3.93       0          0
62_12            HW_62_12         NLP0430          30.00      0.0130     4.16       4.13       0          0
62_13            HW_62_13         NLP0690          30.00      0.0130     4.01       3.98       0          0
41_13            NLP1650          NLP0470          30.00      0.0130     4.17       4.14       0          0
86_8             NLA0210          NLP0690          30.00      0.0130     4.28       4.25       0          0
14_10            HW_14_10         NLP1310          30.00      0.0130     5.57       5.54       0          0
41_14            NLP1650          NLP0530          30.00      0.0130     4.21       4.18       0          0
41_15            NLP1650          NLP0510          30.00      0.0130     4.22       4.19       0          0
45_8             NLE1030          NLP0530          30.00      0.0130     3.99       3.96       0          0
07_10            NLC2170          NLP0470          30.00      0.0130     4.03       4.00       0          0
07_11            NLC2170          NLP0090          30.00      0.0130     2.75       2.72       0          0
51_10            HW_51_10         NLP0130          30.00      0.0130     1.79       1.76       0          0
51_11            HW_51_11         NLP0150          30.00      0.0130     2.00       1.97       0          0
84_9             NLD1150          NLP1030          30.00      0.0130     6.49       6.46       0          0
50_11            HW_50_11         NLP1330          30.00      0.0130     6.15       6.12       0          0
86_9             NLA0210          NLP0250          30.00      0.0130     3.66       3.63       0          0
88_11            NLJ1560          NLP1030          30.00      0.0130     6.33       6.30       0          0
24_8             NLB0730          NLP0510          30.00      0.0130     4.06       4.03       0          0
07_12            NLC2170          NLP0230          30.00      0.0130     2.80       2.77       0          0
07_13            NLC2170          NLP0150          30.00      0.0130     2.82       2.79       0          0
07_14            NLC2170          NLP0210          30.00      0.0130     2.90       2.87       0          0
69_8             NLB0370          NLP0150          30.00      0.0130     2.59       2.56       0          0
83_8             NLP0650          NLP0270          30.00      0.0130     4.69       4.66       0          0
39_8             NLG0450          NLP0550          30.00      0.0130     4.73       4.70       0          0
24_9             NLB0730          NLP0530          30.00      0.0130     3.91       3.88       0          0
60_9             HW_60_9          NLP0190          30.00      0.0130     3.51       3.48       0          0
50_12            NLH0790          NLC1170          30.00      0.0130     8.30       8.27       0          0
96_7             NLM0130          NLE0910          30.00      0.0130     7.94       7.91       0          0
02_11            NLC2470          NLE1050          30.00      0.0130     5.56       5.53       0          0
97_8             NLJ1560          NLC1050          30.00      0.0130     7.16       7.13       0          0
99_10            NLH0730          NLE0890          30.00      0.0130     6.18       6.15       0          0
02_12            NLC2470          NLE0950          30.00      0.0130     5.53       5.50       0          0
03_12            NLD1150          NLE1070          30.00      0.0130     6.11       6.08       0          0
05_9             NLH2020          NLE1090          30.00      0.0130     5.42       5.39       0          0
35_9             NLA0270          NLB0770          30.00      0.0130     8.00       7.97       0          0
79_11            HW_79_11         NLC1630          30.00      0.0130     8.46       8.43       0          0
71_10            HW_71_10         NLC2250          30.00      0.0130     9.86       9.83       0          0
85_13            HW_85_13         NLC3570          30.00      0.0130     9.43       9.40       0          0
33_10            HW_33_10         NLC1630          30.00      0.0130     8.62       8.59       0          0
01_8             NLH1780          NLE0950          30.00      0.0130     4.75       4.72       0          0
06_10            NLJ1560          NLC0310          30.00      0.0130     5.52       5.49       0          0
59_9             HW_59_9          NLC3970          30.00      0.0130     12.41      12.38      0          0
71_11            HW_71_11         NLC4150          30.00      0.0130     11.82      11.79      0          0
59_10            HW_59_10         NLC4170          30.00      0.0130     11.92      11.89      0          0
05_10            NLH2020          NLC0310          30.00      0.0130     5.56       5.53       0          0
99_11            HW_99_11         NLC3570          30.00      0.0130     11.02      10.99      0          0
01_9             NLH1780          NLC0310          30.00      0.0130     5.08       5.05       0          0
50_13            NLH0790          NLC1090          30.00      0.0130     6.94       6.91       0          0
50_14            NLH0790          NLC0490          30.00      0.0130     7.98       7.95       0          0
79_12            HW_79_12         NLC1610          30.00      0.0130     8.08       8.05       0          0
17_9             HW_17_9          NLE0570          30.00      0.0130     4.03       4.00       0          0
51_12            NLH1780          NLC0510          30.00      0.0130     8.05       8.02       0          0
71_12            HW_71_12         NLC4170          30.00      0.0130     12.36      12.33      0          0
03_13            NLD1150          NLC0150          30.00      0.0130     4.31       4.28       0          0
03_14            NLD1150          NLC0310          30.00      0.0130     5.70       5.67       0          0
71_13            HW_71_13         NLC3810          30.00      0.0130     11.74      11.71      0          0
53_10            HW_53_10         NLC3670          30.00      0.0130     11.17      11.14      0          0
58_11            HW_58_11         NLC2270          30.00      0.0130     9.55       9.52       0          0
26_9             HW_26_9          NLG0650          30.00      0.0130     8.81       8.78       0          0
66_9             NLP1550          NLC1010          30.00      0.0130     7.62       7.59       0          0
28_10            HW_28_10         NLC2130          30.00      0.0130     8.37       8.34       0          0
28_11            HW_28_11         NLC2070          30.00      0.0130     8.14       8.11       0          0
33_11            HW_33_11         NLC2130          30.00      0.0130     8.41       8.38       0          0
79_13            HW_79_13         NLC1590          30.00      0.0130     8.10       8.07       0          0
79_14            HW_79_14         NLC1030          30.00      0.0130     7.03       7.00       0          0
58_12            HW_58_12         NLC3870          30.00      0.0130     11.93      11.90      0          0
58_13            HW_58_13         NLC3930          30.00      0.0130     12.57      12.54      0          0
71_14            HW_71_14         NLC3930          30.00      0.0130     12.62      12.59      0          0
71_15            HW_71_15         NLC3910          30.00      0.0130     12.30      12.27      0          0
72_9             HW_72_9          NLC3810          30.00      0.0130     12.20      12.17      0          0
72_10            HW_72_10         NLC3870          30.00      0.0130     12.37      12.34      0          0
68_10            HW_68_10         NLC3870          30.00      0.0130     12.08      12.05      0          0
82_9             HW_82_9          NLC0030          30.00      0.0130     4.49       4.46       0          0
53_11            HW_53_11         NLC3810          30.00      0.0130     12.09      12.06      0          0
95_10            HW_95_10         NLC2270          30.00      0.0130     10.06      10.03      0          0
66_10            NLP1550          NLC0510          30.00      0.0130     7.29       7.26       0          0
26_10            HW_26_10         NLC1850          30.00      0.0130     8.05       8.02       0          0
50_15            NLH0790          NLC1590          30.00      0.0130     8.17       8.14       0          0
33_12            HW_33_12         NLC1590          30.00      0.0130     8.76       8.73       0          0
15_12            NLG0450          NLC0130          30.00      0.0130     5.23       5.20       0          0
67_10            HW_67_10         NLC3810          30.00      0.0130     11.45      11.42      0          0
67_11            HW_67_11         NLC3590          30.00      0.0130     11.31      11.28      0          0
53_12            HW_53_12         NLC3490          30.00      0.0130     9.61       9.58       0          0
95_11            HW_95_11         NLC2390          30.00      0.0130     10.05      10.02      0          0
15_13            NLG0450          NLC0330          30.00      0.0130     5.41       5.38       0          0
31_11            HW_31_11         NLC1010          30.00      0.0130     8.29       8.26       0          0
64_8             NLP1650          NLC1010          30.00      0.0130     6.00       5.97       0          0
72_11            NLD0210          NLC0550          30.00      0.0130     7.12       7.09       0          0
64_9             NLP1650          NLC0650          30.00      0.0130     7.64       7.61       0          0
15_14            NLG0450          NLC0230          30.00      0.0130     4.07       4.04       0          0
15_15            NLG0450          NLC0110          30.00      0.0130     5.21       5.18       0          0
72_12            NLD0210          NLC0650          30.00      0.0130     7.60       7.57       0          0
82_10            HW_82_10         NLC0130          30.00      0.0130     3.69       3.66       0          0
96_8             HW_96_8          NLC1010          30.00      0.0130     7.46       7.43       0          0
52_8             HW_52_8          NLC3750          30.00      0.0130     11.79      11.76      0          0
67_12            HW_67_12         NLC3750          30.00      0.0130     11.47      11.44      0          0
76_8             HW_76_8          NLC0110          30.00      0.0130     4.75       4.72       0          0
19_12            HW_19_12         NLP1530          30.00      0.0130     5.01       4.98       0          0
39_9             NLG0450          NLP1090          30.00      0.0130     5.75       5.72       0          0
39_10            NLG0450          NLP1110          30.00      0.0130     5.75       5.72       0          0
19_13            HW_19_13         NLP1570          30.00      0.0130     5.30       5.27       0          0
39_11            NLG0450          NLP0330          30.00      0.0130     5.38       5.35       0          0
90_11            HW_90_11         NLP1630          30.00      0.0130     9.64       9.61       0          0
90_12            HW_90_12         NLP1610          30.00      0.0130     9.45       9.42       0          0
50_16            HW_50_16         NLP1650          30.00      0.0130     9.55       9.52       0          0
36_8             NLE1130          NLP1110          30.00      0.0130     6.42       6.39       0          0
56_11            NLC2710          NLP1110          30.00      0.0130     6.79       6.76       0          0
36_9             NLE1130          NLP0390          30.00      0.0130     5.60       5.57       0          0
62_14            HW_62_14         NLK0130          30.00      0.0130     3.30       3.27       0          0
38_9             HW_38_9          NLK0130          30.00      0.0130     3.04       3.01       0          0
38_10            HW_38_10         NLK0110          30.00      0.0130     2.85       2.82       0          0
38_11            HW_38_11         NLK0190          30.00      0.0130     3.53       3.50       0          0
79_15            HW_79_15         NLC4110          30.00      0.0130     10.94      10.91      0          0
877              NLN0370          NLZ0011          30.00      0.0130     3.43       3.40       0          0
543              NLD0570          NLZ0011          30.00      0.0130     3.86       3.83       0          0
50_17            HW_50_17         NLK0310          30.00      0.0130     4.15       4.12       0          0
50_18            HW_50_18         NLK0290          30.00      0.0130     4.13       4.10       0          0
21_8             NLC2170          NLM0370          30.00      0.0130     7.41       7.38       0          0
89_11            HW_89_11         NLM0110          30.00      0.0130     5.84       5.81       0          0
89_12            HW_89_12         NLM0070          30.00      0.0130     6.65       6.62       0          0
89_13            HW_89_13         NLM0190          30.00      0.0130     6.01       5.98       0          0
23_10            HW_23_10         NLM0370          30.00      0.0130     6.65       6.62       0          0
93_10            NLC2710          NLM0210          30.00      0.0130     6.66       6.63       0          0
14_11            NLG0450          NLM0230          30.00      0.0130     6.77       6.74       0          0
18_9             NLB0910          NLI0210          30.00      0.0130     6.64       6.61       0          0
17_10            NLB0730          NLI0210          30.00      0.0130     6.43       6.40       0          0
94_8             NLN0110          NLI0170          30.00      0.0130     6.35       6.32       0          0
25_12            HW_25_12         NLI0170          30.00      0.0130     6.58       6.55       0          0
95_12            NLC3770          NLM0270          30.00      0.0130     6.97       6.94       0          0
09_9             HW_09_9          NLI0130          30.00      0.0130     6.57       6.54       0          0
23_11            HW_23_11         NLI0070          30.00      0.0130     6.45       6.42       0          0
95_13            NLC3770          NLI0090          30.00      0.0130     6.82       6.79       0          0
03_15            NLC2230          NLI0290          30.00      0.0130     6.97       6.94       0          0
23_12            NLI0050          NLI0330          30.00      0.0130     5.90       5.87       0          0
02_13            NLP1590          NLI0450          30.00      0.0130     8.50       8.47       0          0
05_11            NLC2710          NLI0450          30.00      0.0130     6.09       6.06       0          0
10_14            HW_10_14         NLI0010          30.00      0.0130     1.80       1.77       0          0
05_12            NLC2710          NLI0230          30.00      0.0130     5.87       5.84       0          0
05_13            NLC2710          NLI0250          30.00      0.0130     6.97       6.94       0          0
06_11            NLB0910          NLI0070          30.00      0.0130     6.39       6.36       0          0
03_16            NLC2230          NLI0270          30.00      0.0130     6.25       6.22       0          0
09_10            HW_09_10         NLG0070          30.00      0.0130     5.62       5.59       0          0
01_10            NLN0110          NLI0070          30.00      0.0130     6.19       6.16       0          0
03_17            NLC2230          NLG0190          30.00      0.0130     6.89       6.86       0          0
90_13            NLC1030          NLI0510          30.00      0.0130     10.25      10.22      0          0
40_11            HW_40_11         NLC1330          30.00      0.0130     7.97       7.94       0          0
01_11            NLN0110          NLG0070          30.00      0.0130     6.29       6.26       0          0
98_12            HW_98_12         NLC4370          30.00      0.0130     10.50      10.47      0          0
00_7             NLG0450          NLG0070          30.00      0.0130     6.25       6.22       0          0
99_12            HW_99_12         NLC4690          30.00      0.0130     11.23      11.20      0          0
03_18            NLC2230          NLI0330          30.00      0.0130     6.61       6.58       0          0
38_12            HW_38_12         NLI0330          30.00      0.0130     6.08       6.05       0          0
02_14            HW_02_14         NLI0330          30.00      0.0130     6.33       6.30       0          0
17_11            HW_17_11         NLC4390          30.00      0.0130     10.11      10.08      0          0
38_13            HW_38_13         NLC1270          30.00      0.0130     8.47       8.44       0          0
45_9             NLH0310          NLC1270          30.00      0.0130     7.68       7.65       0          0
45_10            NLH0310          NLC1130          30.00      0.0130     6.99       6.96       0          0
07_15            HW_07_15         NLG0070          30.00      0.0130     5.89       5.86       0          0
29_9             NLJ0150          NLG0070          30.00      0.0130     6.03       6.00       0          0
17_12            HW_17_12         NLC4330          30.00      0.0130     9.83       9.80       0          0
29_10            NLJ0150          NLG0130          30.00      0.0130     5.20       5.17       0          0
26_11            NLB0370          NLG0130          30.00      0.0130     5.48       5.45       0          0
42_10            NLI0050          NLG0250          30.00      0.0130     9.34       9.31       0          0
01_12            HW_01_12         NLC4570          30.00      0.0130     10.75      10.72      0          0
17_13            HW_17_13         NLC4310          30.00      0.0130     10.15      10.12      0          0
17_14            HW_17_14         NLC4290          30.00      0.0130     10.77      10.74      0          0
21_9             HW_21_9          NLG0490          30.00      0.0130     10.84      10.81      0          0
94_9             NLC3770          NLG0350          30.00      0.0130     10.61      10.58      0          0
05_14            NLE1130          NLE0110          30.00      0.0130     5.53       5.50       0          0
87_9             NLK0010          NLC1330          30.00      0.0130     10.85      10.82      0          0
40_12            HW_40_12         NLE0210          30.00      0.0130     6.83       6.80       0          0
45_11            NLB0370          NLE0190          30.00      0.0130     7.25       7.22       0          0
28_12            NLL0410          NLG0090          30.00      0.0130     4.37       4.34       0          0
05_15            HW_05_15         NLE0010          30.00      0.0130     5.05       5.02       0          0
02_15            HW_02_15         NLC4570          30.00      0.0130     10.55      10.52      0          0
26_12            NLB0370          NLE1170          30.00      0.0130     4.53       4.50       0          0
98_13            NLD1150          NLC1450          30.00      0.0130     10.51      10.48      0          0
26_13            NLB0370          NLE0190          30.00      0.0130     7.15       7.12       0          0
26_14            NLB0370          NLE0250          30.00      0.0130     5.73       5.70       0          0
26_15            NLB0370          NLE0170          30.00      0.0130     5.75       5.72       0          0
26_16            NLB0370          NLE0150          30.00      0.0130     5.16       5.13       0          0
21_10            HW_21_10         NLC4290          30.00      0.0130     10.51      10.48      0          0
02_16            HW_02_16         NLC4230          30.00      0.0130     10.20      10.17      0          0
39_12            HW_39_12         NLC1430          30.00      0.0130     10.30      10.27      0          0
39_13            HW_39_13         NLC1350          30.00      0.0130     10.83      10.80      0          0
39_14            HW_39_14         NLC1370          30.00      0.0130     10.34      10.31      0          0
27_9             HW_27_9          NLE1170          30.00      0.0130     5.10       5.07       0          0
22_11            HW_22_11         NLE0330          30.00      0.0130     7.68       7.65       0          0
04_10            NLC2230          NLE0370          30.00      0.0130     5.93       5.90       0          0
96_9             NLM0130          NLE0370          30.00      0.0130     7.52       7.49       0          0
97_9             NLC4470          NLE0450          30.00      0.0130     6.02       5.99       0          0
22_12            HW_22_12         NLE0190          30.00      0.0130     7.41       7.38       0          0
68_11            HW_68_11         NLC1350          30.00      0.0130     9.75       9.72       0          0
21_11            HW_21_11         NLE0110          30.00      0.0130     5.63       5.60       0          0
29_11            NLJ0150          NLE0250          30.00      0.0130     4.89       4.86       0          0
49_9             NLN0110          NLE0250          30.00      0.0130     4.85       4.82       0          0
28_13            NLL0410          NLE0050          30.00      0.0130     5.34       5.31       0          0
28_14            NLL0410          NLE0070          30.00      0.0130     4.88       4.85       0          0
29_12            NLJ0150          NLE0270          30.00      0.0130     4.81       4.78       0          0
29_13            NLJ0150          NLE0090          30.00      0.0130     4.99       4.96       0          0
98_14            NLD1150          NLC1430          30.00      0.0130     10.59      10.56      0          0
05_16            HW_05_16         NLE0030          30.00      0.0130     4.33       4.30       0          0
05_17            HW_05_17         NLE0050          30.00      0.0130     4.26       4.23       0          0
00_8             NLC3990          NLE0890          30.00      0.0130     6.05       6.02       0          0
99_13            NLH0730          NLC0310          30.00      0.0130     5.49       5.46       0          0
30_8             NLJ0190          NLE0270          30.00      0.0130     5.32       5.29       0          0
32_9             HW_32_9          NLE0470          30.00      0.0130     5.27       5.24       0          0
30_9             NLJ0190          NLE0090          30.00      0.0130     5.14       5.11       0          0
49_10            NLN0110          NLE0310          30.00      0.0130     5.65       5.62       0          0
83_9             HW_83_9          NLC4190          30.00      0.0130     9.76       9.73       0          0
83_10            HW_83_10         NLC4490          30.00      0.0130     9.74       9.71       0          0
81_9             HW_81_9          NLC4490          30.00      0.0130     10.24      10.21      0          0
81_10            HW_81_10         NLC4530          30.00      0.0130     10.35      10.32      0          0
30_10            NLJ0190          NLE0310          30.00      0.0130     5.27       5.24       0          0
48_9             NLI0050          NLE0470          30.00      0.0130     5.01       4.98       0          0
00_9             NLC3770          NLE0330          30.00      0.0130     5.70       5.67       0          0
12_11            NLK0010          NLE0310          30.00      0.0130     4.38       4.35       0          0
79_16            HW_79_16         NLC4210          30.00      0.0130     10.77      10.74      0          0
50_19            HW_50_19         NLC4490          30.00      0.0130     10.29      10.26      0          0
12_12            NLK0010          NLE0070          30.00      0.0130     5.98       5.95       0          0
45_12            NLH0310          NLC1250          30.00      0.0130     7.75       7.72       0          0
81_11            HW_81_11         NLC4190          30.00      0.0130     9.68       9.65       0          0
86_10            HW_86_10         NLC4150          30.00      0.0130     11.71      11.68      0          0
82_11            HW_82_11         NLC4110          30.00      0.0130     9.79       9.76       0          0
85_14            HW_85_14         NLC4190          30.00      0.0130     9.48       9.45       0          0
50_20            HW_50_20         NLC4190          30.00      0.0130     10.88      10.85      0          0
82_12            HW_82_12         NLC4030          30.00      0.0130     9.09       9.06       0          0
47_8             NLA0210          NLE0070          30.00      0.0130     5.97       5.94       0          0
45_13            NLH0310          NLC1230          30.00      0.0130     7.35       7.32       0          0
35_10            HW_35_10         NLE0630          30.00      0.0130     5.49       5.46       0          0
04_11            NLC2230          NLE0350          30.00      0.0130     5.93       5.90       0          0
12_13            NLK0010          NLE0390          30.00      0.0130     5.99       5.96       0          0
47_9             NLA0210          NLE0350          30.00      0.0130     4.98       4.95       0          0
49_11            NLI0050          NLA0370          30.00      0.0130     5.62       5.59       0          0
92_7             HW_92_7          NLA0090          30.00      0.0130     3.95       3.92       0          0
22_13            HW_22_13         NLC2030          30.00      0.0130     9.98       9.95       0          0
50_21            HW_50_21         NLC4030          30.00      0.0130     10.52      10.49      0          0
38_14            HW_38_14         NLE0130          30.00      0.0130     7.56       7.53       0          0
04_12            NLC2230          NLE0450          30.00      0.0130     6.16       6.13       0          0
34_9             HW_34_9          NLE0630          30.00      0.0130     5.04       5.01       0          0
47_10            NLA0210          NLE0390          30.00      0.0130     4.75       4.72       0          0
56_12            NLP1590          NLE0430          30.00      0.0130     4.81       4.78       0          0
45_14            NLH0310          NLC1110          30.00      0.0130     6.98       6.95       0          0
42_11            NLD0210          NLE0730          30.00      0.0130     4.81       4.78       0          0
96_10            NLM0130          NLE0450          30.00      0.0130     7.60       7.57       0          0
50_22            HW_50_22         NLC4210          30.00      0.0130     10.55      10.52      0          0
68_12            HW_68_12         NLD1130          30.00      0.0130     12.56      12.53      0          0
18_10            HW_18_10         NLZ0070          30.00      0.0130     11.67      11.64      0          0
89_14            NLM0330          NLD0550          30.00      0.0130     8.37       8.34       0          0
89_15            NLM0330          NLD0650          30.00      0.0130     8.23       8.20       0          0
92_8             NLC0330          NLD0510          30.00      0.0130     8.85       8.82       0          0
56_13            NLN0110          NLD0330          30.00      0.0130     6.40       6.37       0          0
07_16            HW_07_16         NLC3530          30.00      0.0130     10.88      10.85      0          0
06_12            HW_06_12         NLC2310          30.00      0.0130     9.82       9.79       0          0
06_13            HW_06_13         NLC2350          30.00      0.0130     10.43      10.40      0          0
71_16            HW_71_16         NLC2310          30.00      0.0130     10.51      10.48      0          0
57_8             NLP1150          NLE0430          30.00      0.0130     4.47       4.44       0          0
55_8             NLD0570          NLE0430          30.00      0.0130     5.95       5.92       0          0
21_12            HW_21_12         NLC2250          30.00      0.0130     10.53      10.50      0          0
57_9             NLP1150          NLE0510          30.00      0.0130     4.11       4.08       0          0
42_12            NLD0210          NLE0570          30.00      0.0130     3.36       3.33       0          0
42_13            NLD0210          NLE0690          30.00      0.0130     3.21       3.18       0          0
97_10            NLC4470          NLE0850          30.00      0.0130     6.32       6.29       0          0
57_10            NLP1150          NLE0750          30.00      0.0130     4.12       4.09       0          0
55_9             NLD0570          NLE0830          30.00      0.0130     5.47       5.44       0          0
57_11            NLP1150          NLE0830          30.00      0.0130     5.60       5.57       0          0
57_12            NLP1150          NLE1030          30.00      0.0130     5.66       5.63       0          0
08_10            NLZ0075          NLE1030          30.00      0.0130     6.18       6.15       0          0
39_15            NLC0770          NLE0730          30.00      0.0130     4.10       4.07       0          0
44_9             NLN0170          NLE0670          30.00      0.0130     3.62       3.59       0          0
02_17            NLP1650          NLE0570          30.00      0.0130     3.25       3.22       0          0
45_15            NLA0270          NLE1030          30.00      0.0130     5.20       5.17       0          0
45_16            NLA0270          NLE1050          30.00      0.0130     5.23       5.20       0          0
39_16            NLC0770          NLE0570          30.00      0.0130     2.65       2.62       0          0
69_9             HW_69_9          NLC1730          30.00      0.0130     8.41       8.38       0          0
50_23            HW_50_23         NLC3530          30.00      0.0130     10.53      10.50      0          0
00_10            NLC3990          NLE0790          30.00      0.0130     7.44       7.41       0          0
03_19            NLD1150          NLE1030          30.00      0.0130     6.02       5.99       0          0
95_14            HW_95_14         NLC3530          30.00      0.0130     10.98      10.95      0          0
33_13            HW_33_13         NLC1730          30.00      0.0130     8.45       8.42       0          0
75_9             HW_75_9          NLC1630          30.00      0.0130     8.32       8.29       0          0
46_10            NLJ2020          NLC1170          30.00      0.0130     7.04       7.01       0          0
46_11            NLJ2020          NLC1070          30.00      0.0130     6.92       6.89       0          0
03_20            NLD1150          NLE1050          30.00      0.0130     6.18       6.15       0          0
87_10            HW_87_10         NLC2790          30.00      0.0130     11.99      11.96      0          0
50_24            HW_50_24         NLC3570          30.00      0.0130     10.50      10.47      0          0
23_13            NLJ0150          NLC1050          30.00      0.0130     7.98       7.95       0          0
53_13            HW_53_13         NLC2430          30.00      0.0130     11.11      11.08      0          0
53_14            HW_53_14         NLC2390          30.00      0.0130     9.89       9.86       0          0
64_10            NLP1650          NLC1550          30.00      0.0130     6.52       6.49       0          0
45_17            HW_45_17         NLC4450          30.00      0.0130     10.98      10.95      0          0
17_15            HW_17_15         NLC4410          30.00      0.0130     9.72       9.69       0          0
64_11            NLP1650          NLC0630          30.00      0.0130     7.71       7.68       0          0
64_12            NLP1650          NLC0750          30.00      0.0130     7.64       7.61       0          0
67_13            HW_67_13         NLC2710          30.00      0.0130     11.18      11.15      0          0
05_18            HW_05_18         NLC3710          30.00      0.0130     11.66      11.63      0          0
96_11            HW_96_11         NLC0710          30.00      0.0130     7.03       7.00       0          0
79_17            HW_79_17         NLC2710          30.00      0.0130     11.97      11.94      0          0
05_19            HW_05_19         NLC2710          30.00      0.0130     11.88      11.85      0          0
30_11            HW_30_11         NLC2070          30.00      0.0130     8.33       8.30       0          0
30_12            HW_30_12         NLC1810          30.00      0.0130     8.51       8.48       0          0
22_14            HW_22_14         NLC2070          30.00      0.0130     9.08       9.05       0          0
71_17            NLB0910          NLC0350          30.00      0.0130     6.11       6.08       0          0
25_13            HW_25_13         NLC1810          30.00      0.0130     6.66       6.63       0          0
72_13            NLD0210          NLC0570          30.00      0.0130     7.49       7.46       0          0
79_18            HW_79_18         NLC2670          30.00      0.0130     12.35      12.32      0          0
60_10            NLD0570          NLC0710          30.00      0.0130     6.87       6.84       0          0
70_11            NLC4470          NLC0710          30.00      0.0130     5.87       5.84       0          0
16_8             HW_16_8          NLC4390          30.00      0.0130     11.06      11.03      0          0
68_13            NLC2170          NLB0150          30.00      0.0130     6.12       6.09       0          0
60_11            NLD0570          NLC0630          30.00      0.0130     7.97       7.94       0          0
72_14            NLD0210          NLC0770          30.00      0.0130     7.51       7.48       0          0
72_15            NLD0210          NLC0410          30.00      0.0130     7.56       7.53       0          0
72_16            NLD0210          NLC0390          30.00      0.0130     7.56       7.53       0          0
24_10            HW_24_10         NLC1890          30.00      0.0130     8.12       8.09       0          0
86_11            NLC2710          NLD0190          30.00      0.0130     7.13       7.10       0          0
86_12            NLC2710          NLD0410          30.00      0.0130     7.00       6.97       0          0
79_19            HW_79_19         NLC2630          30.00      0.0130     11.83      11.80      0          0
55_10            HW_55_10         NLC0770          30.00      0.0130     8.45       8.42       0          0
70_12            NLC4470          NLC0390          30.00      0.0130     8.03       8.00       0          0
85_15            HW_85_15         NLC2730          30.00      0.0130     11.57      11.54      0          0
76_9             NLK0010          NLC0390          30.00      0.0130     6.52       6.49       0          0
58_14            HW_58_14         NLD0190          30.00      0.0130     3.57       3.54       0          0
22_15            HW_22_15         NLC1930          30.00      0.0130     10.41      10.38      0          0
65_9             HW_65_9          NLD0410          30.00      0.0130     5.35       5.32       0          0
24_11            HW_24_11         NLC2010          30.00      0.0130     6.10       6.07       0          0
79_20            HW_79_20         NLC2730          30.00      0.0130     11.70      11.67      0          0
79_21            HW_79_21         NLC2390          30.00      0.0130     9.34       9.31       0          0
79_22            HW_79_22         NLC2530          30.00      0.0130     8.39       8.36       0          0
61_8             NLM0130          NLC0770          30.00      0.0130     7.53       7.50       0          0
61_9             NLM0130          NLC0830          30.00      0.0130     7.91       7.88       0          0
12_14            HW_12_14         NLC2530          30.00      0.0130     9.16       9.13       0          0
58_15            HW_58_15         NLD0170          30.00      0.0130     3.95       3.92       0          0
03_21            NLA0270          NLC0770          30.00      0.0130     7.95       7.92       0          0
82_13            HW_82_13         NLD0410          30.00      0.0130     5.00       4.97       0          0
87_11            NLK0010          NLD0170          30.00      0.0130     4.94       4.91       0          0
58_16            HW_58_16         NLD0150          30.00      0.0130     5.18       5.15       0          0
19_14            NLJ0190          NLB1090          30.00      0.0130     10.75      10.72      0          0
27_10            HW_27_10         NLB0870          30.00      0.0130     8.06       8.03       0          0
52_9             HW_52_9          NLC2910          30.00      0.0130     12.70      12.67      0          0
14_12            NLN0110          NLC0430          30.00      0.0130     6.33       6.30       0          0
92_9             NLC0330          NLD0410          30.00      0.0130     5.17       5.14       0          0
87_12            NLK0010          NLD0410          30.00      0.0130     5.00       4.97       0          0
28_15            NLC2170          NLC0250          30.00      0.0130     5.42       5.39       0          0
76_10            HW_76_10         NLC0250          30.00      0.0130     4.74       4.71       0          0
76_11            HW_76_11         NLC0250          30.00      0.0130     5.13       5.10       0          0
60_12            NLC1030          NLD0410          30.00      0.0130     12.04      12.01      0          0
56_14            HW_56_14         NLC2890          30.00      0.0130     11.41      11.38      0          0
59_11            HW_59_11         NLC0830          30.00      0.0130     8.19       8.16       0          0
59_12            HW_59_12         NLC0850          30.00      0.0130     7.65       7.62       0          0
86_13            NLC2710          NLD0450          30.00      0.0130     12.49      12.46      0          0
64_13            NLJ0190          NLD1110          30.00      0.0130     11.66      11.63      0          0
87_13            NLK0010          NLD0150          30.00      0.0130     4.27       4.24       0          0
66_11            HW_66_11         NLD0230          30.00      0.0130     2.44       2.41       0          0
59_13            HW_59_13         NLD0150          30.00      0.0130     4.48       4.45       0          0
28_16            NLC2170          NLN0230          30.00      0.0130     5.25       5.22       0          0
28_17            NLC2170          NLN0250          30.00      0.0130     5.81       5.78       0          0
56_15            HW_56_15         NLC2790          30.00      0.0130     11.78      11.75      0          0
82_14            HW_82_14         NLC2730          30.00      0.0130     10.68      10.65      0          0
87_14            HW_87_14         NLC2730          30.00      0.0130     11.86      11.83      0          0
87_15            NLK0010          NLD0230          30.00      0.0130     4.49       4.46       0          0
89_16            HW_89_16         NLD0230          30.00      0.0130     2.83       2.80       0          0
23_14            HW_23_14         NLB0890          30.00      0.0130     8.21       8.18       0          0
76_12            HW_76_12         NLN0230          30.00      0.0130     6.09       6.06       0          0
76_13            HW_76_13         NLC0210          30.00      0.0130     4.91       4.88       0          0
60_13            NLC1030          NLC2910          30.00      0.0130     12.51      12.48      0          0
78_10            HW_78_10         NLC2930          30.00      0.0130     12.45      12.42      0          0
82_15            HW_82_15         NLC2810          30.00      0.0130     11.59      11.56      0          0
10_15            HW_10_15         NLC0850          30.00      0.0130     8.29       8.26       0          0
60_14            NLC3990          NLC0930          30.00      0.0130     8.17       8.14       0          0
92_10            NLC0330          NLD0550          30.00      0.0130     8.04       8.01       0          0
56_16            NLN0110          NLD0570          30.00      0.0130     6.12       6.09       0          0
32_10            NLP0650          NLD0730          30.00      0.0130     12.57      12.54      0          0
32_11            NLP0650          NLD0350          30.00      0.0130     7.97       7.94       0          0
77_9             HW_77_9          NLN0230          30.00      0.0130     5.98       5.95       0          0
15_16            HW_15_16         NLN0250          30.00      0.0130     6.17       6.14       0          0
87_16            HW_87_16         NLC2870          30.00      0.0130     12.38      12.35      0          0
59_14            NLH2660          NLC0930          30.00      0.0130     8.32       8.29       0          0
32_12            NLP0650          NLD0570          30.00      0.0130     7.96       7.93       0          0
33_14            HW_33_14         NLC2930          30.00      0.0130     12.78      12.75      0          0
78_11            HW_78_11         NLD0770          30.00      0.0130     14.03      14.00      0          0
65_10            NLC2470          NLD0830          30.00      0.0130     13.58      13.55      0          0
59_15            HW_59_15         NLC0810          30.00      0.0130     7.51       7.48       0          0
02_18            NLE1030          NLC0770          30.00      0.0130     7.07       7.04       0          0
82_16            HW_82_16         NLC2870          30.00      0.0130     12.09      12.06      0          0
89_17            NLM0330          NLD0570          30.00      0.0130     8.49       8.46       0          0
74_8             HW_74_8          NLC0210          30.00      0.0130     4.25       4.22       0          0
77_10            HW_77_10         NLC0210          30.00      0.0130     4.72       4.69       0          0
71_18            NLG0450          NLN0210          30.00      0.0130     6.36       6.33       0          0
14_13            NLN0110          NLN0190          30.00      0.0130     6.24       6.21       0          0
81_12            NLD0210          NLD0610          30.00      0.0130     9.08       9.05       0          0
77_11            NLN0170          NLD0650          30.00      0.0130     12.25      12.22      0          0
65_11            NLA0270          NLC2830          30.00      0.0130     13.59      13.56      0          0
27_11            HW_27_11         NLC2050          30.00      0.0130     8.02       7.99       0          0
27_12            HW_27_12         NLB0850          30.00      0.0130     8.00       7.97       0          0
62_15            NLJ0190          NLC1070          30.00      0.0130     6.89       6.86       0          0
77_12            HW_77_12         NLN0010          30.00      0.0130     4.47       4.44       0          0
10_16            HW_10_16         NLC0930          30.00      0.0130     7.50       7.47       0          0
55_11            NLH1700          NLN0170          30.00      0.0130     7.76       7.73       0          0
65_12            NLC2470          NLD0770          30.00      0.0130     13.35      13.32      0          0
81_13            NLD0210          NLD0710          30.00      0.0130     11.97      11.94      0          0
13_11            NLB0370          NLN0150          30.00      0.0130     7.41       7.38       0          0
15_17            HW_15_17         NLN0050          30.00      0.0130     5.45       5.42       0          0
77_13            HW_77_13         NLN0190          30.00      0.0130     5.18       5.15       0          0
82_17            HW_82_17         NLC3030          30.00      0.0130     12.20      12.17      0          0
22_16            HW_22_16         NLC2470          30.00      0.0130     11.36      11.33      0          0
08_11            NLC2230          NLN0150          30.00      0.0130     7.10       7.07       0          0
07_17            NLC1030          NLN0150          30.00      0.0130     7.52       7.49       0          0
82_18            HW_82_18         NLC2990          30.00      0.0130     12.40      12.37      0          0
36_10            HW_36_10         NLC2870          30.00      0.0130     12.97      12.94      0          0
64_14            HW_64_14         NLD0830          30.00      0.0130     12.98      12.95      0          0
08_12            NLC2230          NLN0370          30.00      0.0130     5.24       5.21       0          0
80_9             NLH0730          NLD0810          30.00      0.0130     13.91      13.88      0          0
68_14            NLC2170          NLN0370          30.00      0.0130     5.54       5.51       0          0
55_12            NLH1700          NLB0750          30.00      0.0130     8.27       8.24       0          0
55_13            NLH1700          NLB0670          30.00      0.0130     8.58       8.55       0          0
68_15            NLC2170          NLB0210          30.00      0.0130     5.48       5.45       0          0
35_11            NLC3770          NLN0050          30.00      0.0130     5.66       5.63       0          0
35_12            NLC3770          NLB0210          30.00      0.0130     5.09       5.06       0          0
47_11            HW_47_11         NLZ0035          30.00      0.0130     8.01       7.98       0          0
68_16            NLC2170          NLB0230          30.00      0.0130     5.62       5.59       0          0
36_11            HW_36_11         NLD0830          30.00      0.0130     13.41      13.38      0          0
08_13            NLC2230          NLB0590          30.00      0.0130     7.13       7.10       0          0
32_13            NLC2470          NLB0830          30.00      0.0130     8.27       8.24       0          0
18_11            NLJ1560          NLB0890          30.00      0.0130     7.89       7.86       0          0
64_15            NLB0370          NLN0050          30.00      0.0130     5.43       5.40       0          0
36_12            HW_36_12         NLC2990          30.00      0.0130     11.91      11.88      0          0
64_16            NLH1170          NLC3030          30.00      0.0130     13.23      13.20      0          0
75_10            HW_75_10         NLN0010          30.00      0.0130     4.65       4.62       0          0
75_11            HW_75_11         NLN0350          30.00      0.0130     5.04       5.01       0          0
36_13            NLP1550          NLB0590          30.00      0.0130     8.31       8.28       0          0
37_8             NLC0770          NLB0590          30.00      0.0130     8.30       8.27       0          0
29_14            NLH2200          NLB0950          30.00      0.0130     8.61       8.58       0          0
37_9             NLC0770          NLB0750          30.00      0.0130     8.09       8.06       0          0
67_14            HW_67_14         NLB0230          30.00      0.0130     4.96       4.93       0          0
74_9             HW_74_9          NLN0350          30.00      0.0130     5.18       5.15       0          0
62_16            NLB0910          NLB0130          30.00      0.0130     5.09       5.06       0          0
64_17            NLB0370          NLB0130          30.00      0.0130     5.34       5.31       0          0
64_18            NLB0370          NLN0350          30.00      0.0130     5.16       5.13       0          0
64_19            NLB0370          NLB0110          30.00      0.0130     5.21       5.18       0          0
68_17            NLC2170          NLB0570          30.00      0.0130     6.62       6.59       0          0
18_12            NLJ1560          NLB0910          30.00      0.0130     8.88       8.85       0          0
19_15            NLJ0190          NLB0950          30.00      0.0130     10.67      10.64      0          0
67_15            HW_67_15         NLN0010          30.00      0.0130     4.97       4.94       0          0
41_16            NLD0590          NLB0690          30.00      0.0130     8.18       8.15       0          0
63_8             HW_63_8          NLN0350          30.00      0.0130     4.27       4.24       0          0
67_16            HW_67_16         NLB0570          30.00      0.0130     7.02       6.99       0          0
15_18            HW_15_18         NLC3050          30.00      0.0130     13.96      13.93      0          0
62_17            NLH2200          NLC2990          30.00      0.0130     13.65      13.62      0          0
61_10            HW_61_10         NLB0270          30.00      0.0130     5.64       5.61       0          0
45_18            HW_45_18         NLZ0045          30.00      0.0130     7.70       7.67       0          0
43_12            HW_43_12         NLZ0050          30.00      0.0130     8.23       8.20       0          0
52_10            NLP1650          NLB0750          30.00      0.0130     8.15       8.12       0          0
67_17            HW_67_17         NLB0110          30.00      0.0130     5.52       5.49       0          0
18_13            NLJ1560          NLB0830          30.00      0.0130     6.96       6.93       0          0
67_18            HW_67_18         NLB0270          30.00      0.0130     5.88       5.85       0          0
28_18            NLL0330          NLB0830          30.00      0.0130     6.71       6.68       0          0
16_9             NLC4470          NLB0530          30.00      0.0130     8.73       8.70       0          0
32_14            NLG0450          NLB0150          30.00      0.0130     6.26       6.23       0          0
67_19            HW_67_19         NLB0310          30.00      0.0130     5.55       5.52       0          0
24_12            NLE1030          NLB1070          30.00      0.0130     7.55       7.52       0          0
24_13            NLE1030          NLB0770          30.00      0.0130     8.07       8.04       0          0
34_10            NLK0010          NLB0310          30.00      0.0130     5.94       5.91       0          0
04_13            NLP0650          NLB0770          30.00      0.0130     7.33       7.30       0          0
41_17            NLP1150          NLB0750          30.00      0.0130     8.10       8.07       0          0
51_13            NLN0170          NLB0750          30.00      0.0130     8.71       8.68       0          0
05_20            NLM0130          NLB0530          30.00      0.0130     8.24       8.21       0          0
18_14            NLJ1560          NLB1070          30.00      0.0130     6.77       6.74       0          0
82_19            HW_82_19         NLB0070          30.00      0.0130     4.05       4.02       0          0
67_20            HW_67_20         NLB0050          30.00      0.0130     4.46       4.43       0          0
51_14            NLN0170          NLB0530          30.00      0.0130     8.71       8.68       0          0
14_14            HW_14_14         NLC3410          30.00      0.0130     13.22      13.19      0          0
53_15            NLJ2020          NLD1150          30.00      0.0130     10.88      10.85      0          0
24_14            NLE1030          NLB0790          30.00      0.0130     7.74       7.71       0          0
51_15            NLN0170          NLB0790          30.00      0.0130     8.68       8.65       0          0
67_21            HW_67_21         NLB0270          30.00      0.0130     5.05       5.02       0          0
34_11            NLK0010          NLB0270          30.00      0.0130     6.28       6.25       0          0
48_10            NLK0010          NLB0010          30.00      0.0130     4.96       4.93       0          0
12_15            HW_12_15         NLB0350          30.00      0.0130     5.78       5.75       0          0
34_12            NLK0010          NLA0430          30.00      0.0130     6.20       6.17       0          0
27_13            NLH0730          NLB1050          30.00      0.0130     6.69       6.66       0          0
05_21            NLM0130          NLB0970          30.00      0.0130     7.76       7.73       0          0
27_14            NLH0730          NLB1010          30.00      0.0130     6.69       6.66       0          0
22_17            NLO0110          NLB1090          30.00      0.0130     12.70      12.67      0          0
22_18            NLO0110          NLC3210          30.00      0.0130     13.27      13.24      0          0
50_25            NLZ0075          NLB0790          30.00      0.0130     8.61       8.58       0          0
12_16            HW_12_16         NLA0430          30.00      0.0130     6.23       6.20       0          0
64_20            NLJ0190          NLD1230          30.00      0.0130     12.34      12.31      0          0
68_18            HW_68_18         NLD1230          30.00      0.0130     11.99      11.96      0          0
06_14            NLZ0004          NLD1230          30.00      0.0130     11.54      11.51      0          0
05_22            NLM0130          NLB1010          30.00      0.0130     7.90       7.87       0          0
48_11            NLK0010          NLA0170          30.00      0.0130     5.22       5.19       0          0
42_14            NLP1590          NLB0790          30.00      0.0130     8.36       8.33       0          0
48_12            NLK0010          NLB0350          30.00      0.0130     5.90       5.87       0          0
82_20            NLE1130          NLA0170          30.00      0.0130     5.34       5.31       0          0
09_11            NLC2710          NLB0410          30.00      0.0130     7.71       7.68       0          0
82_21            NLE1130          NLA0150          30.00      0.0130     5.31       5.28       0          0
81_14            NLC3770          NLA0430          30.00      0.0130     6.85       6.82       0          0
68_19            HW_68_19         NLD1270          30.00      0.0130     12.11      12.08      0          0
06_15            NLZ0004          NLD1310          30.00      0.0130     12.53      12.50      0          0
49_12            NLI0050          NLA0150          30.00      0.0130     5.22       5.19       0          0
49_13            NLI0050          NLA0190          30.00      0.0130     5.19       5.16       0          0
42_15            NLP1590          NLB1010          30.00      0.0130     7.84       7.81       0          0
49_14            NLI0050          NLA0210          30.00      0.0130     5.28       5.25       0          0
49_15            NLI0050          NLA0070          30.00      0.0130     5.40       5.37       0          0
49_16            NLI0050          NLA0450          30.00      0.0130     7.66       7.63       0          0
49_17            NLI0050          NLA0390          30.00      0.0130     5.78       5.75       0          0
49_18            NLI0050          NLA0110          30.00      0.0130     5.23       5.20       0          0
49_19            NLI0050          NLA0290          30.00      0.0130     4.75       4.72       0          0
45_19            NLC1030          NLA0490          30.00      0.0130     7.53       7.50       0          0
21_13            NLH0790          NLA0510          30.00      0.0130     8.01       7.98       0          0
87_17            HW_87_17         NLA0090          30.00      0.0130     4.06       4.03       0          0
87_18            HW_87_18         NLA0290          30.00      0.0130     5.19       5.16       0          0
31_12            NLG0450          NLA0390          30.00      0.0130     4.88       4.85       0          0
87_19            HW_87_19         NLA0270          30.00      0.0130     5.40       5.37       0          0
29_15            NLB0730          NLA0390          30.00      0.0130     5.80       5.77       0          0
6807MOLP0590     NLD0590          NLZ0011          30.00      0.0130     1.55       1.52       0          0
54_9             HW_54_9          NLZ0006          30.00      0.0130     2.42       2.39       0          0
62_18            HW_62_18         NLZ0006          30.00      0.0130     3.55       3.52       0          0
27_15            HW_27_15         NLZ0006          30.00      0.0130     3.51       3.48       0          0
55_14            HW_55_14         NLZ0006          30.00      0.0130     4.00       3.97       0          0
60_15            HW_60_15         NLZ0006          30.00      0.0130     3.42       3.39       0          0
58_17            HW_58_17         NLZ0006          30.00      0.0130     3.95       3.92       0          0
18_15            HW_18_15         NLK0170          30.00      0.0130     3.89       3.86       0          0
14_15            HW_14_15         NLZ0006          30.00      0.0130     2.64       2.61       0          0
58_18            HW_58_18         NLZ0006          30.00      0.0130     2.75       2.72       0          0
59_16            HW_59_16         NLZ0006          30.00      0.0130     3.55       3.52       0          0
54_10            HW_54_10         NLZ0006          30.00      0.0130     2.28       2.25       0          0
57_13            HW_57_13         NLZ0009          30.00      0.0130     6.42       6.39       0          0
74_10            HW_74_10         NLZ0009          30.00      0.0130     4.10       4.07       0          0
745              NLZ0035          NLZ0012          30.00      0.0130     6.45       6.42       0          0
44_10            NLA0210          NLZ0009          30.00      0.0130     7.40       7.37       0          0
42_16            NLP1590          NLZ0009          30.00      0.0130     7.29       7.26       0          0
72_17            NLC2710          NLZ0009          30.00      0.0130     5.11       5.08       0          0
29_16            NLB0730          NLZ0009          30.00      0.0130     4.37       4.34       0          0
718              NLZ0080          NLZ0012          30.00      0.0130     9.05       9.02       0          0
21_14            NLH0790          NLZ0009          30.00      0.0130     7.87       7.84       0          0
87_20            HW_87_20         NLZ0009          30.00      0.0130     4.34       4.31       0          0
89_18            HW_89_18         NLZ0009          30.00      0.0130     4.03       4.00       0          0
83_11            HW_83_11         NLZ0009          30.00      0.0130     3.73       3.70       0          0
76_14            HW_76_14         NLZ0009          30.00      0.0130     3.82       3.79       0          0
35_13            HW_35_13         NLZ0009          30.00      0.0130     5.22       5.19       0          0
18_16            HW_18_16         NLZ0006          30.00      0.0130     3.35       3.32       0          0
05_23            NLC2710          NLI0370          30.00      0.0130     6.22       6.19       0          0
23_15            HW_23_15         NLI0370          30.00      0.0130     6.22       6.19       0          0
19_16            HW_19_16         NLI0210          30.00      0.0130     5.79       5.76       0          0
93_11            NLC2710          NLM0290          30.00      0.0130     6.36       6.33       0          0
84_10            NLA0210          NLM0310          30.00      0.0130     7.04       7.01       0          0
94_10            NLN0110          NLM0310          30.00      0.0130     6.77       6.74       0          0
89_19            HW_89_19         NLM0350          30.00      0.0130     6.06       6.03       0          0
88_12            NLK0010          NLM0370          30.00      0.0130     6.26       6.23       0          0
19_17            HW_19_17         NLI0130          30.00      0.0130     5.93       5.90       0          0
05_24            NLC2710          NLI0470          30.00      0.0130     6.61       6.58       0          0
05_25            NLC2710          NLI0490          30.00      0.0130     6.95       6.92       0          0
1183MOLJ1020     NLH1150          NLJ1160          30.00      0.0130     5.01       4.98       0          0
1082MOLJ1180A    NLJ2378          NLJ1420          30.00      0.0130     5.93       5.90       0          0
1159MOLJ1400     NLJ1400          NLJ1420          30.00      0.0130     3.91       3.88       0          0
1182MOLJ1040     NLH1430          NLZ0008          30.00      0.0130     5.69       5.66       0          0
1079MOLJ1060     NLJ2800          NLZ0008          30.00      0.0130     5.74       5.71       0          0
1183MOLJ1020B    NLH1150          NLJ1060          30.00      0.0130     5.90       5.87       0          0
1181MOLJ1360     NLJ1360          NLJ1060          30.00      0.0130     5.84       5.81       0          0
1181MOLJ1360A    NLJ1360          NLJ1180          30.00      0.0130     6.04       6.01       0          0
1081MOLJ1380     NLJ1380          NLJ1180          30.00      0.0130     6.01       5.98       0          0
1080MOLJ1120     NLJ1900          NLZ0008          30.00      0.0130     5.00       4.97       0          0
1181MOLJ1360C    NLJ1360          NLJ1100          30.00      0.0130     5.92       5.89       0          0
167MOLJ1140      NLJ0770          NLK0270          30.00      0.0130     5.16       5.13       0          0
1167MOLJ1140A    NLJ0770          NLZ0008          30.00      0.0130     4.75       4.72       0          0
1167MOLJ1140B    NLJ0770          NLJ1380          30.00      0.0130     5.78       5.75       0          0
1101MOLJ1260     NLL0290          NLJ1300          30.00      0.0130     7.36       7.33       0          0
1218MOLJ1300     NLJ1300          NLJ1280          30.00      0.0130     7.69       7.66       0          0
1112MOLJ2080B    NLJ2080          NLJ2020          30.00      0.0130     9.16       9.13       0          0
1218MOLJ1300A    NLJ1300          NLJ2020          30.00      0.0130     9.93       9.90       0          0
1168MOLJ1340     NLJ1340          NLJ1460          30.00      0.0130     6.87       6.84       0          0
1083MOLJ1640     NLJ1640          NLJ1480          30.00      0.0130     8.99       8.96       0          0
1128MOLJ0250     NLB0730          NLJ0510          30.00      0.0130     10.34      10.31      0          0
1125MOLJ0490     NLA0210          NLJ0250          30.00      0.0130     10.34      10.31      0          0

[WEIRS]
;;Name           From             To               Type       CrestHt    Qcoeff     Gated    EndCon   EndCoeff   Surcharge
;;-------------- ---------------- ---------------- ---------- ---------- ---------- -------- -------- ---------- ----------
13_8             NLC2230          NLB0430          TRANSVERSE 8.37       1.840      NO       0        0          YES
19_8             NLJ0190          NLB1110          TRANSVERSE 8.02       1.840      NO       0        0          YES
20_9             NLL0410          NLB1110          TRANSVERSE 9.77       1.840      NO       0        0          YES
22_6             NLO0110          NLB1210          TRANSVERSE 12.33      1.840      NO       0        0          YES
29_8             NLH2200          NLB0910          TRANSVERSE 8.40       1.840      NO       0        0          YES
36_6             NLP1550          NLB0630          TRANSVERSE 5.87       1.840      NO       0        0          YES
59_8             NLH2660          NLC0890          TRANSVERSE 7.59       1.840      NO       0        0          YES
79_6             HW_79_6          NLC2550          TRANSVERSE 6.80       1.840      NO       0        0          YES
95_7             NLD0210          NLG0610          TRANSVERSE 9.62       1.840      NO       0        0          YES
21_7             NLC2170          NLM0410          TRANSVERSE 6.47       1.840      NO       0        0          YES
27_7             HW_27_7          NLE0250          TRANSVERSE 4.29       1.840      NO       0        0          YES
30_6             NLJ0190          NLE1110          TRANSVERSE 4.11       1.840      NO       0        0          YES
38_8             HW_38_8          NLG0170          TRANSVERSE 5.18       1.840      NO       0        0          YES
42_9             NLI0050          NLG0290          TRANSVERSE 9.31       1.840      NO       0        0          YES
50_9             HW_50_9          NLZ0001          TRANSVERSE 3.87       1.840      NO       0        0          YES
52_6             NLB0910          NLK0210          TRANSVERSE 2.92       1.840      NO       0        0          YES
62_7             HW_62_7          NLK0150          TRANSVERSE 3.62       1.840      NO       0        0          YES
71_8             HW_71_8          NLC3770          TRANSVERSE 9.92       1.840      NO       0        0          YES
83_7             HW_83_7          NLC4510          TRANSVERSE 8.12       1.840      NO       0        0          YES
90_9             HW_90_9          NLC2690          TRANSVERSE 9.52       1.840      NO       0        0          YES
91_8             HW_91_8          NLC3630          TRANSVERSE 7.10       1.840      NO       0        0          YES
91_9             HW_91_9          NLC2410          TRANSVERSE 10.50      1.840      NO       0        0          YES
72_7             HW_72_7          NLC3510          TRANSVERSE 7.72       1.840      NO       0        0          YES
17_8             HW_17_8          NLC3090          TRANSVERSE 11.72      1.840      NO       0        0          YES
28_8             HW_28_8          NLC2090          TRANSVERSE 4.22       1.840      NO       0        0          YES
30_7             HW_30_7          NLC2150          TRANSVERSE 7.54       1.840      NO       0        0          YES
39_7             HW_39_7          NLC1390          TRANSVERSE 9.75       1.840      NO       0        0          YES
40_8             HW_40_8          NLC1470          TRANSVERSE 9.50       1.840      NO       0        0          YES
60_8             NLD0570          NLC0730          TRANSVERSE 2.54       1.840      NO       0        0          YES
72_8             NLD0210          NLC0610          TRANSVERSE 4.84       1.840      NO       0        0          YES
07_8             HW_07_8          NLG0030          TRANSVERSE 4.12       1.840      NO       0        0          YES
14_8             HW_14_8          NLP1490          TRANSVERSE 3.64       1.840      NO       0        0          YES
22_7             HW_22_7          NLP1390          TRANSVERSE 3.62       1.840      NO       0        0          YES
73_10            HW_73_10         NLD1350          TRANSVERSE 12.50      1.840      NO       0        0          YES
01_6             NLH1780          NLE0990          TRANSVERSE 5.42       1.840      NO       0        0          YES
36_7             HW_36_7          NLC3010          TRANSVERSE 10.95      1.840      NO       0        0          YES
12_10            HW_12_10         NLC2370          TRANSVERSE 4.12       1.840      NO       0        0          YES
47_7             NLP1590          NLD0490          TRANSVERSE 8.00       1.840      NO       0        0          YES
37_7             NLH2020          NLB0910          TRANSVERSE 8.27       1.840      NO       0        0          YES
81_7             HW_81_7          NLC4050          TRANSVERSE 9.32       1.840      NO       0        0          YES
79_7             HW_79_7          NLC1670          TRANSVERSE 6.60       1.840      NO       0        0          YES
96_6             HW_96_6          NLC1530          TRANSVERSE 6.00       1.840      NO       0        0          YES
99_8             HW_99_8          NLC3650          TRANSVERSE 10.72      1.840      NO       0        0          YES
23_7             NLJ0150          NLC1150          TRANSVERSE 7.00       1.840      NO       0        0          YES
62_8             NLH2200          NLD0910          TRANSVERSE 13.62      1.840      NO       0        0          YES
22_8             NLO0110          NLB1190          TRANSVERSE 13.45      1.840      NO       0        0          YES
71_9             HW_71_9          NLC2330          TRANSVERSE 7.72       1.840      NO       0        0          YES
41_8             NLP1150          NLB0510          TRANSVERSE 7.62       1.840      NO       0        0          YES
43_7             HW_43_7          NLZ0040          TRANSVERSE 6.12       1.840      NO       0        0          YES
68_9             HW_68_9          NLC3730          TRANSVERSE 10.76      1.840      NO       0        0          YES
85_8             HW_85_8          NLC1430          TRANSVERSE 9.62       1.840      NO       0        0          YES
15_8             HW_15_8          NLC3390          TRANSVERSE 11.75      1.840      NO       0        0          YES
1251MRLJ1882     NLJ1882          NLJ1880          TRANSVERSE 9.27       1.840      NO       0        0          YES
1252MRLJ2380     NLJ2380          NLJ2378          TRANSVERSE 7.60       1.840      NO       0        0          YES
1253MRLJ2640     NLJ2640          NLJ2638          TRANSVERSE 7.54       1.840      NO       0        0          YES
1254MRLL0690     NLP1650          NLL0670          TRANSVERSE 12.18      1.840      NO       0        0          YES
255MRLH2380      NLC0990          NLH2378          TRANSVERSE 11.94      1.840      NO       0        0          YES
1257MRLJ1160     NLJ1460          NLJ1158          TRANSVERSE 5.02       1.840      NO       0        0          YES
1256MRLJ1420     NLJ1420          NLJ1418          TRANSVERSE 4.02       1.840      NO       0        0          YES
1265MRLJ1907     NLJ1907          NLJ1903          TRANSVERSE 6.53       1.840      NO       0        0          YES
1259MRLL0050     NLL0050          NLL0048          TRANSVERSE 5.52       1.840      NO       0        0          YES
1260MRLL0290     NLG0450          NLL0289          TRANSVERSE 8.99       1.840      NO       0        0          YES
1261MRLH1767     NLH1767          NLH1763          TRANSVERSE 3.57       1.840      NO       0        0          YES
1262MRLH0935     NLH2320          NLH0933          TRANSVERSE 12.80      1.840      NO       0        0          YES
263MRLH2240      NLB0110          NLH2238          TRANSVERSE 7.83       1.840      NO       0        0          YES
1257MRLJ1160A    NLJ1460          NLJ1180          TRANSVERSE 4.47       1.840      NO       0        0          YES
1265MRLJ1907A    NLJ1907          NLJ2182          TRANSVERSE 6.84       1.840      NO       0        0          YES
1166MRLL0790     NLM0130          NLJ0788          TRANSVERSE 7.00       1.840      NO       0        0          YES

[PUMPS]
;;Name           From             To               PumpCurve  Status   Startup    Shutoff
;;-------------- ---------------- ---------------- ---------- -------- ---------- ----------
83_12            HW_83_12         NLZ0000          PC_83_12   ON       1.00       0         

[CURVES]
;;Name           Type       X-Value    Y-Value
;;-------------- ---------- ---------- ----------
;; Synthesized generic pump curves — replace with actual pump data
PC_83_12         Pump1      0          5
PC_83_12                    10         10

[XSECTIONS]
;;Link           Shape        Geom1      Geom2      Geom3      Geom4      Barrels
;;-------------- ------------ ---------- ---------- ---------- ---------- ----------
75               CIRCULAR     2.00       2.00       0          0          1
76               CIRCULAR     1.25       1.25       0          0          1
77               CIRCULAR     2.50       2.50       0          0          1
18               HORSESHOE    3.50       2.25       0          0          1
04               HORSESHOE    6.33       4.00       0          0          1
67               RECT_CLOSED  8.00       5.00       0          0          1
65               CIRCULAR     5.00       5.00       0          0          1
66               CIRCULAR     5.00       5.00       0          0          1
63               CIRCULAR     5.00       5.00       0          0          1
64               CIRCULAR     5.00       5.00       0          0          1
61               CIRCULAR     5.00       5.00       0          0          1
62               CIRCULAR     5.00       5.00       0          0          1
14               CIRCULAR     2.00       2.00       0          0          1
94               HORSESHOE    3.75       2.42       0          0          1
60               HORSESHOE    4.42       2.82       0          0          1
67_2             HORSESHOE    6.33       4.00       0          0          1
11               CIRCULAR     5.00       5.00       0          0          1
10               CIRCULAR     5.00       5.00       0          0          1
09               CIRCULAR     5.00       5.00       0          0          1
60_2             CIRCULAR     5.00       5.00       0          0          1
45               CIRCULAR     3.50       3.50       0          0          1
46               CIRCULAR     3.50       3.50       0          0          1
82               CIRCULAR     2.50       2.50       0          0          1
49               CIRCULAR     2.50       2.50       0          0          1
50               HORSESHOE    4.42       2.83       0          0          1
51               HORSESHOE    4.42       2.83       0          0          1
52               HORSESHOE    4.42       2.83       0          0          1
54               CIRCULAR     3.50       3.50       0          0          1
55               CIRCULAR     3.00       3.00       0          0          1
56               CIRCULAR     2.00       2.00       0          0          1
53               CIRCULAR     4.00       4.00       0          0          1
58               CIRCULAR     1.50       1.50       0          0          1
57               CIRCULAR     4.50       4.50       0          0          1
14_2             HORSESHOE    2.50       1.58       0          0          1
72               HORSESHOE    3.16       2.00       0          0          1
73               HORSESHOE    3.16       2.00       0          0          1
69               RECT_CLOSED  5.00       3.00       0          0          1
70               HORSESHOE    3.16       2.00       0          0          1
75_2             HORSESHOE    3.16       2.00       0          0          1
74               RECT_CLOSED  5.00       3.00       0          0          1
78               CIRCULAR     2.00       2.00       0          0          1
83               HORSESHOE    5.67       3.58       0          0          1
84               CIRCULAR     2.00       2.00       0          0          1
85               CIRCULAR     2.50       2.50       0          0          1
86               CIRCULAR     2.50       2.50       0          0          1
87               CIRCULAR     2.00       2.00       0          0          1
88               HORSESHOE    3.00       2.00       0          0          1
89               HORSESHOE    3.00       2.00       0          0          1
90               CIRCULAR     2.00       2.00       0          0          1
91               CIRCULAR     3.00       3.00       0          0          1
93               HORSESHOE    6.33       4.00       0          0          1
96               CIRCULAR     1.50       1.50       0          0          1
98               CIRCULAR     4.00       4.00       0          0          1
00               RECT_CLOSED  4.66       4.00       0          0          1
02               CIRCULAR     3.00       3.00       0          0          1
04_2             CIRCULAR     3.00       3.00       0          0          1
03               HORSESHOE    3.75       2.42       0          0          1
05               CIRCULAR     4.00       4.00       0          0          1
07               CIRCULAR     4.00       4.00       0          0          1
08               RECT_CLOSED  10.00      4.00       0          0          1
06               HORSESHOE    4.42       2.83       0          0          1
13               CIRCULAR     2.00       2.00       0          0          1
14_3             CIRCULAR     2.25       2.25       0          0          1
18_2             CIRCULAR     3.00       3.00       0          0          1
17               CIRCULAR     2.50       2.50       0          0          1
22               CIRCULAR     1.50       1.50       0          0          1
19               CIRCULAR     3.00       3.00       0          0          1
23               CIRCULAR     3.00       3.00       0          0          1
20               CIRCULAR     2.50       2.50       0          0          1
91_2             HORSESHOE    5.00       3.16       0          0          1
12               RECT_CLOSED  10.00      4.00       0          0          1
10_2             RECT_CLOSED  10.00      4.00       0          0          1
09_2             RECT_CLOSED  10.00      4.00       0          0          1
26               CIRCULAR     2.50       2.50       0          0          1
28               CIRCULAR     2.00       2.00       0          0          1
29               CIRCULAR     2.50       2.50       0          0          1
31               CIRCULAR     2.50       2.50       0          0          1
32               RECT_CLOSED  10.00      4.00       0          0          1
39               CIRCULAR     3.00       3.00       0          0          1
37               CIRCULAR     2.00       2.00       0          0          1
41               CIRCULAR     2.50       2.50       0          0          1
43               CIRCULAR     1.50       1.50       0          0          1
45_2             HORSESHOE    2.50       1.58       0          0          1
56_2             CIRCULAR     2.00       2.00       0          0          1
31_2             CIRCULAR     2.50       2.50       0          0          1
17_2             CIRCULAR     3.50       3.50       0          0          1
16               CIRCULAR     3.00       3.00       0          0          1
51_2             CIRCULAR     3.50       3.50       0          0          1
53_2             HORSESHOE    2.50       1.58       0          0          1
55_2             HORSESHOE    2.50       1.58       0          0          1
54_2             HORSESHOE    3.75       2.42       0          0          1
56_3             HORSESHOE    2.50       1.58       0          0          1
63_2             CIRCULAR     1.00       1.00       0          0          1
14_4             CIRCULAR     2.00       2.00       0          0          1
58_2             CIRCULAR     2.00       2.00       0          0          1
59               CIRCULAR     2.00       2.00       0          0          1
65_2             CIRCULAR     2.50       2.50       0          0          1
64_2             CIRCULAR     2.00       2.00       0          0          1
66_2             HORSESHOE    4.42       2.83       0          0          1
67_3             HORSESHOE    5.00       3.17       0          0          1
68               HORSESHOE    5.00       3.17       0          0          1
70_2             CIRCULAR     1.50       1.50       0          0          1
73_2             CIRCULAR     2.50       2.50       0          0          1
75_3             CIRCULAR     4.00       4.00       0          0          1
78_2             CIRCULAR     4.00       4.00       0          0          1
48               CIRCULAR     5.00       5.00       0          0          1
80               CIRCULAR     1.25       1.25       0          0          1
79               CIRCULAR     5.50       5.50       0          0          1
84_2             CIRCULAR     1.50       1.50       0          0          1
86_2             CIRCULAR     2.00       2.00       0          0          1
82_2             CIRCULAR     5.00       5.00       0          0          1
88_2             CIRCULAR     4.50       4.50       0          0          1
69_2             RECT_CLOSED  3.00       3.00       0          0          1
05_2             CIRCULAR     1.50       1.50       0          0          1
93_2             CIRCULAR     2.00       2.00       0          0          1
50_2             CIRCULAR     5.00       5.00       0          0          1
53_3             CIRCULAR     4.00       4.00       0          0          1
96_2             CIRCULAR     4.00       4.00       0          0          1
44               CIRCULAR     3.00       3.00       0          0          1
97               CIRCULAR     2.00       2.00       0          0          1
98_2             CIRCULAR     3.00       3.00       0          0          1
01               RECT_CLOSED  10.00      3.00       0          0          1
00_2             RECT_CLOSED  11.00      3.00       0          0          1
04_3             RECT_CLOSED  10.00      3.00       0          0          1
06_2             HORSESHOE    4.42       2.83       0          0          1
05_3             HORSESHOE    5.67       3.58       0          0          1
09_3             CIRCULAR     1.50       1.50       0          0          1
95               RECT_CLOSED  7.00       6.00       0          0          1
38               RECT_CLOSED  7.00       6.00       0          0          1
11_2             CIRCULAR     3.50       3.50       0          0          1
82_3             RECT_CLOSED  8.00       4.00       0          0          1
12_2             RECT_CLOSED  5.00       4.00       0          0          1
15               HORSESHOE    2.50       1.58       0          0          1
20_2             CIRCULAR     2.50       2.50       0          0          1
71               CIRCULAR     6.00       6.00       0          0          1
09_4             CIRCULAR     6.00       6.00       0          0          1
71_2             CIRCULAR     3.00       3.00       0          0          1
27               CIRCULAR     1.50       1.50       0          0          1
29_2             CIRCULAR     1.50       1.50       0          0          1
26_2             RECT_CLOSED  6.00       4.00       0          0          1
51_3             RECT_CLOSED  10.00      4.00       0          0          1
32_2             RECT_CLOSED  5.00       4.00       0          0          1
34               CIRCULAR     4.00       4.00       0          0          1
36               CIRCULAR     2.00       2.00       0          0          1
38_2             CIRCULAR     1.00       1.00       0          0          1
49_2             HORSESHOE    2.50       1.58       0          0          1
50_3             CIRCULAR     2.50       2.50       0          0          1
51_4             CIRCULAR     2.50       2.50       0          0          1
96_3             HORSESHOE    5.67       3.58       0          0          1
31_3             RECT_CLOSED  6.00       4.00       0          0          1
53_4             HORSESHOE    4.42       2.83       0          0          1
55_3             CIRCULAR     4.50       4.50       0          0          1
23_2             CIRCULAR     2.00       2.00       0          0          1
57_2             CIRCULAR     3.00       3.00       0          0          1
59_2             CIRCULAR     3.00       3.00       0          0          1
58_3             CIRCULAR     3.00       3.00       0          0          1
54_3             RECT_CLOSED  6.00       4.00       0          0          1
52_2             RECT_CLOSED  6.00       4.00       0          0          1
61_2             CIRCULAR     3.50       3.50       0          0          1
60_3             CIRCULAR     5.00       5.00       0          0          1
63_3             CIRCULAR     3.50       3.50       0          0          1
65_3             HORSESHOE    3.75       2.42       0          0          1
64_3             HORSESHOE    4.42       2.83       0          0          1
48_2             RECT_CLOSED  8.00       4.00       0          0          1
66_3             RECT_CLOSED  8.00       4.00       0          0          1
68_2             RECT_CLOSED  8.00       4.00       0          0          1
73_3             CIRCULAR     2.00       2.00       0          0          1
74_2             CIRCULAR     2.50       2.50       0          0          1
77_2             CIRCULAR     3.00       3.00       0          0          1
78_3             CIRCULAR     2.50       2.50       0          0          1
79_2             HORSESHOE    3.16       2.00       0          0          1
71_3             RECT_CLOSED  9.00       3.70       0          0          1
83_2             RECT_CLOSED  19.00      6.00       0          0          1
84_3             CIRCULAR     3.00       3.00       0          0          1
85_2             RECT_CLOSED  2.00       2.00       0          0          1
86_3             CIRCULAR     2.00       2.00       0          0          1
87_2             CIRCULAR     1.50       1.50       0          0          1
89_2             CIRCULAR     1.50       1.50       0          0          1
90_2             CIRCULAR     1.50       1.50       0          0          1
93_3             CIRCULAR     1.50       1.50       0          0          1
91_3             CIRCULAR     3.00       3.00       0          0          1
97_2             CIRCULAR     2.00       2.00       0          0          1
98_3             CIRCULAR     2.50       2.50       0          0          1
99               CIRCULAR     2.00       2.00       0          0          1
00_3             HORSESHOE    3.75       2.42       0          0          1
01_2             HORSESHOE    3.75       2.42       0          0          1
36_2             CIRCULAR     2.50       2.50       0          0          1
03_2             CIRCULAR     5.00       5.00       0          0          1
02_2             CIRCULAR     4.00       4.00       0          0          1
04_4             CIRCULAR     3.00       3.00       0          0          1
05_4             CIRCULAR     1.50       1.50       0          0          1
06_3             CIRCULAR     5.00       5.00       0          0          1
46_2             HORSESHOE    3.16       2.00       0          0          1
21               CIRCULAR     4.50       4.50       0          0          1
16_2             CIRCULAR     6.00       6.00       0          0          1
10_3             HORSESHOE    5.00       3.17       0          0          1
13_2             CIRCULAR     1.50       1.50       0          0          1
12_3             HORSESHOE    5.67       3.58       0          0          1
17_3             HORSESHOE    6.33       4.00       0          0          1
20_3             CIRCULAR     3.00       3.00       0          0          1
20_4             CIRCULAR     4.00       4.00       0          0          1
23_3             CIRCULAR     3.00       3.00       0          0          1
24               CIRCULAR     1.50       1.50       0          0          1
27_2             RECT_CLOSED  8.00       7.00       0          0          1
26_3             CIRCULAR     4.00       4.00       0          0          1
29_3             RECT_CLOSED  8.00       7.00       0          0          1
32_3             RECT_CLOSED  8.00       7.00       0          0          1
33               RECT_CLOSED  8.00       7.00       0          0          1
37_2             HORSESHOE    3.16       2.00       0          0          1
35               HORSESHOE    3.75       2.42       0          0          1
36_3             HORSESHOE    4.42       2.83       0          0          1
39_2             CIRCULAR     3.00       3.00       0          0          1
41_2             HORSESHOE    5.00       3.16       0          0          1
42               CIRCULAR     2.00       2.00       0          0          1
61_3             CIRCULAR     3.50       3.50       0          0          1
45_3             HORSESHOE    3.75       2.42       0          0          1
47               CIRCULAR     4.00       4.00       0          0          1
49_3             CIRCULAR     3.00       3.00       0          0          1
50_4             CIRCULAR     3.00       3.00       0          0          1
51_5             HORSESHOE    6.33       4.00       0          0          1
53_5             CIRCULAR     2.00       2.00       0          0          1
58_4             HORSESHOE    5.00       3.17       0          0          1
59_3             CIRCULAR     2.50       2.50       0          0          1
49_4             CIRCULAR     2.00       2.00       0          0          1
15_2             CIRCULAR     2.00       2.00       0          0          1
46_3             CIRCULAR     2.00       2.00       0          0          1
63_4             CIRCULAR     2.00       2.00       0          0          1
64_4             CIRCULAR     2.50       2.50       0          0          1
68_3             CIRCULAR     1.25       1.25       0          0          1
19_2             CIRCULAR     2.50       2.50       0          0          1
63_5             CIRCULAR     3.00       3.00       0          0          1
64_5             CIRCULAR     2.50       2.50       0          0          1
77_3             CIRCULAR     1.75       1.75       0          0          1
65_4             CIRCULAR     3.00       3.00       0          0          1
75_4             CIRCULAR     3.00       3.00       0          0          1
76_2             CIRCULAR     3.00       3.00       0          0          1
55_4             HORSESHOE    3.16       2.00       0          0          1
48_3             CIRCULAR     2.00       2.00       0          0          1
04_5             CIRCULAR     4.00       4.00       0          0          1
29_4             CIRCULAR     4.00       4.00       0          0          1
80_2             CIRCULAR     4.00       4.00       0          0          1
78_4             RECT_CLOSED  4.00       3.00       0          0          1
82_4             HORSESHOE    3.75       2.42       0          0          1
86_4             CIRCULAR     3.00       3.00       0          0          1
91_4             RECT_CLOSED  4.00       3.00       0          0          1
87_3             RECT_CLOSED  6.00       3.00       0          0          1
88_3             RECT_CLOSED  6.00       3.00       0          0          1
93_4             RECT_CLOSED  8.00       4.00       0          0          1
81               RECT_CLOSED  4.00       3.00       0          0          1
90_3             RECT_CLOSED  4.00       3.00       0          0          1
85_3             CIRCULAR     3.00       3.00       0          0          1
41_3             CIRCULAR     5.00       5.00       0          0          1
89_3             RECT_CLOSED  8.00       4.00       0          0          1
35_2             CIRCULAR     3.00       3.00       0          0          1
27_3             HORSESHOE    3.58       2.25       0          0          1
25               HORSESHOE    3.58       2.25       0          0          1
27_4             CIRCULAR     2.00       2.00       0          0          1
28_2             CIRCULAR     1.50       1.50       0          0          1
29_5             CIRCULAR     1.25       1.25       0          0          1
30               CIRCULAR     1.50       1.50       0          0          1
31_4             CIRCULAR     2.00       2.00       0          0          1
32_4             CIRCULAR     1.50       1.50       0          0          1
33_2             CIRCULAR     1.50       1.50       0          0          1
34_2             CIRCULAR     1.50       1.50       0          0          1
35_3             RECT_CLOSED  5.00       3.00       0          0          1
37_3             CIRCULAR     3.00       3.00       0          0          1
36_4             CIRCULAR     4.50       4.50       0          0          1
39_3             CIRCULAR     2.00       2.00       0          0          1
42_2             CIRCULAR     3.00       3.00       0          0          1
41_4             CIRCULAR     3.00       3.00       0          0          1
42_3             CIRCULAR     1.50       1.50       0          0          1
99_2             CIRCULAR     3.00       3.00       0          0          1
45_4             CIRCULAR     3.50       3.50       0          0          1
46_4             CIRCULAR     3.50       3.50       0          0          1
29_6             CIRCULAR     5.00       5.00       0          0          1
76_3             CIRCULAR     5.00       5.00       0          0          1
16_3             CIRCULAR     4.00       4.00       0          0          1
87_4             CIRCULAR     5.00       5.00       0          0          1
1184MRLJ1000     CIRCULAR     3.00       3.00       0          0          1
1101MRLJ1260     HORSESHOE    4.50       3.00       0          0          1
1186MRLJ2060     HORSESHOE    3.75       2.42       0          0          1
1124MRLJ2140     CIRCULAR     3.00       3.00       0          0          1
1195MRLJ2740     CIRCULAR     1.50       1.50       0          0          1
1201MRLL0270     CIRCULAR     1.50       1.50       0          0          1
1200MRLL0250     CIRCULAR     1.50       1.50       0          0          1
1198MRLL0630     CIRCULAR     2.00       2.00       0          0          1
1196MRLJ2660     CIRCULAR     1.50       1.50       0          0          1
1100MRLJ2700     HORSESHOE    1.92       1.17       0          0          1
1203MRLL0890     CIRCULAR     1.50       1.50       0          0          1
1106MRLJ2440A    CIRCULAR     2.50       2.50       0          0          1
1205MRLJ2560     CIRCULAR     2.00       2.00       0          0          1
1158MRLL0030     RECT_CLOSED  4.00       3.00       0          0          1
1207MRLL0010     RECT_CLOSED  4.00       3.00       0          0          1
1115MRLJ1800A    CIRCULAR     1.50       1.50       0          0          1
927              CIRCULAR     1.00       1.00       0          0          1
1197MRLJ2860     CIRCULAR     2.00       2.00       0          0          1
1061MRLJ2320     HORSESHOE    5.00       3.17       0          0          1
1132MRLJ2500A    HORSESHOE    3.17       2.00       0          0          1
1218MRLJ1300     HORSESHOE    3.17       2.00       0          0          1
948              HORSESHOE    1.50       1.00       0          0          1
1167MRLJ1140     CIRCULAR     2.00       2.00       0          0          1
1123MRLJ1700     CIRCULAR     2.50       2.50       0          0          1
1118MRLJ1740     CIRCULAR     3.00       3.00       0          0          1
1233MRLJ1780     HORSESHOE    4.83       3.00       0          0          1
1179MRLJ1880     HORSESHOE    1.92       1.17       0          0          1
31_5             HORSESHOE    3.50       2.25       0          0          1
57_3             HORSESHOE    1.92       1.17       0          0          1
96_4             CIRCULAR     1.00       1.00       0          0          1
98_4             CIRCULAR     1.00       1.00       0          0          1
98_5             CIRCULAR     1.00       1.00       0          0          1
97_3             CIRCULAR     1.00       1.00       0          0          1
99_3             CIRCULAR     1.00       1.00       0          0          1
04_6             CIRCULAR     1.00       1.00       0          0          1
09_5             HORSESHOE    2.50       1.58       0          0          1
00_4             CIRCULAR     1.00       1.00       0          0          1
03_3             CIRCULAR     3.00       3.00       0          0          1
01_3             CIRCULAR     1.00       1.00       0          0          1
04_7             CIRCULAR     1.00       1.00       0          0          1
00_5             CIRCULAR     1.00       1.00       0          0          1
05_5             CIRCULAR     1.00       1.00       0          0          1
06_4             CIRCULAR     1.25       1.25       0          0          1
09_6             CIRCULAR     2.50       2.50       0          0          1
10_4             CIRCULAR     3.00       3.00       0          0          1
25_2             RECT_CLOSED  10.00      4.00       0          0          1
12_4             RECT_CLOSED  10.00      4.00       0          0          1
58_5             CIRCULAR     1.00       1.00       0          0          1
38_3             CIRCULAR     1.00       1.00       0          0          1
18_3             CIRCULAR     2.00       2.00       0          0          1
61_4             CIRCULAR     2.00       2.00       0          0          1
19_3             CIRCULAR     3.00       3.00       0          0          1
25_3             CIRCULAR     2.50       2.50       0          0          1
20_5             CIRCULAR     1.00       1.00       0          0          1
22_2             CIRCULAR     1.00       1.00       0          0          1
99_4             CIRCULAR     1.00       1.00       0          0          1
21_2             CIRCULAR     1.00       1.00       0          0          1
23_4             CIRCULAR     1.00       1.00       0          0          1
24_2             CIRCULAR     0.75       0.75       0          0          1
49_5             CIRCULAR     1.25       1.25       0          0          1
28_3             CIRCULAR     4.00       4.00       0          0          1
79_3             CIRCULAR     4.00       4.00       0          0          1
30_2             HORSESHOE    1.50       1.00       0          0          1
34_3             CIRCULAR     1.50       1.50       0          0          1
27_5             CIRCULAR     2.50       2.50       0          0          1
42_4             CIRCULAR     6.00       6.00       0          0          1
45_5             HORSESHOE    3.17       2.00       0          0          1
06_5             CIRCULAR     1.50       1.50       0          0          1
47_2             CIRCULAR     2.50       2.50       0          0          1
08_2             CIRCULAR     5.00       5.00       0          0          1
40               CIRCULAR     5.00       5.00       0          0          1
43_2             CIRCULAR     6.00       6.00       0          0          1
41_5             CIRCULAR     6.00       6.00       0          0          1
39_4             CIRCULAR     5.00       5.00       0          0          1
34_4             CIRCULAR     4.00       4.00       0          0          1
48_4             CIRCULAR     1.25       1.25       0          0          1
94_2             CIRCULAR     2.00       2.00       0          0          1
49_6             CIRCULAR     1.75       1.75       0          0          1
50_5             CIRCULAR     2.00       2.00       0          0          1
54_4             CIRCULAR     1.25       1.25       0          0          1
51_6             CIRCULAR     1.50       1.50       0          0          1
53_6             CIRCULAR     1.75       1.75       0          0          1
56_4             CIRCULAR     2.00       2.00       0          0          1
48_5             CIRCULAR     2.50       2.50       0          0          1
94_3             HORSESHOE    1.92       1.17       0          0          1
58_6             RECT_CLOSED  7.00       6.00       0          0          1
59_4             CIRCULAR     5.00       5.00       0          0          1
44_2             HORSESHOE    3.75       2.42       0          0          1
67_4             CIRCULAR     2.00       2.00       0          0          1
63_6             HORSESHOE    3.16       2.00       0          0          1
70_3             CIRCULAR     3.00       3.00       0          0          1
62_2             CIRCULAR     3.00       3.00       0          0          1
65_5             HORSESHOE    2.50       1.58       0          0          1
66_4             HORSESHOE    3.75       2.42       0          0          1
68_4             HORSESHOE    3.75       2.42       0          0          1
42_5             HORSESHOE    3.75       2.42       0          0          1
70_4             CIRCULAR     3.50       3.50       0          0          1
71_4             CIRCULAR     2.00       2.00       0          0          1
74_3             CIRCULAR     4.00       4.00       0          0          1
75_5             CIRCULAR     3.50       3.50       0          0          1
76_4             CIRCULAR     3.00       3.00       0          0          1
77_4             CIRCULAR     2.50       2.50       0          0          1
72_2             CIRCULAR     2.00       2.00       0          0          1
80_3             CIRCULAR     3.00       3.00       0          0          1
78_5             CIRCULAR     2.50       2.50       0          0          1
84_4             CIRCULAR     2.00       2.00       0          0          1
83_3             CIRCULAR     2.00       2.00       0          0          1
86_5             CIRCULAR     1.50       1.50       0          0          1
89_4             CIRCULAR     1.50       1.50       0          0          1
87_5             CIRCULAR     1.00       1.00       0          0          1
88_4             CIRCULAR     1.00       1.00       0          0          1
92               CIRCULAR     1.50       1.50       0          0          1
94_4             CIRCULAR     1.50       1.50       0          0          1
91_5             CIRCULAR     1.50       1.50       0          0          1
93_5             CIRCULAR     1.50       1.50       0          0          1
95_2             CIRCULAR     1.00       1.00       0          0          1
97_4             CIRCULAR     2.00       2.00       0          0          1
98_6             CIRCULAR     2.00       2.00       0          0          1
00_6             CIRCULAR     1.25       1.25       0          0          1
28_4             HORSESHOE    2.50       1.58       0          0          1
01_4             CIRCULAR     6.00       6.00       0          0          1
03_4             CIRCULAR     1.50       1.50       0          0          1
69_3             CIRCULAR     3.00       3.00       0          0          1
92_2             CIRCULAR     1.50       1.50       0          0          1
06_6             CIRCULAR     1.00       1.00       0          0          1
07_2             CIRCULAR     1.25       1.25       0          0          1
08_3             CIRCULAR     3.00       3.00       0          0          1
09_7             CIRCULAR     2.50       2.50       0          0          1
10_5             CIRCULAR     1.50       1.50       0          0          1
11_3             CIRCULAR     1.50       1.50       0          0          1
71_5             HORSESHOE    2.50       1.58       0          0          1
10_6             CIRCULAR     1.50       1.50       0          0          1
12_5             CIRCULAR     2.00       2.00       0          0          1
13_3             CIRCULAR     1.25       1.25       0          0          1
15_3             HORSESHOE    3.16       2.00       0          0          1
13_4             CIRCULAR     2.00       2.00       0          0          1
05_6             HORSESHOE    6.33       4.00       0          0          1
66_5             CIRCULAR     2.50       2.50       0          0          1
07_3             RECT_CLOSED  10.00      3.00       0          0          1
22_3             CIRCULAR     1.50       1.50       0          0          1
81_2             RECT_CLOSED  6.00       5.00       0          0          1
25_4             RECT_CLOSED  8.00       4.00       0          0          1
68_5             CIRCULAR     1.50       1.50       0          0          1
08_4             CIRCULAR     1.50       1.50       0          0          1
07_4             CIRCULAR     2.00       2.00       0          0          1
67_5             CIRCULAR     2.00       2.00       0          0          1
46_5             CIRCULAR     2.00       2.00       0          0          1
92_3             CIRCULAR     2.50       2.50       0          0          1
32_5             CIRCULAR     1.00       1.00       0          0          1
76_5             CIRCULAR     2.50       2.50       0          0          1
33_3             CIRCULAR     1.00       1.00       0          0          1
52_3             CIRCULAR     1.25       1.25       0          0          1
43_3             CIRCULAR     1.50       1.50       0          0          1
45_6             CIRCULAR     2.00       2.00       0          0          1
47_3             CIRCULAR     3.50       3.50       0          0          1
44_3             CIRCULAR     1.25       1.25       0          0          1
33_4             CIRCULAR     3.00       3.00       0          0          1
41_6             CIRCULAR     1.00       1.00       0          0          1
25_5             CIRCULAR     1.50       1.50       0          0          1
05_7             CIRCULAR     1.50       1.50       0          0          1
07_5             HORSESHOE    2.50       1.58       0          0          1
02_3             CIRCULAR     1.50       1.50       0          0          1
24_3             CIRCULAR     2.00       2.00       0          0          1
33_5             RECT_CLOSED  9.00       4.00       0          0          1
62_3             CIRCULAR     2.00       2.00       0          0          1
76_6             CIRCULAR     2.50       2.50       0          0          1
84_5             HORSESHOE    3.17       2.00       0          0          1
74_4             HORSESHOE    1.50       1.00       0          0          1
77_5             CIRCULAR     2.50       2.50       0          0          1
80_4             CIRCULAR     2.00       2.00       0          0          1
75_6             HORSESHOE    1.50       1.50       0          0          1
26_4             CIRCULAR     2.50       2.50       0          0          1
35_4             CIRCULAR     1.25       1.25       0          0          1
49_7             CIRCULAR     5.00       5.00       0          0          1
30_3             CIRCULAR     2.00       2.00       0          0          1
18_4             CIRCULAR     1.25       1.25       0          0          1
32_6             CIRCULAR     2.00       2.00       0          0          1
31_6             CIRCULAR     1.25       1.25       0          0          1
35_5             CIRCULAR     1.50       1.50       0          0          1
44_4             CIRCULAR     2.50       2.50       0          0          1
36_5             CIRCULAR     2.00       2.00       0          0          1
20_6             CIRCULAR     1.50       1.50       0          0          1
37_4             CIRCULAR     2.50       2.50       0          0          1
44_5             CIRCULAR     2.00       2.00       0          0          1
38_4             CIRCULAR     1.50       1.50       0          0          1
17_4             CIRCULAR     2.00       2.00       0          0          1
39_5             CIRCULAR     2.00       2.00       0          0          1
21_3             CIRCULAR     2.00       2.00       0          0          1
40_2             CIRCULAR     2.00       2.00       0          0          1
90_4             HORSESHOE    5.00       3.16       0          0          1
92_4             CIRCULAR     1.50       1.50       0          0          1
93_6             CIRCULAR     1.50       1.50       0          0          1
94_5             CIRCULAR     1.50       1.50       0          0          1
95_3             CIRCULAR     1.50       1.50       0          0          1
73_4             HORSESHOE    5.67       3.58       0          0          1
97_5             CIRCULAR     1.50       1.50       0          0          1
98_7             CIRCULAR     1.50       1.50       0          0          1
02_4             CIRCULAR     5.00       5.00       0          0          1
03_5             CIRCULAR     2.50       2.50       0          0          1
08_5             CIRCULAR     1.50       1.50       0          0          1
02_5             HORSESHOE    3.17       2.00       0          0          1
10_7             HORSESHOE    2.50       1.58       0          0          1
11_4             CIRCULAR     2.00       2.00       0          0          1
12_6             HORSESHOE    3.75       2.42       0          0          1
13_5             CIRCULAR     2.50       2.50       0          0          1
14_5             CIRCULAR     2.00       2.00       0          0          1
15_4             CIRCULAR     2.50       2.50       0          0          1
16_4             CIRCULAR     1.50       1.50       0          0          1
17_5             CIRCULAR     2.00       2.00       0          0          1
18_5             HORSESHOE    2.50       1.58       0          0          1
20_7             HORSESHOE    3.16       2.00       0          0          1
19_4             HORSESHOE    3.16       2.00       0          0          1
21_4             HORSESHOE    3.75       2.42       0          0          1
22_4             HORSESHOE    3.75       2.42       0          0          1
23_5             HORSESHOE    3.75       2.42       0          0          1
24_4             CIRCULAR     2.00       2.00       0          0          1
25_6             CIRCULAR     1.50       1.50       0          0          1
26_5             CIRCULAR     2.00       2.00       0          0          1
10_8             RECT_CLOSED  10.00      4.00       0          0          1
52_4             HORSESHOE    5.00       3.17       0          0          1
89_5             CIRCULAR     4.00       4.00       0          0          1
54_5             CIRCULAR     2.50       2.50       0          0          1
55_5             CIRCULAR     1.50       1.50       0          0          1
56_5             CIRCULAR     1.50       1.50       0          0          1
57_4             CIRCULAR     2.50       2.50       0          0          1
58_7             CIRCULAR     1.25       1.25       0          0          1
59_5             CIRCULAR     1.50       1.50       0          0          1
90_5             HORSESHOE    3.16       2.00       0          0          1
81_3             CIRCULAR     1.50       1.50       0          0          1
60_4             CIRCULAR     1.25       1.25       0          0          1
42_6             CIRCULAR     1.25       1.25       0          0          1
45_7             CIRCULAR     1.50       1.50       0          0          1
46_6             CIRCULAR     1.50       1.50       0          0          1
47_4             CIRCULAR     1.50       1.50       0          0          1
49_8             CIRCULAR     1.50       1.50       0          0          1
48_6             CIRCULAR     1.50       1.50       0          0          1
50_6             CIRCULAR     1.00       1.00       0          0          1
51_7             CIRCULAR     1.50       1.50       0          0          1
53_7             CIRCULAR     1.25       1.25       0          0          1
68_6             CIRCULAR     1.50       1.50       0          0          1
55_6             CIRCULAR     1.50       1.50       0          0          1
57_5             CIRCULAR     1.50       1.50       0          0          1
58_8             HORSESHOE    1.92       1.17       0          0          1
59_6             CIRCULAR     2.00       2.00       0          0          1
60_5             CIRCULAR     1.50       1.50       0          0          1
61_5             CIRCULAR     1.50       1.50       0          0          1
64_6             HORSESHOE    1.50       1.00       0          0          1
65_6             HORSESHOE    1.92       1.17       0          0          1
66_6             CIRCULAR     2.00       2.00       0          0          1
67_6             CIRCULAR     1.50       1.50       0          0          1
69_4             CIRCULAR     1.50       1.50       0          0          1
33_6             CIRCULAR     1.50       1.50       0          0          1
70_5             CIRCULAR     2.00       2.00       0          0          1
08_6             CIRCULAR     1.50       1.50       0          0          1
73_5             CIRCULAR     2.00       2.00       0          0          1
73_6             CIRCULAR     1.50       1.50       0          0          1
74_5             RECT_CLOSED  5.00       3.00       0          0          1
75_7             RECT_CLOSED  3.00       2.00       0          0          1
76_7             CIRCULAR     1.50       1.50       0          0          1
77_6             CIRCULAR     2.00       2.00       0          0          1
77_7             CIRCULAR     1.50       1.50       0          0          1
79_4             CIRCULAR     2.50       2.50       0          0          1
80_5             CIRCULAR     1.00       1.00       0          0          1
82_5             CIRCULAR     1.50       1.50       0          0          1
83_4             CIRCULAR     1.50       1.50       0          0          1
84_6             CIRCULAR     1.75       1.75       0          0          1
72_3             CIRCULAR     2.00       2.00       0          0          1
86_6             CIRCULAR     2.00       2.00       0          0          1
87_6             CIRCULAR     1.00       1.00       0          0          1
88_5             CIRCULAR     1.50       1.50       0          0          1
24_5             HORSESHOE    5.00       3.16       0          0          1
89_6             CIRCULAR     2.00       2.00       0          0          1
71_6             HORSESHOE    5.00       3.17       0          0          1
70_6             CIRCULAR     1.50       1.50       0          0          1
22_5             CIRCULAR     3.00       3.00       0          0          1
72_4             CIRCULAR     3.50       3.50       0          0          1
73_7             CIRCULAR     2.00       2.00       0          0          1
73_8             CIRCULAR     2.00       2.00       0          0          1
90_6             CIRCULAR     1.50       1.50       0          0          1
47_5             CIRCULAR     1.50       1.50       0          0          1
68_7             CIRCULAR     1.50       1.50       0          0          1
61_6             CIRCULAR     1.50       1.50       0          0          1
63_7             CIRCULAR     2.00       2.00       0          0          1
64_7             CIRCULAR     2.00       2.00       0          0          1
56_6             CIRCULAR     1.50       1.50       0          0          1
65_7             CIRCULAR     2.00       2.00       0          0          1
12_7             HORSESHOE    6.33       4.00       0          0          1
12_8             HORSESHOE    6.33       4.00       0          0          1
16_5             CIRCULAR     3.00       3.00       0          0          1
46_7             CIRCULAR     2.50       2.50       0          0          1
68_8             HORSESHOE    1.92       1.17       0          0          1
69_5             CIRCULAR     3.00       3.00       0          0          1
014MRLO0290      RECT_CLOSED  5.00       3.00       0          0          1
35_6             RECT_CLOSED  4.00       3.00       0          0          1
07_6             CIRCULAR     1.50       1.50       0          0          1
83_5             CIRCULAR     2.50       2.50       0          0          1
90_7             CIRCULAR     1.00       1.00       0          0          1
909              HORSESHOE    3.17       2.00       0          0          1
911              HORSESHOE    2.50       1.60       0          0          1
10_9             CIRCULAR     1.50       1.50       0          0          1
13_6             CIRCULAR     1.50       1.50       0          0          1
25_7             CIRCULAR     2.00       2.00       0          0          1
60_6             CIRCULAR     2.00       2.00       0          0          1
98_8             CIRCULAR     1.50       1.50       0          0          1
99_5             CIRCULAR     1.00       1.00       0          0          1
50_7             RECT_CLOSED  2.33       1.17       0          0          1
46_8             CIRCULAR     2.50       2.50       0          0          1
884              CIRCULAR     2.50       2.50       0          0          1
968              CIRCULAR     2.50       2.50       0          0          1
40_3             CIRCULAR     1.50       1.50       0          0          1
947              RECT_CLOSED  5.00       3.00       0          0          1
882              HORSESHOE    1.50       1.00       0          0          1
81_4             CIRCULAR     1.50       1.50       0          0          1
08_7             CIRCULAR     1.50       1.50       0          0          1
85_4             CIRCULAR     12.00      12.00      0          0          1
005MRLH2060      CIRCULAR     2.00       2.00       0          0          1
881              HORSESHOE    1.50       1.00       0          0          1
26_6             CIRCULAR     3.00       3.00       0          0          1
28_5             CIRCULAR     3.00       3.00       0          0          1
12_9             HORSESHOE    1.92       1.17       0          0          1
34_5             CIRCULAR     1.00       1.00       0          0          1
33_7             CIRCULAR     4.00       3.00       0          0          1
50_8             CIRCULAR     4.00       3.00       0          0          1
87_7             CIRCULAR     1.25       1.25       0          0          1
62_4             RECT_CLOSED  4.00       3.00       0          0          1
66_7             RECT_CLOSED  4.00       4.00       0          0          1
51_8             RECT_CLOSED  4.00       3.00       0          0          1
936              RECT_CLOSED  5.00       4.00       0          0          1
003MRLH1840      RECT_CLOSED  5.00       3.00       0          0          1
955              RECT_CLOSED  6.00       5.00       0          0          1
1009MRLH1800     RECT_CLOSED  1.50       1.50       0          0          1
1010MRLH1780     RECT_CLOSED  6.40       4.40       0          0          1
91_6             RECT_CLOSED  6.50       4.00       0          0          1
992              RECT_CLOSED  6.50       4.00       0          0          1
008MRLH1720      RECT_CLOSED  6.50       4.00       0          0          1
42_7             RECT_CLOSED  6.50       4.00       0          0          1
039MRLH1660      CIRCULAR     1.50       1.50       0          0          1
90_8             CIRCULAR     2.50       2.50       0          0          1
1006MRLO0210     RECT_CLOSED  4.00       3.00       0          0          1
38_5             RECT_CLOSED  5.00       3.00       0          0          1
937              RECT_CLOSED  5.00       3.00       0          0          1
015MRLO0030      RECT_CLOSED  1.25       1.25       0          0          1
1016MRLO0010     RECT_CLOSED  4.50       3.00       0          0          1
964              RECT_CLOSED  4.00       3.00       0          0          1
963              HORSESHOE    1.92       1.17       0          0          1
78_6             CIRCULAR     2.00       2.00       0          0          1
15_5             CIRCULAR     2.00       2.00       0          0          1
932              HORSESHOE    2.50       1.58       0          0          1
976              HORSESHOE    2.50       1.58       0          0          1
032MRLH2440      HORSESHOE    3.75       2.41       0          0          1
894              CIRCULAR     1.25       1.25       0          0          1
95_4             CIRCULAR     3.50       3.50       0          0          1
57_6             CIRCULAR     3.50       3.50       0          0          1
022MRLH0910      HORSESHOE    4.42       2.83       0          0          1
1026MRLH0750     CIRCULAR     1.50       1.50       0          0          1
06_7             HORSESHOE    4.42       2.83       0          0          1
902              HORSESHOE    4.42       2.83       0          0          1
903              CIRCULAR     2.50       2.50       0          0          1
1025MRLH1030     CIRCULAR     4.00       4.00       0          0          1
886              RECT_CLOSED  5.00       3.00       0          0          1
89_7             HORSESHOE    3.00       2.00       0          0          1
028MRLH0990      RECT_CLOSED  5.00       3.00       0          0          1
59_7             HORSESHOE    1.92       1.17       0          0          1
87_8             CIRCULAR     2.00       2.00       0          0          1
952              CIRCULAR     3.00       3.00       0          0          1
85_5             CIRCULAR     1.25       1.25       0          0          1
91_7             CIRCULAR     1.50       1.50       0          0          1
79_5             CIRCULAR     1.50       1.50       0          0          1
80_6             CIRCULAR     2.00       2.00       0          0          1
99_6             CIRCULAR     1.50       1.50       0          0          1
70_7             RECT_CLOSED  5.00       3.00       0          0          1
958              CIRCULAR     2.00       2.00       0          0          1
997              CIRCULAR     2.00       2.00       0          0          1
1000MRLH0650     RECT_CLOSED  6.00       3.00       0          0          1
977              RECT_CLOSED  6.00       3.00       0          0          1
029MRLH0590      RECT_CLOSED  6.00       3.00       0          0          1
71_7             CIRCULAR     1.50       1.50       0          0          1
922              RECT_CLOSED  6.00       3.00       0          0          1
54_6             CIRCULAR     3.00       3.00       0          0          1
74_6             CIRCULAR     3.00       3.00       0          0          1
1034MRLH0190     RECT_CLOSED  6.00       3.00       0          0          1
75_8             RECT_CLOSED  6.00       4.00       0          0          1
017MRLH0030      CIRCULAR     1.00       1.00       0          0          1
969              RECT_CLOSED  4.00       4.00       0          0          1
41_7             CIRCULAR     2.00       2.00       0          0          1
031MRLH2400      HORSESHOE    2.50       1.58       0          0          1
05_8             HORSESHOE    1.92       1.17       0          0          1
17_6             HORSESHOE    1.92       1.17       0          0          1
18_6             HORSESHOE    1.50       1.00       0          0          1
19_5             CIRCULAR     1.50       1.50       0          0          1
983              HORSESHOE    2.50       1.58       0          0          1
982              HORSESHOE    1.92       1.17       0          0          1
033MRLH0550      CIRCULAR     2.00       2.00       0          0          1
80_7             CIRCULAR     2.00       2.00       0          0          1
018MRLH1350      HORSESHOE    1.25       1.25       0          0          1
73_9             CIRCULAR     2.50       2.50       0          0          1
019MRLH1210      CIRCULAR     5.00       3.00       0          0          1
020MRLH1150      RECT_CLOSED  5.00       3.00       0          0          1
021MRLH0850      CIRCULAR     1.25       1.25       0          0          1
972              HORSESHOE    4.42       2.83       0          0          1
024MRLZ0600      CIRCULAR     1.50       1.50       0          0          1
023MRLH0230      CIRCULAR     1.00       1.00       0          0          1
906              HORSESHOE    2.83       2.83       0          0          1
027MRLH0950      CIRCULAR     2.00       2.00       0          0          1
31_7             HORSESHOE    2.50       1.58       0          0          1
14_6             HORSESHOE    2.50       1.58       0          0          1
916              CIRCULAR     1.17       1.17       0          0          1
20_8             HORSESHOE    1.50       1.00       0          0          1
923              CIRCULAR     1.00       1.00       0          0          1
953              CIRCULAR     1.50       1.50       0          0          1
035MRLH0110      RECT_CLOSED  6.00       3.00       0          0          1
040MRLH1430      HORSESHOE    1.92       1.17       0          0          1
945              CIRCULAR     1.50       1.50       0          0          1
037MRLO0450      CIRCULAR     1.50       1.50       0          0          1
1038MRLH1860     RECT_CLOSED  5.00       3.00       0          0          1
1036MRLH1450     HORSESHOE    1.92       1.17       0          0          1
1041MRLH1490     HORSESHOE    1.00       1.50       0          0          1
924              CIRCULAR     1.25       1.25       0          0          1
949              RECT_CLOSED  6.50       4.00       0          0          1
943              HORSESHOE    2.50       1.50       0          0          1
944              RECT_CLOSED  5.00       3.00       0          0          1
209MRLH0410      CIRCULAR     2.00       2.00       0          0          1
1210MRLH0310     CIRCULAR     1.25       1.25       0          0          1
939              CIRCULAR     1.50       1.50       0          0          1
012MRLZ0200      CIRCULAR     1.25       1.25       0          0          1
013MRLO0330      CIRCULAR     1.50       1.50       0          0          1
030MRLH0790      HORSESHOE    1.50       1.00       0          0          1
04_8             RECT_CLOSED  6.00       3.00       0          0          1
219MRLH2340      CIRCULAR     2.00       2.00       0          0          1
921              CIRCULAR     1.25       1.25       0          0          1
29_7             HORSESHOE    3.17       2.00       0          0          1
892              HORSESHOE    1.92       1.17       0          0          1
011MRLH1765      RECT_CLOSED  6.50       4.00       0          0          1
1071MRLJ1158     CIRCULAR     1.00       1.00       0          0          1
1080MRLJ1100     CIRCULAR     2.50       2.50       0          0          1
1181MRLJ1360     HORSESHOE    3.17       2.00       0          0          1
1160MRLJ1460     RECT_CLOSED  7.00       5.00       0          0          1
1048MRLJ1480     CIRCULAR     1.50       1.50       0          0          1
1089MRLJ1600     CIRCULAR     5.00       5.00       0          0          1
1092MRLJ1620     CIRCULAR     2.00       2.00       0          0          1
1214MRLJ1680     CIRCULAR     4.50       4.50       0          0          1
1110MRLJ2020     CIRCULAR     2.00       2.00       0          0          1
1111MRLJ2040     CIRCULAR     2.00       2.00       0          0          1
1112MRLJ2080     HORSESHOE    3.50       2.67       0          0          1
1109MRLJ2100     HORSESHOE    5.00       3.17       0          0          1
1084MRLJ1940     CIRCULAR     2.00       2.00       0          0          1
1085MRLJ1960     CIRCULAR     2.00       2.00       0          0          1
1074MRLJ1980     CIRCULAR     3.17       2.00       0          0          1
1115MRLJ1800     CIRCULAR     2.00       2.00       0          0          1
1116MRLJ1920     CIRCULAR     3.00       3.00       0          0          1
1161MRLJ0130     HORSESHOE    3.17       2.00       0          0          1
1169MRLJ0230     CIRCULAR     2.00       2.00       0          0          1
1170MRLJ0150     CIRCULAR     2.00       2.00       0          0          1
1162MRLJ0110     CIRCULAR     3.00       3.00       0          0          1
1127MRLJ0090     CIRCULAR     3.00       3.00       0          0          1
1128MRLJ0250     CIRCULAR     1.50       1.50       0          0          1
1129MRLJ0170     CIRCULAR     2.00       2.00       0          0          1
1130MRLJ0190     CIRCULAR     1.50       1.50       0          0          1
1131MRLJ0210     CIRCULAR     1.50       1.50       0          0          1
1122MRLJ1840     CIRCULAR     2.00       2.00       0          0          1
1120MRLJ1900     HORSESHOE    3.17       2.00       0          0          1
1133MRLJ2420     CIRCULAR     4.00       4.00       0          0          1
1106MRLJ2440     RECT_CLOSED  4.00       4.00       0          0          1
1051MRLJ2480     CIRCULAR     2.50       2.50       0          0          1
1132MRLJ2500     CIRCULAR     3.75       2.42       0          0          1
1215MRLJ2520     CIRCULAR     2.00       2.00       0          0          1
1060MRLJ2800     CIRCULAR     2.50       2.50       0          0          1
1171MRLJ2820     CIRCULAR     2.50       2.50       0          0          1
1099MRLJ2840     CIRCULAR     3.00       3.00       0          0          1
1143MRLL0610     CIRCULAR     2.50       2.50       0          0          1
1073MRLL0550     RECT_CLOSED  5.00       3.00       0          0          1
1147MRLL0490     CIRCULAR     2.00       2.00       0          0          1
1146MRLL0510     CIRCULAR     2.00       2.00       0          0          1
1145MRLL0470     CIRCULAR     2.50       2.50       0          0          1
1148MRLL0450     CIRCULAR     5.50       5.50       0          0          1
1150MRLL0410     RECT_CLOSED  4.00       3.00       0          0          1
1153MRLL0370     RECT_CLOSED  4.00       3.00       0          0          1
1070MRLL0330     RECT_CLOSED  4.00       3.00       0          0          1
1065MRLL0190     RECT_CLOSED  0.55       3.00       0          0          1
1068MRLL0210     RECT_CLOSED  4.00       3.00       0          0          1
1154MRLL0170     RECT_CLOSED  4.00       3.00       0          0          1
1155MRLL0150     RECT_CLOSED  5.00       3.00       0          0          1
1063MRLL0110     HORSESHOE    1.92       1.17       0          0          1
1157MRLL0130     RECT_CLOSED  4.00       3.00       0          0          1
1064MRLL0090     RECT_CLOSED  4.00       3.00       0          0          1
1156MRLL0070     RECT_CLOSED  4.00       3.00       0          0          1
1095MRLJ0370     HORSESHOE    3.50       2.42       0          0          1
1096MRLJ0350     HORSESHOE    3.50       2.42       0          0          1
1172MRLJ0390     HORSESHOE    3.50       2.42       0          0          1
1173MRLJ0330     HORSESHOE    3.50       2.42       0          0          1
1043MRLJ0410     CIRCULAR     2.50       2.50       0          0          1
1175MRLJ0430     CIRCULAR     2.50       2.50       0          0          1
1176MRLJ0450     RECT_CLOSED  3.00       3.00       0          0          1
1177MRLJ0470     RECT_CLOSED  3.00       3.00       0          0          1
1174MRLJ0310     HORSESHOE    3.50       2.42       0          0          1
1044MRLJ0570     CIRCULAR     2.00       2.00       0          0          1
1076MRLJ0510     HORSESHOE    4.42       2.83       0          0          1
1163MRLJ0550     HORSESHOE    4.42       2.83       0          0          1
1098MRLJ0630     HORSESHOE    4.42       2.83       0          0          1
1097MRLJ0610     CIRCULAR     3.00       3.00       0          0          1
1045MRLJ0590     CIRCULAR     2.50       2.50       0          0          1
1049MRLJ0670     HORSESHOE    1.50       1.50       0          0          1
1141MRLJ0710     CIRCULAR     3.00       3.00       0          0          1
1142MRLJ0690     CIRCULAR     2.50       2.50       0          0          1
1140MRLJ0770     HORSESHOE    5.67       3.58       0          0          1
1138MRLJ0730     RECT_CLOSED  6.00       4.00       0          0          1
1072MRLL0770     CIRCULAR     2.00       2.00       0          0          1
1165MRLL0930     CIRCULAR     1.50       1.50       0          0          1
1139MRLL0750     CIRCULAR     2.50       2.50       0          0          1
1137MRLL0730     CIRCULAR     2.50       2.50       0          0          1
1164MRLL0910     CIRCULAR     1.25       1.25       0          0          1
1134MRLJ0930     CIRCULAR     1.25       1.25       0          0          1
1135MRLJ0910     HORSESHOE    4.67       2.67       0          0          1
1178MRLJ2300     CIRCULAR     1.50       1.50       0          0          1
1102MRLJ2280     CIRCULAR     1.50       1.50       0          0          1
1151MRLL0650     CIRCULAR     1.50       1.50       0          0          1
1144MRLL0590     CIRCULAR     4.00       4.00       0          0          1
1052MRLJ2600     CIRCULAR     2.50       2.50       0          0          1
1075MRLJ0030     CIRCULAR     1.50       1.50       0          0          1
1094MRLJ0290     CIRCULAR     4.00       4.00       0          0          1
1046MRLJ0270     CIRCULAR     4.50       4.50       0          0          1
1093MRLJ0070     CIRCULAR     1.50       1.50       0          0          1
1180MRLJ2378     CIRCULAR     1.50       1.50       0          0          1
1213MRLJ2340     CIRCULAR     3.00       3.00       0          0          1
1079MRLJ1040     CIRCULAR     3.00       3.00       0          0          1
1078MRLJ1060     CIRCULAR     3.00       3.00       0          0          1
1182MRLJ1020     CIRCULAR     3.00       3.00       0          0          1
1247MRLJ2625     HORSESHOE    3.50       2.42       0          0          1
1194MRLJ2760     CIRCULAR     1.50       1.50       0          0          1
1192MRLJ2780     CIRCULAR     1.50       1.50       0          0          1
1136MRLJ0870     HORSESHOE    4.67       2.67       0          0          1
1004MRLJ0790     HORSESHOE    5.67       3.58       0          0          1
1223MRLJ1418     CIRCULAR     1.00       1.00       0          0          1
1220MRLJ0010     CIRCULAR     2.00       2.00       0          0          1
1168MRLJ1340     CIRCULAR     3.00       3.00       0          0          1
1247MRLJ2625A    HORSESHOE    3.75       2.42       0          0          1
1221MRLL0668     CIRCULAR     2.00       2.00       0          0          1
1152MRLL0670     CIRCULAR     2.00       2.00       0          0          1
1224MRLH0530     HORSESHOE    2.50       1.58       0          0          1
224MRLH0530A     HORSESHOE    1.50       1.00       0          0          1
225MRLH0350      CIRCULAR     1.25       1.25       0          0          1
1226MRLH0130     RECT_CLOSED  6.00       3.00       0          0          1
1227MRLH0150     RECT_CLOSED  6.00       3.00       0          0          1
228MRLO0150      RECT_CLOSED  4.00       3.00       0          0          1
1229MRLO0130     HORSESHOE    3.00       2.00       0          0          1
1230MRLO0110     HORSESHOE    3.75       2.42       0          0          1
231MRLH1250      CIRCULAR     2.50       2.50       0          0          1
1042MRLZ0580     HORSESHOE    2.50       1.58       0          0          1
232MRLZ0560      CIRCULAR     1.25       1.25       0          0          1
1208MRLO0090     CIRCULAR     2.50       2.50       0          0          1
898              CIRCULAR     1.25       1.25       0          0          1
897              CIRCULAR     1.50       1.50       0          0          1
1234MRLZ0500     CIRCULAR     1.50       1.50       0          0          1
896              CIRCULAR     1.50       1.50       0          0          1
1235MRLZ0340     CIRCULAR     1.00       2.00       0          0          1
236MRLZ0300      CIRCULAR     1.25       1.25       0          0          1
1237MRLZ0240     HORSESHOE    2.50       1.58       0          0          1
1238MRLZ0260     CIRCULAR     1.50       1.50       0          0          1
1239MRLZ0360     HORSESHOE    3.75       2.42       0          0          1
240MRLZ0380      CIRCULAR     3.00       3.00       0          0          1
241MRLH2800      HORSESHOE    2.50       1.60       0          0          1
1245MRLH1763     HORSESHOE    1.92       1.17       0          0          1
1245MRLH1763A    CIRCULAR     1.50       1.50       0          0          1
1246MRLH1769     CIRCULAR     1.50       1.50       0          0          1
56_7             RECT_CLOSED  5.00       3.00       0          0          1
1007MRLO0230     RECT_CLOSED  5.00       3.00       0          0          1
1189MRLJ1720     CIRCULAR     3.00       3.00       0          0          1
1244MRLH0933     CIRCULAR     1.50       1.50       0          0          1
1050MRLJ1903     CIRCULAR     2.50       1.50       0          0          1
1055MRLJ0890     CIRCULAR     1.25       1.25       0          0          1
1067MRLL0048     CIRCULAR     2.50       2.50       0          0          1
1058MRLL0289     CIRCULAR     1.50       1.50       0          0          1
67_7             CIRCULAR     1.25       1.25       0          0          1
65_8             CIRCULAR     1.00       1.00       0          0          1
1264MRLJ2182     CIRCULAR     1.50       1.50       0          0          1
1258MRLJ2180     CIRCULAR     2.00       2.00       0          0          1
1053MRLJ0050     CIRCULAR     5.00       5.00       0          0          1
1183MRLJ1020A    RECT_CLOSED  12.00      4.50       0          0          1
1267MRLJ0788     RECT_CLOSED  6.00       4.00       0          0          1
268MRLH1475      CIRCULAR     1.00       1.00       0          0          1
001MRLH2740      HORSESHOE    3.16       2.00       0          0          1
07_7             CIRCULAR     5.00       5.00       0          0          1
04_9             HORSESHOE    6.33       4.00       0          0          1
06_8             CIRCULAR     5.00       5.00       0          0          1
02_6             CIRCULAR     5.00       5.00       0          0          1
95_5             HORSESHOE    5.00       3.17       0          0          1
15_6             CIRCULAR     2.00       2.00       0          0          1
18_7             CIRCULAR     6.00       6.00       0          0          1
96_5             HORSESHOE    5.00       3.16       0          0          1
03_6             CIRCULAR     5.00       5.00       0          0          1
14_7             CIRCULAR     1.25       1.25       0          0          1
21_5             HORSESHOE    3.00       1.83       0          0          1
23_6             CIRCULAR     2.00       2.00       0          0          1
37_5             HORSESHOE    4.42       2.83       0          0          1
39_6             CIRCULAR     5.00       5.00       0          0          1
16_6             HORSESHOE    6.33       4.00       0          0          1
40_4             CIRCULAR     3.50       3.50       0          0          1
38_6             CIRCULAR     5.00       5.00       0          0          1
66_8             CIRCULAR     5.00       5.00       0          0          1
42_8             HORSESHOE    3.16       2.00       0          0          1
44_6             HORSESHOE    3.75       2.42       0          0          1
43_4             CIRCULAR     3.50       3.50       0          0          1
47_6             RECT_CLOSED  4.50       3.50       0          0          1
19_6             TRAPEZOIDAL  1.00       10.00      2          2          1
17_7             TRAPEZOIDAL  1.00       10.00      2          2          1
26_7             TRAPEZOIDAL  1.00       10.00      2          2          1
28_6             TRAPEZOIDAL  1.00       10.00      2          2          1
24_6             TRAPEZOIDAL  1.00       10.00      2          2          1
30_4             TRAPEZOIDAL  1.00       10.00      2          2          1
33_8             TRAPEZOIDAL  1.00       10.00      2          2          1
32_7             TRAPEZOIDAL  1.00       10.00      2          2          1
81_5             TRAPEZOIDAL  1.00       10.00      2          2          1
92_5             TRAPEZOIDAL  1.00       10.00      2          2          1
02_7             TRAPEZOIDAL  1.00       10.00      2          2          1
11_5             TRAPEZOIDAL  1.00       10.00      2          2          1
33_9             TRAPEZOIDAL  1.00       10.00      2          2          1
35_7             TRAPEZOIDAL  1.00       10.00      2          2          1
40_5             TRAPEZOIDAL  1.00       10.00      2          2          1
44_7             TRAPEZOIDAL  1.00       10.00      2          2          1
01_5             TRAPEZOIDAL  1.00       10.00      2          2          1
94_6             TRAPEZOIDAL  1.00       10.00      2          2          1
57_7             TRAPEZOIDAL  1.00       10.00      2          2          1
72_5             TRAPEZOIDAL  1.00       10.00      2          2          1
77_8             TRAPEZOIDAL  1.00       10.00      2          2          1
74_7             TRAPEZOIDAL  1.00       10.00      2          2          1
85_6             TRAPEZOIDAL  1.00       10.00      2          2          1
03_7             TRAPEZOIDAL  1.00       10.00      2          2          1
02_8             TRAPEZOIDAL  1.00       10.00      2          2          1
99_7             TRAPEZOIDAL  1.00       10.00      2          2          1
35_8             TRAPEZOIDAL  1.00       10.00      2          2          1
37_6             TRAPEZOIDAL  1.00       10.00      2          2          1
34_6             TRAPEZOIDAL  1.00       10.00      2          2          1
56_8             TRAPEZOIDAL  1.00       10.00      2          2          1
67_8             TRAPEZOIDAL  1.00       10.00      2          2          1
69_6             TRAPEZOIDAL  1.00       10.00      2          2          1
70_8             TRAPEZOIDAL  1.00       10.00      2          2          1
80_8             TRAPEZOIDAL  1.00       10.00      2          2          1
82_6             TRAPEZOIDAL  1.00       10.00      2          2          1
88_6             TRAPEZOIDAL  1.00       10.00      2          2          1
92_6             TRAPEZOIDAL  1.00       10.00      2          2          1
16_7             TRAPEZOIDAL  1.00       10.00      2          2          1
15_7             TRAPEZOIDAL  1.00       10.00      2          2          1
18_8             TRAPEZOIDAL  1.00       10.00      2          2          1
25_8             TRAPEZOIDAL  1.00       10.00      2          2          1
21_6             TRAPEZOIDAL  1.00       10.00      2          2          1
19_7             TRAPEZOIDAL  1.00       10.00      2          2          1
28_7             TRAPEZOIDAL  1.00       10.00      2          2          1
83_6             TRAPEZOIDAL  1.00       10.00      2          2          1
85_7             TRAPEZOIDAL  1.00       10.00      2          2          1
62_5             TRAPEZOIDAL  1.00       10.00      2          2          1
78_7             TRAPEZOIDAL  1.00       10.00      2          2          1
97_6             TRAPEZOIDAL  1.00       10.00      2          2          1
32_8             TRAPEZOIDAL  1.00       10.00      2          2          1
40_6             TRAPEZOIDAL  1.00       10.00      2          2          1
46_9             TRAPEZOIDAL  1.00       10.00      2          2          1
807MRLP0590      TRAPEZOIDAL  1.00       10.00      2          2          1
72_6             TRAPEZOIDAL  1.00       10.00      2          2          1
002MRLO0430      TRAPEZOIDAL  1.00       10.00      2          2          1
84_7             TRAPEZOIDAL  1.00       10.00      2          2          1
001MRLH2740A     TRAPEZOIDAL  1.00       10.00      2          2          1
94_7             TRAPEZOIDAL  1.00       10.00      2          2          1
95_6             TRAPEZOIDAL  1.00       10.00      2          2          1
93_7             TRAPEZOIDAL  1.00       10.00      2          2          1
61_7             TRAPEZOIDAL  1.00       10.00      2          2          1
1081MRLJ1380     TRAPEZOIDAL  1.00       10.00      2          2          1
30_5             TRAPEZOIDAL  1.00       10.00      2          2          1
31_8             TRAPEZOIDAL  1.00       10.00      2          2          1
40_7             TRAPEZOIDAL  1.00       10.00      2          2          1
34_7             TRAPEZOIDAL  1.00       10.00      2          2          1
43_5             TRAPEZOIDAL  1.00       10.00      2          2          1
24_7             TRAPEZOIDAL  1.00       10.00      2          2          1
55_7             TRAPEZOIDAL  1.00       10.00      2          2          1
43_6             TRAPEZOIDAL  1.00       10.00      2          2          1
548              TRAPEZOIDAL  1.00       10.00      2          2          1
52_5             TRAPEZOIDAL  1.00       10.00      2          2          1
54_7             TRAPEZOIDAL  1.00       10.00      2          2          1
25_9             TRAPEZOIDAL  1.00       10.00      2          2          1
38_7             TRAPEZOIDAL  1.00       10.00      2          2          1
27_6             TRAPEZOIDAL  1.00       10.00      2          2          1
08_8             TRAPEZOIDAL  1.00       10.00      2          2          1
11_6             TRAPEZOIDAL  1.00       10.00      2          2          1
13_7             TRAPEZOIDAL  1.00       10.00      2          2          1
26_8             TRAPEZOIDAL  1.00       10.00      2          2          1
62_6             TRAPEZOIDAL  1.00       10.00      2          2          1
60_7             TRAPEZOIDAL  1.00       10.00      2          2          1
69_7             TRAPEZOIDAL  1.00       10.00      2          2          1
81_6             TRAPEZOIDAL  1.00       10.00      2          2          1
1159MRLJ1400     TRAPEZOIDAL  1.00       10.00      2          2          1
1047MRLJ1500     TRAPEZOIDAL  1.00       10.00      2          2          1
1087MRLJ1520     TRAPEZOIDAL  1.00       10.00      2          2          1
1090MRLJ1560     TRAPEZOIDAL  1.00       10.00      2          2          1
1088MRLJ1580     TRAPEZOIDAL  1.00       10.00      2          2          1
1091MRLJ1660     TRAPEZOIDAL  1.00       10.00      2          2          1
1124MRLJ2140A    TRAPEZOIDAL  1.00       10.00      2          2          1
1107MRLJ2220     TRAPEZOIDAL  1.00       10.00      2          2          1
1133MRLJ2420A    TRAPEZOIDAL  1.00       10.00      2          2          1
1149MRLL0430     TRAPEZOIDAL  1.00       10.00      2          2          1
1125MRLJ0490     TRAPEZOIDAL  1.00       10.00      2          2          1
1126MRLJ0530     TRAPEZOIDAL  1.00       10.00      2          2          1
1056MRLJ0650     TRAPEZOIDAL  1.00       10.00      2          2          1
1077MRLJ0750     TRAPEZOIDAL  1.00       10.00      2          2          1
1139MRLL0750A    TRAPEZOIDAL  1.00       10.00      2          2          1
1104MRLJ2240     TRAPEZOIDAL  1.00       10.00      2          2          1
1103MRLJ2260     TRAPEZOIDAL  1.00       10.00      2          2          1
1120MRLJ1900A    TRAPEZOIDAL  1.00       10.00      2          2          1
1105MRLJ2460     TRAPEZOIDAL  1.00       10.00      2          2          1
1082MRLJ1180     TRAPEZOIDAL  1.00       10.00      2          2          1
1185MRLJ1280     TRAPEZOIDAL  1.00       10.00      2          2          1
1114MRLJ1320     TRAPEZOIDAL  1.00       10.00      2          2          1
1187MRLJ1200     TRAPEZOIDAL  1.00       10.00      2          2          1
1188MRLJ1240     TRAPEZOIDAL  1.00       10.00      2          2          1
1108MRLJ2200     TRAPEZOIDAL  1.00       10.00      2          2          1
1191MRLJ2360     TRAPEZOIDAL  1.00       10.00      2          2          1
1057MRLL0710     TRAPEZOIDAL  1.00       10.00      2          2          1
1199MRLL0310     TRAPEZOIDAL  1.00       10.00      2          2          1
1193MRLJ2720     TRAPEZOIDAL  1.00       10.00      2          2          1
1202MRLL0870     TRAPEZOIDAL  1.00       10.00      2          2          1
1204MRLJ2680     TRAPEZOIDAL  1.00       10.00      2          2          1
1211MRLL0830     TRAPEZOIDAL  1.00       10.00      2          2          1
1117MRLJ1760     TRAPEZOIDAL  1.00       10.00      2          2          1
1248MRLJ1878     TRAPEZOIDAL  1.00       10.00      2          2          1
1212MRLJ2400     TRAPEZOIDAL  1.00       10.00      2          2          1
1113MRLJ2120     TRAPEZOIDAL  1.00       10.00      2          2          1
1086MRLJ2000     TRAPEZOIDAL  1.00       10.00      2          2          1
1054MRLJ1540     TRAPEZOIDAL  1.00       10.00      2          2          1
1080MRLJ1120     TRAPEZOIDAL  1.00       10.00      2          2          1
1119MRLJ1820     TRAPEZOIDAL  1.00       10.00      2          2          1
1066MRLL0570     TRAPEZOIDAL  1.00       10.00      2          2          1
1217MRLJ2620     TRAPEZOIDAL  1.00       10.00      2          2          1
1216MRLJ2580     TRAPEZOIDAL  1.00       10.00      2          2          1
1206MRLJ2540     TRAPEZOIDAL  1.00       10.00      2          2          1
1243MRLH1770     TRAPEZOIDAL  1.00       10.00      2          2          1
249MRLH0931      TRAPEZOIDAL  1.00       10.00      2          2          1
1250MRLJ1905     TRAPEZOIDAL  1.00       10.00      2          2          1
1083MRLJ1640     TRAPEZOIDAL  1.00       10.00      2          2          1
1171MRLJ2820A    TRAPEZOIDAL  1.00       10.00      2          2          1
986              TRAPEZOIDAL  1.00       10.00      2          2          1
1062MRLJ1220     TRAPEZOIDAL  1.00       10.00      2          2          1
93_8             TRAPEZOIDAL  1.00       10.00      2          2          1
1076MOLJ0510     TRAPEZOIDAL  1.00       10.00      2          2          1
1125MOLJ0490B    TRAPEZOIDAL  1.00       10.00      2          2          1
1126MOLJ0530     TRAPEZOIDAL  1.00       10.00      2          2          1
1163MOLJ0550A    TRAPEZOIDAL  1.00       10.00      2          2          1
1053MOLJ0050A    TRAPEZOIDAL  1.00       10.00      2          2          1
1190MOLJ2160     TRAPEZOIDAL  1.00       10.00      2          2          1
1109MOLJ2100A    TRAPEZOIDAL  1.00       10.00      2          2          1
1103MOLJ2260     TRAPEZOIDAL  1.00       10.00      2          2          1
1178MOLJ2300A    TRAPEZOIDAL  1.00       10.00      2          2          1
1191MOLJ2360     TRAPEZOIDAL  1.00       10.00      2          2          1
102MOLJ2280B     TRAPEZOIDAL  1.00       10.00      2          2          1
1252MOLJ2380     TRAPEZOIDAL  1.00       10.00      2          2          1
1252MOLJ2380A    TRAPEZOIDAL  1.00       10.00      2          2          1
1252MOLJ2380B    TRAPEZOIDAL  1.00       10.00      2          2          1
1175MOLJ0430     TRAPEZOIDAL  1.00       10.00      2          2          1
1215MOLJ2520     TRAPEZOIDAL  1.00       10.00      2          2          1
1051MOLJ2480     TRAPEZOIDAL  1.00       10.00      2          2          1
1049MOLJ0670     TRAPEZOIDAL  1.00       10.00      2          2          1
1052MOLJ2600     TRAPEZOIDAL  1.00       10.00      2          2          1
1052MOLJ2600A    TRAPEZOIDAL  1.00       10.00      2          2          1
1216MOLJ2580A    TRAPEZOIDAL  1.00       10.00      2          2          1
1253MOLJ2640     TRAPEZOIDAL  1.00       10.00      2          2          1
1253MOLJ2640A    TRAPEZOIDAL  1.00       10.00      2          2          1
1147MOLL0490     TRAPEZOIDAL  1.00       10.00      2          2          1
1100MOLJ2700     TRAPEZOIDAL  1.00       10.00      2          2          1
1100MOLJ2700A    TRAPEZOIDAL  1.00       10.00      2          2          1
1100MOLJ2700B    TRAPEZOIDAL  1.00       10.00      2          2          1
1099MOLJ2840     TRAPEZOIDAL  1.00       10.00      2          2          1
1197MOLJ2860     TRAPEZOIDAL  1.00       10.00      2          2          1
1096MOLJ0350B    TRAPEZOIDAL  1.00       10.00      2          2          1
1133MOLJ2420A    TRAPEZOIDAL  1.00       10.00      2          2          1
095MOLJ0370A     TRAPEZOIDAL  1.00       10.00      2          2          1
1107MOLJ2220     TRAPEZOIDAL  1.00       10.00      2          2          1
1174MOLJ0310B    TRAPEZOIDAL  1.00       10.00      2          2          1
1258MOLJ2180     TRAPEZOIDAL  1.00       10.00      2          2          1
1043MOLJ0410     TRAPEZOIDAL  1.00       10.00      2          2          1
1122MOLJ1840     TRAPEZOIDAL  1.00       10.00      2          2          1
1169MOLJ0230     TRAPEZOIDAL  1.00       10.00      2          2          1
1121MOLJ1860     TRAPEZOIDAL  1.00       10.00      2          2          1
1128MOLJ0250B    TRAPEZOIDAL  1.00       10.00      2          2          1
1149MOLL0430     TRAPEZOIDAL  1.00       10.00      2          2          1
1059MOLL0350     TRAPEZOIDAL  1.00       10.00      2          2          1
1059MOLL0350A    TRAPEZOIDAL  1.00       10.00      2          2          1
1049MOLJ0670B    TRAPEZOIDAL  1.00       10.00      2          2          1
1254MOLL0690     TRAPEZOIDAL  1.00       10.00      2          2          1
1150MOLL0410     TRAPEZOIDAL  1.00       10.00      2          2          1
1140MOLJ0770     TRAPEZOIDAL  1.00       10.00      2          2          1
1140MOLJ0770A    TRAPEZOIDAL  1.00       10.00      2          2          1
1044MOLJ0570A    TRAPEZOIDAL  1.00       10.00      2          2          1
1134MOLJ0930     TRAPEZOIDAL  1.00       10.00      2          2          1
1004MOLJ0790     TRAPEZOIDAL  1.00       10.00      2          2          1
1044MOLJ0570B    TRAPEZOIDAL  1.00       10.00      2          2          1
1004MOLJ0790B    TRAPEZOIDAL  1.00       10.00      2          2          1
925              TRAPEZOIDAL  1.00       10.00      2          2          1
25_10            TRAPEZOIDAL  1.00       10.00      2          2          1
925_2            TRAPEZOIDAL  1.00       10.00      2          2          1
924_2            TRAPEZOIDAL  1.00       10.00      2          2          1
924_3            TRAPEZOIDAL  1.00       10.00      2          2          1
09_8             TRAPEZOIDAL  1.00       10.00      2          2          1
11_7             TRAPEZOIDAL  1.00       10.00      2          2          1
241MOLH2800      TRAPEZOIDAL  1.00       10.00      2          2          1
11_8             TRAPEZOIDAL  1.00       10.00      2          2          1
11_9             TRAPEZOIDAL  1.00       10.00      2          2          1
1200MOLL0250     TRAPEZOIDAL  1.00       10.00      2          2          1
946              TRAPEZOIDAL  1.00       10.00      2          2          1
1063MOLL0110     TRAPEZOIDAL  1.00       10.00      2          2          1
1238MOLZ0260     TRAPEZOIDAL  1.00       10.00      2          2          1
947_2            TRAPEZOIDAL  1.00       10.00      2          2          1
1006MOLO0210     TRAPEZOIDAL  1.00       10.00      2          2          1
947_3            TRAPEZOIDAL  1.00       10.00      2          2          1
1006MOLO0210A    TRAPEZOIDAL  1.00       10.00      2          2          1
013MOLO0330      TRAPEZOIDAL  1.00       10.00      2          2          1
56_9             TRAPEZOIDAL  1.00       10.00      2          2          1
1207MOLL0010A    TRAPEZOIDAL  1.00       10.00      2          2          1
1207MOLL0010B    TRAPEZOIDAL  1.00       10.00      2          2          1
1156MOLL0070     TRAPEZOIDAL  1.00       10.00      2          2          1
85_9             TRAPEZOIDAL  1.00       10.00      2          2          1
78_8             TRAPEZOIDAL  1.00       10.00      2          2          1
15_9             TRAPEZOIDAL  1.00       10.00      2          2          1
10_10            TRAPEZOIDAL  1.00       10.00      2          2          1
15_10            TRAPEZOIDAL  1.00       10.00      2          2          1
85_10            TRAPEZOIDAL  1.00       10.00      2          2          1
10_11            TRAPEZOIDAL  1.00       10.00      2          2          1
10_12            TRAPEZOIDAL  1.00       10.00      2          2          1
85_11            TRAPEZOIDAL  1.00       10.00      2          2          1
11_10            TRAPEZOIDAL  1.00       10.00      2          2          1
13_9             TRAPEZOIDAL  1.00       10.00      2          2          1
81_8             TRAPEZOIDAL  1.00       10.00      2          2          1
263MOLH2240      TRAPEZOIDAL  1.00       10.00      2          2          1
981              TRAPEZOIDAL  1.00       10.00      2          2          1
1101MOLJ1260B    TRAPEZOIDAL  1.00       10.00      2          2          1
1238MOLZ0260A    TRAPEZOIDAL  1.00       10.00      2          2          1
1016MOLO0010     TRAPEZOIDAL  1.00       10.00      2          2          1
07_9             TRAPEZOIDAL  1.00       10.00      2          2          1
11_11            TRAPEZOIDAL  1.00       10.00      2          2          1
1018MOLH1350     TRAPEZOIDAL  1.00       10.00      2          2          1
235MOLZ0340      TRAPEZOIDAL  1.00       10.00      2          2          1
84_8             TRAPEZOIDAL  1.00       10.00      2          2          1
90_10            TRAPEZOIDAL  1.00       10.00      2          2          1
1016MOLO0010A    TRAPEZOIDAL  1.00       10.00      2          2          1
897_2            TRAPEZOIDAL  1.00       10.00      2          2          1
016MOLO0010B     TRAPEZOIDAL  1.00       10.00      2          2          1
971              TRAPEZOIDAL  1.00       10.00      2          2          1
1016MOLO0010C    TRAPEZOIDAL  1.00       10.00      2          2          1
941              TRAPEZOIDAL  1.00       10.00      2          2          1
008MOLH1720      TRAPEZOIDAL  1.00       10.00      2          2          1
208MOLO0090      TRAPEZOIDAL  1.00       10.00      2          2          1
1140MOLJ0770B    TRAPEZOIDAL  1.00       10.00      2          2          1
54_8             TRAPEZOIDAL  1.00       10.00      2          2          1
263MOLH2240A     TRAPEZOIDAL  1.00       10.00      2          2          1
79_8             TRAPEZOIDAL  1.00       10.00      2          2          1
969_2            TRAPEZOIDAL  1.00       10.00      2          2          1
02_9             TRAPEZOIDAL  1.00       10.00      2          2          1
02_10            TRAPEZOIDAL  1.00       10.00      2          2          1
89_8             TRAPEZOIDAL  1.00       10.00      2          2          1
1008MOLH1720A    TRAPEZOIDAL  1.00       10.00      2          2          1
41_9             TRAPEZOIDAL  1.00       10.00      2          2          1
940              TRAPEZOIDAL  1.00       10.00      2          2          1
41_10            TRAPEZOIDAL  1.00       10.00      2          2          1
1179MOLJ1880     TRAPEZOIDAL  1.00       10.00      2          2          1
88_7             TRAPEZOIDAL  1.00       10.00      2          2          1
1226MOLH0130     TRAPEZOIDAL  1.00       10.00      2          2          1
98_9             TRAPEZOIDAL  1.00       10.00      2          2          1
19_9             TRAPEZOIDAL  1.00       10.00      2          2          1
917              TRAPEZOIDAL  1.00       10.00      2          2          1
1012MOLZ0200     TRAPEZOIDAL  1.00       10.00      2          2          1
008MOLH1720B     TRAPEZOIDAL  1.00       10.00      2          2          1
977_2            TRAPEZOIDAL  1.00       10.00      2          2          1
958_2            TRAPEZOIDAL  1.00       10.00      2          2          1
029MOLH0590      TRAPEZOIDAL  1.00       10.00      2          2          1
1029MOLH0590B    TRAPEZOIDAL  1.00       10.00      2          2          1
70_9             TRAPEZOIDAL  1.00       10.00      2          2          1
943_2            TRAPEZOIDAL  1.00       10.00      2          2          1
225MOLH0350B     TRAPEZOIDAL  1.00       10.00      2          2          1
1226MOLH0130A    TRAPEZOIDAL  1.00       10.00      2          2          1
82_7             TRAPEZOIDAL  1.00       10.00      2          2          1
1017MOLH0030     TRAPEZOIDAL  1.00       10.00      2          2          1
979              TRAPEZOIDAL  1.00       10.00      2          2          1
957              TRAPEZOIDAL  1.00       10.00      2          2          1
032MOLH2440A     TRAPEZOIDAL  1.00       10.00      2          2          1
1072MOLL0770     TRAPEZOIDAL  1.00       10.00      2          2          1
943_3            TRAPEZOIDAL  1.00       10.00      2          2          1
965              TRAPEZOIDAL  1.00       10.00      2          2          1
1009MOLH1800     TRAPEZOIDAL  1.00       10.00      2          2          1
1255MOLH2380     TRAPEZOIDAL  1.00       10.00      2          2          1
976_2            TRAPEZOIDAL  1.00       10.00      2          2          1
1030MOLH0790     TRAPEZOIDAL  1.00       10.00      2          2          1
137MOLL0730      TRAPEZOIDAL  1.00       10.00      2          2          1
28_9             TRAPEZOIDAL  1.00       10.00      2          2          1
203MOLL0890A     TRAPEZOIDAL  1.00       10.00      2          2          1
1208MOLO0090A    TRAPEZOIDAL  1.00       10.00      2          2          1
246MOLH1769      TRAPEZOIDAL  1.00       10.00      2          2          1
012MOLZ0200A     TRAPEZOIDAL  1.00       10.00      2          2          1
949_2            TRAPEZOIDAL  1.00       10.00      2          2          1
261MOLH1767      TRAPEZOIDAL  1.00       10.00      2          2          1
19_10            TRAPEZOIDAL  1.00       10.00      2          2          1
921_2            TRAPEZOIDAL  1.00       10.00      2          2          1
187MOLJ1200      TRAPEZOIDAL  1.00       10.00      2          2          1
23_8             TRAPEZOIDAL  1.00       10.00      2          2          1
921_3            TRAPEZOIDAL  1.00       10.00      2          2          1
53_8             TRAPEZOIDAL  1.00       10.00      2          2          1
953_2            TRAPEZOIDAL  1.00       10.00      2          2          1
921_4            TRAPEZOIDAL  1.00       10.00      2          2          1
921_5            TRAPEZOIDAL  1.00       10.00      2          2          1
965_2            TRAPEZOIDAL  1.00       10.00      2          2          1
923_2            TRAPEZOIDAL  1.00       10.00      2          2          1
029MOLH0590C     TRAPEZOIDAL  1.00       10.00      2          2          1
013MOLO0330B     TRAPEZOIDAL  1.00       10.00      2          2          1
11_12            TRAPEZOIDAL  1.00       10.00      2          2          1
31_9             TRAPEZOIDAL  1.00       10.00      2          2          1
98_10            TRAPEZOIDAL  1.00       10.00      2          2          1
981_2            TRAPEZOIDAL  1.00       10.00      2          2          1
58_9             TRAPEZOIDAL  1.00       10.00      2          2          1
03_8             TRAPEZOIDAL  1.00       10.00      2          2          1
03_9             TRAPEZOIDAL  1.00       10.00      2          2          1
95_8             TRAPEZOIDAL  1.00       10.00      2          2          1
036MOLH1450      TRAPEZOIDAL  1.00       10.00      2          2          1
263MOLH2240B     TRAPEZOIDAL  1.00       10.00      2          2          1
1263MOLH2240C    TRAPEZOIDAL  1.00       10.00      2          2          1
1165MOLL0930A    TRAPEZOIDAL  1.00       10.00      2          2          1
1032MOLH2440C    TRAPEZOIDAL  1.00       10.00      2          2          1
31_10            TRAPEZOIDAL  1.00       10.00      2          2          1
902_2            TRAPEZOIDAL  1.00       10.00      2          2          1
957_2            TRAPEZOIDAL  1.00       10.00      2          2          1
95_9             TRAPEZOIDAL  1.00       10.00      2          2          1
85_12            TRAPEZOIDAL  1.00       10.00      2          2          1
893              TRAPEZOIDAL  1.00       10.00      2          2          1
234MOLZ0500      TRAPEZOIDAL  1.00       10.00      2          2          1
1234MOLZ0500A    TRAPEZOIDAL  1.00       10.00      2          2          1
882_2            TRAPEZOIDAL  1.00       10.00      2          2          1
952_2            TRAPEZOIDAL  1.00       10.00      2          2          1
1237MOLZ0240     TRAPEZOIDAL  1.00       10.00      2          2          1
53_9             TRAPEZOIDAL  1.00       10.00      2          2          1
018MOLH1350A     TRAPEZOIDAL  1.00       10.00      2          2          1
887              TRAPEZOIDAL  1.00       10.00      2          2          1
73_11            TRAPEZOIDAL  1.00       10.00      2          2          1
1235MOLZ0340A    TRAPEZOIDAL  1.00       10.00      2          2          1
235MOLZ0340B     TRAPEZOIDAL  1.00       10.00      2          2          1
236MOLZ0300      TRAPEZOIDAL  1.00       10.00      2          2          1
88_8             TRAPEZOIDAL  1.00       10.00      2          2          1
902_3            TRAPEZOIDAL  1.00       10.00      2          2          1
944_2            TRAPEZOIDAL  1.00       10.00      2          2          1
86_7             TRAPEZOIDAL  1.00       10.00      2          2          1
79_9             TRAPEZOIDAL  1.00       10.00      2          2          1
919              TRAPEZOIDAL  1.00       10.00      2          2          1
944_3            TRAPEZOIDAL  1.00       10.00      2          2          1
58_10            TRAPEZOIDAL  1.00       10.00      2          2          1
13_10            TRAPEZOIDAL  1.00       10.00      2          2          1
1024MOLZ0600     TRAPEZOIDAL  1.00       10.00      2          2          1
1158MOLL0030     TRAPEZOIDAL  1.00       10.00      2          2          1
1065MOLL0190     TRAPEZOIDAL  1.00       10.00      2          2          1
99_9             TRAPEZOIDAL  1.00       10.00      2          2          1
897_3            TRAPEZOIDAL  1.00       10.00      2          2          1
34_8             TRAPEZOIDAL  1.00       10.00      2          2          1
955_2            TRAPEZOIDAL  1.00       10.00      2          2          1
78_9             TRAPEZOIDAL  1.00       10.00      2          2          1
226MOLH0130B     TRAPEZOIDAL  1.00       10.00      2          2          1
029MOLH0590D     TRAPEZOIDAL  1.00       10.00      2          2          1
1166MOLL0790C    TRAPEZOIDAL  1.00       10.00      2          2          1
15_11            TRAPEZOIDAL  1.00       10.00      2          2          1
1238MOLZ0260B    TRAPEZOIDAL  1.00       10.00      2          2          1
70_10            TRAPEZOIDAL  1.00       10.00      2          2          1
1061MOLJ2320     TRAPEZOIDAL  1.00       10.00      2          2          1
1064MOLL0090A    TRAPEZOIDAL  1.00       10.00      2          2          1
1051MOLJ2480B    TRAPEZOIDAL  1.00       10.00      2          2          1
1238MOLZ0260C    TRAPEZOIDAL  1.00       10.00      2          2          1
955_3            TRAPEZOIDAL  1.00       10.00      2          2          1
1118MOLJ1740     TRAPEZOIDAL  1.00       10.00      2          2          1
1253MOLJ2640B    TRAPEZOIDAL  1.00       10.00      2          2          1
1194MOLJ2760B    TRAPEZOIDAL  1.00       10.00      2          2          1
989              TRAPEZOIDAL  1.00       10.00      2          2          1
1092MOLJ1620A    TRAPEZOIDAL  1.00       10.00      2          2          1
1097MOLJ0610A    TRAPEZOIDAL  1.00       10.00      2          2          1
1261MOLH1767A    TRAPEZOIDAL  1.00       10.00      2          2          1
51_9             TRAPEZOIDAL  1.00       10.00      2          2          1
91_10            TRAPEZOIDAL  1.00       10.00      2          2          1
952_3            TRAPEZOIDAL  1.00       10.00      2          2          1
1044MOLJ0570C    TRAPEZOIDAL  1.00       10.00      2          2          1
973              TRAPEZOIDAL  1.00       10.00      2          2          1
82_8             TRAPEZOIDAL  1.00       10.00      2          2          1
184MOLJ1000A     TRAPEZOIDAL  1.00       10.00      2          2          1
184MOLJ1000B     TRAPEZOIDAL  1.00       10.00      2          2          1
1259MOLL0050     TRAPEZOIDAL  1.00       10.00      2          2          1
1259MOLL0050A    TRAPEZOIDAL  1.00       10.00      2          2          1
1043MOLJ0410B    TRAPEZOIDAL  1.00       10.00      2          2          1
044MOLJ0570D     TRAPEZOIDAL  1.00       10.00      2          2          1
135MOLJ0910      TRAPEZOIDAL  1.00       10.00      2          2          1
52_7             TRAPEZOIDAL  1.00       10.00      2          2          1
235MOLZ0340C     TRAPEZOIDAL  1.00       10.00      2          2          1
1004MOLJ0790C    TRAPEZOIDAL  1.00       10.00      2          2          1
88_9             TRAPEZOIDAL  1.00       10.00      2          2          1
1176MOLJ0450     TRAPEZOIDAL  1.00       10.00      2          2          1
880              TRAPEZOIDAL  1.00       10.00      2          2          1
898_2            TRAPEZOIDAL  1.00       10.00      2          2          1
923_3            TRAPEZOIDAL  1.00       10.00      2          2          1
1242MOLZ0610     TRAPEZOIDAL  1.00       10.00      2          2          1
1017MOLH0030A    TRAPEZOIDAL  1.00       10.00      2          2          1
1203MOLL0890B    TRAPEZOIDAL  1.00       10.00      2          2          1
93_9             TRAPEZOIDAL  1.00       10.00      2          2          1
1021MOLH0850     TRAPEZOIDAL  1.00       10.00      2          2          1
1065MOLL0190A    TRAPEZOIDAL  1.00       10.00      2          2          1
88_10            TRAPEZOIDAL  1.00       10.00      2          2          1
25_11            TRAPEZOIDAL  1.00       10.00      2          2          1
89_9             TRAPEZOIDAL  1.00       10.00      2          2          1
56_10            TRAPEZOIDAL  1.00       10.00      2          2          1
48_7             TRAPEZOIDAL  1.00       10.00      2          2          1
67_9             TRAPEZOIDAL  1.00       10.00      2          2          1
41_11            TRAPEZOIDAL  1.00       10.00      2          2          1
79_10            TRAPEZOIDAL  1.00       10.00      2          2          1
08_9             TRAPEZOIDAL  1.00       10.00      2          2          1
06_9             TRAPEZOIDAL  1.00       10.00      2          2          1
50_10            TRAPEZOIDAL  1.00       10.00      2          2          1
01_7             TRAPEZOIDAL  1.00       10.00      2          2          1
89_10            TRAPEZOIDAL  1.00       10.00      2          2          1
97_7             TRAPEZOIDAL  1.00       10.00      2          2          1
40_9             TRAPEZOIDAL  1.00       10.00      2          2          1
23_9             TRAPEZOIDAL  1.00       10.00      2          2          1
14_9             TRAPEZOIDAL  1.00       10.00      2          2          1
44_8             TRAPEZOIDAL  1.00       10.00      2          2          1
98_11            TRAPEZOIDAL  1.00       10.00      2          2          1
19_11            TRAPEZOIDAL  1.00       10.00      2          2          1
10_13            TRAPEZOIDAL  1.00       10.00      2          2          1
20_10            TRAPEZOIDAL  1.00       10.00      2          2          1
22_9             TRAPEZOIDAL  1.00       10.00      2          2          1
43_8             TRAPEZOIDAL  1.00       10.00      2          2          1
41_12            TRAPEZOIDAL  1.00       10.00      2          2          1
22_10            TRAPEZOIDAL  1.00       10.00      2          2          1
48_8             TRAPEZOIDAL  1.00       10.00      2          2          1
43_9             TRAPEZOIDAL  1.00       10.00      2          2          1
40_10            TRAPEZOIDAL  1.00       10.00      2          2          1
03_10            TRAPEZOIDAL  1.00       10.00      2          2          1
03_11            TRAPEZOIDAL  1.00       10.00      2          2          1
62_9             TRAPEZOIDAL  1.00       10.00      2          2          1
62_10            TRAPEZOIDAL  1.00       10.00      2          2          1
27_8             TRAPEZOIDAL  1.00       10.00      2          2          1
62_11            TRAPEZOIDAL  1.00       10.00      2          2          1
43_10            TRAPEZOIDAL  1.00       10.00      2          2          1
43_11            TRAPEZOIDAL  1.00       10.00      2          2          1
62_12            TRAPEZOIDAL  1.00       10.00      2          2          1
62_13            TRAPEZOIDAL  1.00       10.00      2          2          1
41_13            TRAPEZOIDAL  1.00       10.00      2          2          1
86_8             TRAPEZOIDAL  1.00       10.00      2          2          1
14_10            TRAPEZOIDAL  1.00       10.00      2          2          1
41_14            TRAPEZOIDAL  1.00       10.00      2          2          1
41_15            TRAPEZOIDAL  1.00       10.00      2          2          1
45_8             TRAPEZOIDAL  1.00       10.00      2          2          1
07_10            TRAPEZOIDAL  1.00       10.00      2          2          1
07_11            TRAPEZOIDAL  1.00       10.00      2          2          1
51_10            TRAPEZOIDAL  1.00       10.00      2          2          1
51_11            TRAPEZOIDAL  1.00       10.00      2          2          1
84_9             TRAPEZOIDAL  1.00       10.00      2          2          1
50_11            TRAPEZOIDAL  1.00       10.00      2          2          1
86_9             TRAPEZOIDAL  1.00       10.00      2          2          1
88_11            TRAPEZOIDAL  1.00       10.00      2          2          1
24_8             TRAPEZOIDAL  1.00       10.00      2          2          1
07_12            TRAPEZOIDAL  1.00       10.00      2          2          1
07_13            TRAPEZOIDAL  1.00       10.00      2          2          1
07_14            TRAPEZOIDAL  1.00       10.00      2          2          1
69_8             TRAPEZOIDAL  1.00       10.00      2          2          1
83_8             TRAPEZOIDAL  1.00       10.00      2          2          1
39_8             TRAPEZOIDAL  1.00       10.00      2          2          1
24_9             TRAPEZOIDAL  1.00       10.00      2          2          1
60_9             TRAPEZOIDAL  1.00       10.00      2          2          1
50_12            TRAPEZOIDAL  1.00       10.00      2          2          1
96_7             TRAPEZOIDAL  1.00       10.00      2          2          1
02_11            TRAPEZOIDAL  1.00       10.00      2          2          1
97_8             TRAPEZOIDAL  1.00       10.00      2          2          1
99_10            TRAPEZOIDAL  1.00       10.00      2          2          1
02_12            TRAPEZOIDAL  1.00       10.00      2          2          1
03_12            TRAPEZOIDAL  1.00       10.00      2          2          1
05_9             TRAPEZOIDAL  1.00       10.00      2          2          1
35_9             TRAPEZOIDAL  1.00       10.00      2          2          1
79_11            TRAPEZOIDAL  1.00       10.00      2          2          1
71_10            TRAPEZOIDAL  1.00       10.00      2          2          1
85_13            TRAPEZOIDAL  1.00       10.00      2          2          1
33_10            TRAPEZOIDAL  1.00       10.00      2          2          1
01_8             TRAPEZOIDAL  1.00       10.00      2          2          1
06_10            TRAPEZOIDAL  1.00       10.00      2          2          1
59_9             TRAPEZOIDAL  1.00       10.00      2          2          1
71_11            TRAPEZOIDAL  1.00       10.00      2          2          1
59_10            TRAPEZOIDAL  1.00       10.00      2          2          1
05_10            TRAPEZOIDAL  1.00       10.00      2          2          1
99_11            TRAPEZOIDAL  1.00       10.00      2          2          1
01_9             TRAPEZOIDAL  1.00       10.00      2          2          1
50_13            TRAPEZOIDAL  1.00       10.00      2          2          1
50_14            TRAPEZOIDAL  1.00       10.00      2          2          1
79_12            TRAPEZOIDAL  1.00       10.00      2          2          1
17_9             TRAPEZOIDAL  1.00       10.00      2          2          1
51_12            TRAPEZOIDAL  1.00       10.00      2          2          1
71_12            TRAPEZOIDAL  1.00       10.00      2          2          1
03_13            TRAPEZOIDAL  1.00       10.00      2          2          1
03_14            TRAPEZOIDAL  1.00       10.00      2          2          1
71_13            TRAPEZOIDAL  1.00       10.00      2          2          1
53_10            TRAPEZOIDAL  1.00       10.00      2          2          1
58_11            TRAPEZOIDAL  1.00       10.00      2          2          1
26_9             TRAPEZOIDAL  1.00       10.00      2          2          1
66_9             TRAPEZOIDAL  1.00       10.00      2          2          1
28_10            TRAPEZOIDAL  1.00       10.00      2          2          1
28_11            TRAPEZOIDAL  1.00       10.00      2          2          1
33_11            TRAPEZOIDAL  1.00       10.00      2          2          1
79_13            TRAPEZOIDAL  1.00       10.00      2          2          1
79_14            TRAPEZOIDAL  1.00       10.00      2          2          1
58_12            TRAPEZOIDAL  1.00       10.00      2          2          1
58_13            TRAPEZOIDAL  1.00       10.00      2          2          1
71_14            TRAPEZOIDAL  1.00       10.00      2          2          1
71_15            TRAPEZOIDAL  1.00       10.00      2          2          1
72_9             TRAPEZOIDAL  1.00       10.00      2          2          1
72_10            TRAPEZOIDAL  1.00       10.00      2          2          1
68_10            TRAPEZOIDAL  1.00       10.00      2          2          1
82_9             TRAPEZOIDAL  1.00       10.00      2          2          1
53_11            TRAPEZOIDAL  1.00       10.00      2          2          1
95_10            TRAPEZOIDAL  1.00       10.00      2          2          1
66_10            TRAPEZOIDAL  1.00       10.00      2          2          1
26_10            TRAPEZOIDAL  1.00       10.00      2          2          1
50_15            TRAPEZOIDAL  1.00       10.00      2          2          1
33_12            TRAPEZOIDAL  1.00       10.00      2          2          1
15_12            TRAPEZOIDAL  1.00       10.00      2          2          1
67_10            TRAPEZOIDAL  1.00       10.00      2          2          1
67_11            TRAPEZOIDAL  1.00       10.00      2          2          1
53_12            TRAPEZOIDAL  1.00       10.00      2          2          1
95_11            TRAPEZOIDAL  1.00       10.00      2          2          1
15_13            TRAPEZOIDAL  1.00       10.00      2          2          1
31_11            TRAPEZOIDAL  1.00       10.00      2          2          1
64_8             TRAPEZOIDAL  1.00       10.00      2          2          1
72_11            TRAPEZOIDAL  1.00       10.00      2          2          1
64_9             TRAPEZOIDAL  1.00       10.00      2          2          1
15_14            TRAPEZOIDAL  1.00       10.00      2          2          1
15_15            TRAPEZOIDAL  1.00       10.00      2          2          1
72_12            TRAPEZOIDAL  1.00       10.00      2          2          1
82_10            TRAPEZOIDAL  1.00       10.00      2          2          1
96_8             TRAPEZOIDAL  1.00       10.00      2          2          1
52_8             TRAPEZOIDAL  1.00       10.00      2          2          1
67_12            TRAPEZOIDAL  1.00       10.00      2          2          1
76_8             TRAPEZOIDAL  1.00       10.00      2          2          1
19_12            TRAPEZOIDAL  1.00       10.00      2          2          1
39_9             TRAPEZOIDAL  1.00       10.00      2          2          1
39_10            TRAPEZOIDAL  1.00       10.00      2          2          1
19_13            TRAPEZOIDAL  1.00       10.00      2          2          1
39_11            TRAPEZOIDAL  1.00       10.00      2          2          1
90_11            TRAPEZOIDAL  1.00       10.00      2          2          1
90_12            TRAPEZOIDAL  1.00       10.00      2          2          1
50_16            TRAPEZOIDAL  1.00       10.00      2          2          1
36_8             TRAPEZOIDAL  1.00       10.00      2          2          1
56_11            TRAPEZOIDAL  1.00       10.00      2          2          1
36_9             TRAPEZOIDAL  1.00       10.00      2          2          1
62_14            TRAPEZOIDAL  1.00       10.00      2          2          1
38_9             TRAPEZOIDAL  1.00       10.00      2          2          1
38_10            TRAPEZOIDAL  1.00       10.00      2          2          1
38_11            TRAPEZOIDAL  1.00       10.00      2          2          1
79_15            TRAPEZOIDAL  1.00       10.00      2          2          1
877              TRAPEZOIDAL  1.00       10.00      2          2          1
543              TRAPEZOIDAL  1.00       10.00      2          2          1
50_17            TRAPEZOIDAL  1.00       10.00      2          2          1
50_18            TRAPEZOIDAL  1.00       10.00      2          2          1
21_8             TRAPEZOIDAL  1.00       10.00      2          2          1
89_11            TRAPEZOIDAL  1.00       10.00      2          2          1
89_12            TRAPEZOIDAL  1.00       10.00      2          2          1
89_13            TRAPEZOIDAL  1.00       10.00      2          2          1
23_10            TRAPEZOIDAL  1.00       10.00      2          2          1
93_10            TRAPEZOIDAL  1.00       10.00      2          2          1
14_11            TRAPEZOIDAL  1.00       10.00      2          2          1
18_9             TRAPEZOIDAL  1.00       10.00      2          2          1
17_10            TRAPEZOIDAL  1.00       10.00      2          2          1
94_8             TRAPEZOIDAL  1.00       10.00      2          2          1
25_12            TRAPEZOIDAL  1.00       10.00      2          2          1
95_12            TRAPEZOIDAL  1.00       10.00      2          2          1
09_9             TRAPEZOIDAL  1.00       10.00      2          2          1
23_11            TRAPEZOIDAL  1.00       10.00      2          2          1
95_13            TRAPEZOIDAL  1.00       10.00      2          2          1
03_15            TRAPEZOIDAL  1.00       10.00      2          2          1
23_12            TRAPEZOIDAL  1.00       10.00      2          2          1
02_13            TRAPEZOIDAL  1.00       10.00      2          2          1
05_11            TRAPEZOIDAL  1.00       10.00      2          2          1
10_14            TRAPEZOIDAL  1.00       10.00      2          2          1
05_12            TRAPEZOIDAL  1.00       10.00      2          2          1
05_13            TRAPEZOIDAL  1.00       10.00      2          2          1
06_11            TRAPEZOIDAL  1.00       10.00      2          2          1
03_16            TRAPEZOIDAL  1.00       10.00      2          2          1
09_10            TRAPEZOIDAL  1.00       10.00      2          2          1
01_10            TRAPEZOIDAL  1.00       10.00      2          2          1
03_17            TRAPEZOIDAL  1.00       10.00      2          2          1
90_13            TRAPEZOIDAL  1.00       10.00      2          2          1
40_11            TRAPEZOIDAL  1.00       10.00      2          2          1
01_11            TRAPEZOIDAL  1.00       10.00      2          2          1
98_12            TRAPEZOIDAL  1.00       10.00      2          2          1
00_7             TRAPEZOIDAL  1.00       10.00      2          2          1
99_12            TRAPEZOIDAL  1.00       10.00      2          2          1
03_18            TRAPEZOIDAL  1.00       10.00      2          2          1
38_12            TRAPEZOIDAL  1.00       10.00      2          2          1
02_14            TRAPEZOIDAL  1.00       10.00      2          2          1
17_11            TRAPEZOIDAL  1.00       10.00      2          2          1
38_13            TRAPEZOIDAL  1.00       10.00      2          2          1
45_9             TRAPEZOIDAL  1.00       10.00      2          2          1
45_10            TRAPEZOIDAL  1.00       10.00      2          2          1
07_15            TRAPEZOIDAL  1.00       10.00      2          2          1
29_9             TRAPEZOIDAL  1.00       10.00      2          2          1
17_12            TRAPEZOIDAL  1.00       10.00      2          2          1
29_10            TRAPEZOIDAL  1.00       10.00      2          2          1
26_11            TRAPEZOIDAL  1.00       10.00      2          2          1
42_10            TRAPEZOIDAL  1.00       10.00      2          2          1
01_12            TRAPEZOIDAL  1.00       10.00      2          2          1
17_13            TRAPEZOIDAL  1.00       10.00      2          2          1
17_14            TRAPEZOIDAL  1.00       10.00      2          2          1
21_9             TRAPEZOIDAL  1.00       10.00      2          2          1
94_9             TRAPEZOIDAL  1.00       10.00      2          2          1
05_14            TRAPEZOIDAL  1.00       10.00      2          2          1
87_9             TRAPEZOIDAL  1.00       10.00      2          2          1
40_12            TRAPEZOIDAL  1.00       10.00      2          2          1
45_11            TRAPEZOIDAL  1.00       10.00      2          2          1
28_12            TRAPEZOIDAL  1.00       10.00      2          2          1
05_15            TRAPEZOIDAL  1.00       10.00      2          2          1
02_15            TRAPEZOIDAL  1.00       10.00      2          2          1
26_12            TRAPEZOIDAL  1.00       10.00      2          2          1
98_13            TRAPEZOIDAL  1.00       10.00      2          2          1
26_13            TRAPEZOIDAL  1.00       10.00      2          2          1
26_14            TRAPEZOIDAL  1.00       10.00      2          2          1
26_15            TRAPEZOIDAL  1.00       10.00      2          2          1
26_16            TRAPEZOIDAL  1.00       10.00      2          2          1
21_10            TRAPEZOIDAL  1.00       10.00      2          2          1
02_16            TRAPEZOIDAL  1.00       10.00      2          2          1
39_12            TRAPEZOIDAL  1.00       10.00      2          2          1
39_13            TRAPEZOIDAL  1.00       10.00      2          2          1
39_14            TRAPEZOIDAL  1.00       10.00      2          2          1
27_9             TRAPEZOIDAL  1.00       10.00      2          2          1
22_11            TRAPEZOIDAL  1.00       10.00      2          2          1
04_10            TRAPEZOIDAL  1.00       10.00      2          2          1
96_9             TRAPEZOIDAL  1.00       10.00      2          2          1
97_9             TRAPEZOIDAL  1.00       10.00      2          2          1
22_12            TRAPEZOIDAL  1.00       10.00      2          2          1
68_11            TRAPEZOIDAL  1.00       10.00      2          2          1
21_11            TRAPEZOIDAL  1.00       10.00      2          2          1
29_11            TRAPEZOIDAL  1.00       10.00      2          2          1
49_9             TRAPEZOIDAL  1.00       10.00      2          2          1
28_13            TRAPEZOIDAL  1.00       10.00      2          2          1
28_14            TRAPEZOIDAL  1.00       10.00      2          2          1
29_12            TRAPEZOIDAL  1.00       10.00      2          2          1
29_13            TRAPEZOIDAL  1.00       10.00      2          2          1
98_14            TRAPEZOIDAL  1.00       10.00      2          2          1
05_16            TRAPEZOIDAL  1.00       10.00      2          2          1
05_17            TRAPEZOIDAL  1.00       10.00      2          2          1
00_8             TRAPEZOIDAL  1.00       10.00      2          2          1
99_13            TRAPEZOIDAL  1.00       10.00      2          2          1
30_8             TRAPEZOIDAL  1.00       10.00      2          2          1
32_9             TRAPEZOIDAL  1.00       10.00      2          2          1
30_9             TRAPEZOIDAL  1.00       10.00      2          2          1
49_10            TRAPEZOIDAL  1.00       10.00      2          2          1
83_9             TRAPEZOIDAL  1.00       10.00      2          2          1
83_10            TRAPEZOIDAL  1.00       10.00      2          2          1
81_9             TRAPEZOIDAL  1.00       10.00      2          2          1
81_10            TRAPEZOIDAL  1.00       10.00      2          2          1
30_10            TRAPEZOIDAL  1.00       10.00      2          2          1
48_9             TRAPEZOIDAL  1.00       10.00      2          2          1
00_9             TRAPEZOIDAL  1.00       10.00      2          2          1
12_11            TRAPEZOIDAL  1.00       10.00      2          2          1
79_16            TRAPEZOIDAL  1.00       10.00      2          2          1
50_19            TRAPEZOIDAL  1.00       10.00      2          2          1
12_12            TRAPEZOIDAL  1.00       10.00      2          2          1
45_12            TRAPEZOIDAL  1.00       10.00      2          2          1
81_11            TRAPEZOIDAL  1.00       10.00      2          2          1
86_10            TRAPEZOIDAL  1.00       10.00      2          2          1
82_11            TRAPEZOIDAL  1.00       10.00      2          2          1
85_14            TRAPEZOIDAL  1.00       10.00      2          2          1
50_20            TRAPEZOIDAL  1.00       10.00      2          2          1
82_12            TRAPEZOIDAL  1.00       10.00      2          2          1
47_8             TRAPEZOIDAL  1.00       10.00      2          2          1
45_13            TRAPEZOIDAL  1.00       10.00      2          2          1
35_10            TRAPEZOIDAL  1.00       10.00      2          2          1
04_11            TRAPEZOIDAL  1.00       10.00      2          2          1
12_13            TRAPEZOIDAL  1.00       10.00      2          2          1
47_9             TRAPEZOIDAL  1.00       10.00      2          2          1
49_11            TRAPEZOIDAL  1.00       10.00      2          2          1
92_7             TRAPEZOIDAL  1.00       10.00      2          2          1
22_13            TRAPEZOIDAL  1.00       10.00      2          2          1
50_21            TRAPEZOIDAL  1.00       10.00      2          2          1
38_14            TRAPEZOIDAL  1.00       10.00      2          2          1
04_12            TRAPEZOIDAL  1.00       10.00      2          2          1
34_9             TRAPEZOIDAL  1.00       10.00      2          2          1
47_10            TRAPEZOIDAL  1.00       10.00      2          2          1
56_12            TRAPEZOIDAL  1.00       10.00      2          2          1
45_14            TRAPEZOIDAL  1.00       10.00      2          2          1
42_11            TRAPEZOIDAL  1.00       10.00      2          2          1
96_10            TRAPEZOIDAL  1.00       10.00      2          2          1
50_22            TRAPEZOIDAL  1.00       10.00      2          2          1
68_12            TRAPEZOIDAL  1.00       10.00      2          2          1
18_10            TRAPEZOIDAL  1.00       10.00      2          2          1
89_14            TRAPEZOIDAL  1.00       10.00      2          2          1
89_15            TRAPEZOIDAL  1.00       10.00      2          2          1
92_8             TRAPEZOIDAL  1.00       10.00      2          2          1
56_13            TRAPEZOIDAL  1.00       10.00      2          2          1
07_16            TRAPEZOIDAL  1.00       10.00      2          2          1
06_12            TRAPEZOIDAL  1.00       10.00      2          2          1
06_13            TRAPEZOIDAL  1.00       10.00      2          2          1
71_16            TRAPEZOIDAL  1.00       10.00      2          2          1
57_8             TRAPEZOIDAL  1.00       10.00      2          2          1
55_8             TRAPEZOIDAL  1.00       10.00      2          2          1
21_12            TRAPEZOIDAL  1.00       10.00      2          2          1
57_9             TRAPEZOIDAL  1.00       10.00      2          2          1
42_12            TRAPEZOIDAL  1.00       10.00      2          2          1
42_13            TRAPEZOIDAL  1.00       10.00      2          2          1
97_10            TRAPEZOIDAL  1.00       10.00      2          2          1
57_10            TRAPEZOIDAL  1.00       10.00      2          2          1
55_9             TRAPEZOIDAL  1.00       10.00      2          2          1
57_11            TRAPEZOIDAL  1.00       10.00      2          2          1
57_12            TRAPEZOIDAL  1.00       10.00      2          2          1
08_10            TRAPEZOIDAL  1.00       10.00      2          2          1
39_15            TRAPEZOIDAL  1.00       10.00      2          2          1
44_9             TRAPEZOIDAL  1.00       10.00      2          2          1
02_17            TRAPEZOIDAL  1.00       10.00      2          2          1
45_15            TRAPEZOIDAL  1.00       10.00      2          2          1
45_16            TRAPEZOIDAL  1.00       10.00      2          2          1
39_16            TRAPEZOIDAL  1.00       10.00      2          2          1
69_9             TRAPEZOIDAL  1.00       10.00      2          2          1
50_23            TRAPEZOIDAL  1.00       10.00      2          2          1
00_10            TRAPEZOIDAL  1.00       10.00      2          2          1
03_19            TRAPEZOIDAL  1.00       10.00      2          2          1
95_14            TRAPEZOIDAL  1.00       10.00      2          2          1
33_13            TRAPEZOIDAL  1.00       10.00      2          2          1
75_9             TRAPEZOIDAL  1.00       10.00      2          2          1
46_10            TRAPEZOIDAL  1.00       10.00      2          2          1
46_11            TRAPEZOIDAL  1.00       10.00      2          2          1
03_20            TRAPEZOIDAL  1.00       10.00      2          2          1
87_10            TRAPEZOIDAL  1.00       10.00      2          2          1
50_24            TRAPEZOIDAL  1.00       10.00      2          2          1
23_13            TRAPEZOIDAL  1.00       10.00      2          2          1
53_13            TRAPEZOIDAL  1.00       10.00      2          2          1
53_14            TRAPEZOIDAL  1.00       10.00      2          2          1
64_10            TRAPEZOIDAL  1.00       10.00      2          2          1
45_17            TRAPEZOIDAL  1.00       10.00      2          2          1
17_15            TRAPEZOIDAL  1.00       10.00      2          2          1
64_11            TRAPEZOIDAL  1.00       10.00      2          2          1
64_12            TRAPEZOIDAL  1.00       10.00      2          2          1
67_13            TRAPEZOIDAL  1.00       10.00      2          2          1
05_18            TRAPEZOIDAL  1.00       10.00      2          2          1
96_11            TRAPEZOIDAL  1.00       10.00      2          2          1
79_17            TRAPEZOIDAL  1.00       10.00      2          2          1
05_19            TRAPEZOIDAL  1.00       10.00      2          2          1
30_11            TRAPEZOIDAL  1.00       10.00      2          2          1
30_12            TRAPEZOIDAL  1.00       10.00      2          2          1
22_14            TRAPEZOIDAL  1.00       10.00      2          2          1
71_17            TRAPEZOIDAL  1.00       10.00      2          2          1
25_13            TRAPEZOIDAL  1.00       10.00      2          2          1
72_13            TRAPEZOIDAL  1.00       10.00      2          2          1
79_18            TRAPEZOIDAL  1.00       10.00      2          2          1
60_10            TRAPEZOIDAL  1.00       10.00      2          2          1
70_11            TRAPEZOIDAL  1.00       10.00      2          2          1
16_8             TRAPEZOIDAL  1.00       10.00      2          2          1
68_13            TRAPEZOIDAL  1.00       10.00      2          2          1
60_11            TRAPEZOIDAL  1.00       10.00      2          2          1
72_14            TRAPEZOIDAL  1.00       10.00      2          2          1
72_15            TRAPEZOIDAL  1.00       10.00      2          2          1
72_16            TRAPEZOIDAL  1.00       10.00      2          2          1
24_10            TRAPEZOIDAL  1.00       10.00      2          2          1
86_11            TRAPEZOIDAL  1.00       10.00      2          2          1
86_12            TRAPEZOIDAL  1.00       10.00      2          2          1
79_19            TRAPEZOIDAL  1.00       10.00      2          2          1
55_10            TRAPEZOIDAL  1.00       10.00      2          2          1
70_12            TRAPEZOIDAL  1.00       10.00      2          2          1
85_15            TRAPEZOIDAL  1.00       10.00      2          2          1
76_9             TRAPEZOIDAL  1.00       10.00      2          2          1
58_14            TRAPEZOIDAL  1.00       10.00      2          2          1
22_15            TRAPEZOIDAL  1.00       10.00      2          2          1
65_9             TRAPEZOIDAL  1.00       10.00      2          2          1
24_11            TRAPEZOIDAL  1.00       10.00      2          2          1
79_20            TRAPEZOIDAL  1.00       10.00      2          2          1
79_21            TRAPEZOIDAL  1.00       10.00      2          2          1
79_22            TRAPEZOIDAL  1.00       10.00      2          2          1
61_8             TRAPEZOIDAL  1.00       10.00      2          2          1
61_9             TRAPEZOIDAL  1.00       10.00      2          2          1
12_14            TRAPEZOIDAL  1.00       10.00      2          2          1
58_15            TRAPEZOIDAL  1.00       10.00      2          2          1
03_21            TRAPEZOIDAL  1.00       10.00      2          2          1
82_13            TRAPEZOIDAL  1.00       10.00      2          2          1
87_11            TRAPEZOIDAL  1.00       10.00      2          2          1
58_16            TRAPEZOIDAL  1.00       10.00      2          2          1
19_14            TRAPEZOIDAL  1.00       10.00      2          2          1
27_10            TRAPEZOIDAL  1.00       10.00      2          2          1
52_9             TRAPEZOIDAL  1.00       10.00      2          2          1
14_12            TRAPEZOIDAL  1.00       10.00      2          2          1
92_9             TRAPEZOIDAL  1.00       10.00      2          2          1
87_12            TRAPEZOIDAL  1.00       10.00      2          2          1
28_15            TRAPEZOIDAL  1.00       10.00      2          2          1
76_10            TRAPEZOIDAL  1.00       10.00      2          2          1
76_11            TRAPEZOIDAL  1.00       10.00      2          2          1
60_12            TRAPEZOIDAL  1.00       10.00      2          2          1
56_14            TRAPEZOIDAL  1.00       10.00      2          2          1
59_11            TRAPEZOIDAL  1.00       10.00      2          2          1
59_12            TRAPEZOIDAL  1.00       10.00      2          2          1
86_13            TRAPEZOIDAL  1.00       10.00      2          2          1
64_13            TRAPEZOIDAL  1.00       10.00      2          2          1
87_13            TRAPEZOIDAL  1.00       10.00      2          2          1
66_11            TRAPEZOIDAL  1.00       10.00      2          2          1
59_13            TRAPEZOIDAL  1.00       10.00      2          2          1
28_16            TRAPEZOIDAL  1.00       10.00      2          2          1
28_17            TRAPEZOIDAL  1.00       10.00      2          2          1
56_15            TRAPEZOIDAL  1.00       10.00      2          2          1
82_14            TRAPEZOIDAL  1.00       10.00      2          2          1
87_14            TRAPEZOIDAL  1.00       10.00      2          2          1
87_15            TRAPEZOIDAL  1.00       10.00      2          2          1
89_16            TRAPEZOIDAL  1.00       10.00      2          2          1
23_14            TRAPEZOIDAL  1.00       10.00      2          2          1
76_12            TRAPEZOIDAL  1.00       10.00      2          2          1
76_13            TRAPEZOIDAL  1.00       10.00      2          2          1
60_13            TRAPEZOIDAL  1.00       10.00      2          2          1
78_10            TRAPEZOIDAL  1.00       10.00      2          2          1
82_15            TRAPEZOIDAL  1.00       10.00      2          2          1
10_15            TRAPEZOIDAL  1.00       10.00      2          2          1
60_14            TRAPEZOIDAL  1.00       10.00      2          2          1
92_10            TRAPEZOIDAL  1.00       10.00      2          2          1
56_16            TRAPEZOIDAL  1.00       10.00      2          2          1
32_10            TRAPEZOIDAL  1.00       10.00      2          2          1
32_11            TRAPEZOIDAL  1.00       10.00      2          2          1
77_9             TRAPEZOIDAL  1.00       10.00      2          2          1
15_16            TRAPEZOIDAL  1.00       10.00      2          2          1
87_16            TRAPEZOIDAL  1.00       10.00      2          2          1
59_14            TRAPEZOIDAL  1.00       10.00      2          2          1
32_12            TRAPEZOIDAL  1.00       10.00      2          2          1
33_14            TRAPEZOIDAL  1.00       10.00      2          2          1
78_11            TRAPEZOIDAL  1.00       10.00      2          2          1
65_10            TRAPEZOIDAL  1.00       10.00      2          2          1
59_15            TRAPEZOIDAL  1.00       10.00      2          2          1
02_18            TRAPEZOIDAL  1.00       10.00      2          2          1
82_16            TRAPEZOIDAL  1.00       10.00      2          2          1
89_17            TRAPEZOIDAL  1.00       10.00      2          2          1
74_8             TRAPEZOIDAL  1.00       10.00      2          2          1
77_10            TRAPEZOIDAL  1.00       10.00      2          2          1
71_18            TRAPEZOIDAL  1.00       10.00      2          2          1
14_13            TRAPEZOIDAL  1.00       10.00      2          2          1
81_12            TRAPEZOIDAL  1.00       10.00      2          2          1
77_11            TRAPEZOIDAL  1.00       10.00      2          2          1
65_11            TRAPEZOIDAL  1.00       10.00      2          2          1
27_11            TRAPEZOIDAL  1.00       10.00      2          2          1
27_12            TRAPEZOIDAL  1.00       10.00      2          2          1
62_15            TRAPEZOIDAL  1.00       10.00      2          2          1
77_12            TRAPEZOIDAL  1.00       10.00      2          2          1
10_16            TRAPEZOIDAL  1.00       10.00      2          2          1
55_11            TRAPEZOIDAL  1.00       10.00      2          2          1
65_12            TRAPEZOIDAL  1.00       10.00      2          2          1
81_13            TRAPEZOIDAL  1.00       10.00      2          2          1
13_11            TRAPEZOIDAL  1.00       10.00      2          2          1
15_17            TRAPEZOIDAL  1.00       10.00      2          2          1
77_13            TRAPEZOIDAL  1.00       10.00      2          2          1
82_17            TRAPEZOIDAL  1.00       10.00      2          2          1
22_16            TRAPEZOIDAL  1.00       10.00      2          2          1
08_11            TRAPEZOIDAL  1.00       10.00      2          2          1
07_17            TRAPEZOIDAL  1.00       10.00      2          2          1
82_18            TRAPEZOIDAL  1.00       10.00      2          2          1
36_10            TRAPEZOIDAL  1.00       10.00      2          2          1
64_14            TRAPEZOIDAL  1.00       10.00      2          2          1
08_12            TRAPEZOIDAL  1.00       10.00      2          2          1
80_9             TRAPEZOIDAL  1.00       10.00      2          2          1
68_14            TRAPEZOIDAL  1.00       10.00      2          2          1
55_12            TRAPEZOIDAL  1.00       10.00      2          2          1
55_13            TRAPEZOIDAL  1.00       10.00      2          2          1
68_15            TRAPEZOIDAL  1.00       10.00      2          2          1
35_11            TRAPEZOIDAL  1.00       10.00      2          2          1
35_12            TRAPEZOIDAL  1.00       10.00      2          2          1
47_11            TRAPEZOIDAL  1.00       10.00      2          2          1
68_16            TRAPEZOIDAL  1.00       10.00      2          2          1
36_11            TRAPEZOIDAL  1.00       10.00      2          2          1
08_13            TRAPEZOIDAL  1.00       10.00      2          2          1
32_13            TRAPEZOIDAL  1.00       10.00      2          2          1
18_11            TRAPEZOIDAL  1.00       10.00      2          2          1
64_15            TRAPEZOIDAL  1.00       10.00      2          2          1
36_12            TRAPEZOIDAL  1.00       10.00      2          2          1
64_16            TRAPEZOIDAL  1.00       10.00      2          2          1
75_10            TRAPEZOIDAL  1.00       10.00      2          2          1
75_11            TRAPEZOIDAL  1.00       10.00      2          2          1
36_13            TRAPEZOIDAL  1.00       10.00      2          2          1
37_8             TRAPEZOIDAL  1.00       10.00      2          2          1
29_14            TRAPEZOIDAL  1.00       10.00      2          2          1
37_9             TRAPEZOIDAL  1.00       10.00      2          2          1
67_14            TRAPEZOIDAL  1.00       10.00      2          2          1
74_9             TRAPEZOIDAL  1.00       10.00      2          2          1
62_16            TRAPEZOIDAL  1.00       10.00      2          2          1
64_17            TRAPEZOIDAL  1.00       10.00      2          2          1
64_18            TRAPEZOIDAL  1.00       10.00      2          2          1
64_19            TRAPEZOIDAL  1.00       10.00      2          2          1
68_17            TRAPEZOIDAL  1.00       10.00      2          2          1
18_12            TRAPEZOIDAL  1.00       10.00      2          2          1
19_15            TRAPEZOIDAL  1.00       10.00      2          2          1
67_15            TRAPEZOIDAL  1.00       10.00      2          2          1
41_16            TRAPEZOIDAL  1.00       10.00      2          2          1
63_8             TRAPEZOIDAL  1.00       10.00      2          2          1
67_16            TRAPEZOIDAL  1.00       10.00      2          2          1
15_18            TRAPEZOIDAL  1.00       10.00      2          2          1
62_17            TRAPEZOIDAL  1.00       10.00      2          2          1
61_10            TRAPEZOIDAL  1.00       10.00      2          2          1
45_18            TRAPEZOIDAL  1.00       10.00      2          2          1
43_12            TRAPEZOIDAL  1.00       10.00      2          2          1
52_10            TRAPEZOIDAL  1.00       10.00      2          2          1
67_17            TRAPEZOIDAL  1.00       10.00      2          2          1
18_13            TRAPEZOIDAL  1.00       10.00      2          2          1
67_18            TRAPEZOIDAL  1.00       10.00      2          2          1
28_18            TRAPEZOIDAL  1.00       10.00      2          2          1
16_9             TRAPEZOIDAL  1.00       10.00      2          2          1
32_14            TRAPEZOIDAL  1.00       10.00      2          2          1
67_19            TRAPEZOIDAL  1.00       10.00      2          2          1
24_12            TRAPEZOIDAL  1.00       10.00      2          2          1
24_13            TRAPEZOIDAL  1.00       10.00      2          2          1
34_10            TRAPEZOIDAL  1.00       10.00      2          2          1
04_13            TRAPEZOIDAL  1.00       10.00      2          2          1
41_17            TRAPEZOIDAL  1.00       10.00      2          2          1
51_13            TRAPEZOIDAL  1.00       10.00      2          2          1
05_20            TRAPEZOIDAL  1.00       10.00      2          2          1
18_14            TRAPEZOIDAL  1.00       10.00      2          2          1
82_19            TRAPEZOIDAL  1.00       10.00      2          2          1
67_20            TRAPEZOIDAL  1.00       10.00      2          2          1
51_14            TRAPEZOIDAL  1.00       10.00      2          2          1
14_14            TRAPEZOIDAL  1.00       10.00      2          2          1
53_15            TRAPEZOIDAL  1.00       10.00      2          2          1
24_14            TRAPEZOIDAL  1.00       10.00      2          2          1
51_15            TRAPEZOIDAL  1.00       10.00      2          2          1
67_21            TRAPEZOIDAL  1.00       10.00      2          2          1
34_11            TRAPEZOIDAL  1.00       10.00      2          2          1
48_10            TRAPEZOIDAL  1.00       10.00      2          2          1
12_15            TRAPEZOIDAL  1.00       10.00      2          2          1
34_12            TRAPEZOIDAL  1.00       10.00      2          2          1
27_13            TRAPEZOIDAL  1.00       10.00      2          2          1
05_21            TRAPEZOIDAL  1.00       10.00      2          2          1
27_14            TRAPEZOIDAL  1.00       10.00      2          2          1
22_17            TRAPEZOIDAL  1.00       10.00      2          2          1
22_18            TRAPEZOIDAL  1.00       10.00      2          2          1
50_25            TRAPEZOIDAL  1.00       10.00      2          2          1
12_16            TRAPEZOIDAL  1.00       10.00      2          2          1
64_20            TRAPEZOIDAL  1.00       10.00      2          2          1
68_18            TRAPEZOIDAL  1.00       10.00      2          2          1
06_14            TRAPEZOIDAL  1.00       10.00      2          2          1
05_22            TRAPEZOIDAL  1.00       10.00      2          2          1
48_11            TRAPEZOIDAL  1.00       10.00      2          2          1
42_14            TRAPEZOIDAL  1.00       10.00      2          2          1
48_12            TRAPEZOIDAL  1.00       10.00      2          2          1
82_20            TRAPEZOIDAL  1.00       10.00      2          2          1
09_11            TRAPEZOIDAL  1.00       10.00      2          2          1
82_21            TRAPEZOIDAL  1.00       10.00      2          2          1
81_14            TRAPEZOIDAL  1.00       10.00      2          2          1
68_19            TRAPEZOIDAL  1.00       10.00      2          2          1
06_15            TRAPEZOIDAL  1.00       10.00      2          2          1
49_12            TRAPEZOIDAL  1.00       10.00      2          2          1
49_13            TRAPEZOIDAL  1.00       10.00      2          2          1
42_15            TRAPEZOIDAL  1.00       10.00      2          2          1
49_14            TRAPEZOIDAL  1.00       10.00      2          2          1
49_15            TRAPEZOIDAL  1.00       10.00      2          2          1
49_16            TRAPEZOIDAL  1.00       10.00      2          2          1
49_17            TRAPEZOIDAL  1.00       10.00      2          2          1
49_18            TRAPEZOIDAL  1.00       10.00      2          2          1
49_19            TRAPEZOIDAL  1.00       10.00      2          2          1
45_19            TRAPEZOIDAL  1.00       10.00      2          2          1
21_13            TRAPEZOIDAL  1.00       10.00      2          2          1
87_17            TRAPEZOIDAL  1.00       10.00      2          2          1
87_18            TRAPEZOIDAL  1.00       10.00      2          2          1
31_12            TRAPEZOIDAL  1.00       10.00      2          2          1
87_19            TRAPEZOIDAL  1.00       10.00      2          2          1
29_15            TRAPEZOIDAL  1.00       10.00      2          2          1
6807MOLP0590     TRAPEZOIDAL  1.00       10.00      2          2          1
54_9             TRAPEZOIDAL  1.00       10.00      2          2          1
62_18            TRAPEZOIDAL  1.00       10.00      2          2          1
27_15            TRAPEZOIDAL  1.00       10.00      2          2          1
55_14            TRAPEZOIDAL  1.00       10.00      2          2          1
60_15            TRAPEZOIDAL  1.00       10.00      2          2          1
58_17            TRAPEZOIDAL  1.00       10.00      2          2          1
18_15            TRAPEZOIDAL  1.00       10.00      2          2          1
14_15            TRAPEZOIDAL  1.00       10.00      2          2          1
58_18            TRAPEZOIDAL  1.00       10.00      2          2          1
59_16            TRAPEZOIDAL  1.00       10.00      2          2          1
54_10            TRAPEZOIDAL  1.00       10.00      2          2          1
57_13            TRAPEZOIDAL  1.00       10.00      2          2          1
74_10            TRAPEZOIDAL  1.00       10.00      2          2          1
745              TRAPEZOIDAL  1.00       10.00      2          2          1
44_10            TRAPEZOIDAL  1.00       10.00      2          2          1
42_16            TRAPEZOIDAL  1.00       10.00      2          2          1
72_17            TRAPEZOIDAL  1.00       10.00      2          2          1
29_16            TRAPEZOIDAL  1.00       10.00      2          2          1
718              TRAPEZOIDAL  1.00       10.00      2          2          1
21_14            TRAPEZOIDAL  1.00       10.00      2          2          1
87_20            TRAPEZOIDAL  1.00       10.00      2          2          1
89_18            TRAPEZOIDAL  1.00       10.00      2          2          1
83_11            TRAPEZOIDAL  1.00       10.00      2          2          1
76_14            TRAPEZOIDAL  1.00       10.00      2          2          1
35_13            TRAPEZOIDAL  1.00       10.00      2          2          1
18_16            TRAPEZOIDAL  1.00       10.00      2          2          1
05_23            TRAPEZOIDAL  1.00       10.00      2          2          1
23_15            TRAPEZOIDAL  1.00       10.00      2          2          1
19_16            TRAPEZOIDAL  1.00       10.00      2          2          1
93_11            TRAPEZOIDAL  1.00       10.00      2          2          1
84_10            TRAPEZOIDAL  1.00       10.00      2          2          1
94_10            TRAPEZOIDAL  1.00       10.00      2          2          1
89_19            TRAPEZOIDAL  1.00       10.00      2          2          1
88_12            TRAPEZOIDAL  1.00       10.00      2          2          1
19_17            TRAPEZOIDAL  1.00       10.00      2          2          1
05_24            TRAPEZOIDAL  1.00       10.00      2          2          1
05_25            TRAPEZOIDAL  1.00       10.00      2          2          1
1183MOLJ1020     TRAPEZOIDAL  1.00       10.00      2          2          1
1082MOLJ1180A    TRAPEZOIDAL  1.00       10.00      2          2          1
1159MOLJ1400     TRAPEZOIDAL  1.00       10.00      2          2          1
1182MOLJ1040     TRAPEZOIDAL  1.00       10.00      2          2          1
1079MOLJ1060     TRAPEZOIDAL  1.00       10.00      2          2          1
1183MOLJ1020B    TRAPEZOIDAL  1.00       10.00      2          2          1
1181MOLJ1360     TRAPEZOIDAL  1.00       10.00      2          2          1
1181MOLJ1360A    TRAPEZOIDAL  1.00       10.00      2          2          1
1081MOLJ1380     TRAPEZOIDAL  1.00       10.00      2          2          1
1080MOLJ1120     TRAPEZOIDAL  1.00       10.00      2          2          1
1181MOLJ1360C    TRAPEZOIDAL  1.00       10.00      2          2          1
167MOLJ1140      TRAPEZOIDAL  1.00       10.00      2          2          1
1167MOLJ1140A    TRAPEZOIDAL  1.00       10.00      2          2          1
1167MOLJ1140B    TRAPEZOIDAL  1.00       10.00      2          2          1
1101MOLJ1260     TRAPEZOIDAL  1.00       10.00      2          2          1
1218MOLJ1300     TRAPEZOIDAL  1.00       10.00      2          2          1
1112MOLJ2080B    TRAPEZOIDAL  1.00       10.00      2          2          1
1218MOLJ1300A    TRAPEZOIDAL  1.00       10.00      2          2          1
1168MOLJ1340     TRAPEZOIDAL  1.00       10.00      2          2          1
1083MOLJ1640     TRAPEZOIDAL  1.00       10.00      2          2          1
1128MOLJ0250     TRAPEZOIDAL  1.00       10.00      2          2          1
1125MOLJ0490     TRAPEZOIDAL  1.00       10.00      2          2          1
13_8             RECT_OPEN    1.00       2.00       0          0
19_8             RECT_OPEN    1.00       3.00       0          0
20_9             RECT_OPEN    1.00       3.17       0          0
22_6             RECT_OPEN    1.00       4.08       0          0
29_8             RECT_OPEN    1.00       10.17      0          0
36_6             RECT_OPEN    1.00       19.17      0          0
59_8             RECT_OPEN    1.00       3.00       0          0
79_6             RECT_OPEN    1.00       2.00       0          0
95_7             RECT_OPEN    1.00       1.00       0          0
21_7             RECT_OPEN    1.00       1.08       0          0
27_7             RECT_OPEN    1.00       0.68       0          0
30_6             RECT_OPEN    1.00       24.50      0          0
38_8             RECT_OPEN    1.00       3.21       0          0
42_9             RECT_OPEN    1.00       4.00       0          0
50_9             RECT_OPEN    1.00       8.00       0          0
52_6             RECT_OPEN    1.00       15.00      0          0
62_7             RECT_OPEN    1.00       0.25       0          0
71_8             RECT_OPEN    1.00       3.00       0          0
83_7             RECT_OPEN    1.00       0.25       0          0
90_9             RECT_OPEN    1.00       2.50       0          0
91_8             RECT_OPEN    1.00       1.50       0          0
91_9             RECT_OPEN    1.00       1.00       0          0
72_7             RECT_OPEN    1.00       0.60       0          0
17_8             RECT_OPEN    1.00       3.00       0          0
28_8             RECT_OPEN    1.00       1.50       0          0
30_7             RECT_OPEN    1.00       1.33       0          0
39_7             RECT_OPEN    1.00       0.40       0          0
40_8             RECT_OPEN    1.00       2.00       0          0
60_8             RECT_OPEN    1.00       3.60       0          0
72_8             RECT_OPEN    1.00       2.70       0          0
07_8             RECT_OPEN    1.00       13.00      0          0
14_8             RECT_OPEN    1.00       2.25       0          0
22_7             RECT_OPEN    1.00       3.00       0          0
73_10            RECT_OPEN    1.00       10.17      0          0
01_6             RECT_OPEN    1.00       0.70       0          0
36_7             RECT_OPEN    1.00       1.25       0          0
12_10            RECT_OPEN    1.00       5.00       0          0
47_7             RECT_OPEN    1.00       2.00       0          0
37_7             RECT_OPEN    1.00       1.00       0          0
81_7             RECT_OPEN    1.00       1.40       0          0
79_7             RECT_OPEN    1.00       3.00       0          0
96_6             RECT_OPEN    1.00       3.00       0          0
99_8             RECT_OPEN    1.00       0.63       0          0
23_7             RECT_OPEN    1.00       3.00       0          0
62_8             RECT_OPEN    1.00       2.66       0          0
22_8             RECT_OPEN    1.00       4.08       0          0
71_9             RECT_OPEN    1.00       0.42       0          0
41_8             RECT_OPEN    1.00       1.00       0          0
43_7             RECT_OPEN    1.00       3.00       0          0
68_9             RECT_OPEN    1.00       0.33       0          0
85_8             RECT_OPEN    1.00       25.00      0          0
15_8             RECT_OPEN    1.00       3.00       0          0
1251MRLJ1882     RECT_OPEN    1.00       1.50       0          0
1252MRLJ2380     RECT_OPEN    1.00       2.25       0          0
1253MRLJ2640     RECT_OPEN    1.00       3.50       0          0
1254MRLL0690     RECT_OPEN    1.00       2.58       0          0
255MRLH2380      RECT_OPEN    1.00       15.60      0          0
1257MRLJ1160     RECT_OPEN    1.00       14.00      0          0
1256MRLJ1420     RECT_OPEN    1.00       6.00       0          0
1265MRLJ1907     RECT_OPEN    1.00       4.00       0          0
1259MRLL0050     RECT_OPEN    1.00       3.00       0          0
1260MRLL0290     RECT_OPEN    1.00       5.00       0          0
1261MRLH1767     RECT_OPEN    1.00       6.00       0          0
1262MRLH0935     RECT_OPEN    1.00       3.62       0          0
263MRLH2240      RECT_OPEN    1.00       3.50       0          0
1257MRLJ1160A    RECT_OPEN    1.00       1.67       0          0
1265MRLJ1907A    RECT_OPEN    1.00       4.00       0          0
1166MRLL0790     RECT_OPEN    1.00       14.00      0          0

[LOSSES]
;;Link           Inlet      Outlet     Average    Flap Gate
;;-------------- ---------- ---------- ---------- ----------
75               0          0          0          NO
76               0          0          0          NO
77               0          0          0          NO
18               0          0          0          NO
04               0          0          0          NO
67               0          0          0          NO
65               0          0          0          NO
66               0          0          0          NO
63               0          0          0          NO
64               0          0          0          NO
61               0          0          0          NO
62               0          0          0          NO
14               0          0          0          NO
94               0          0          0          NO
60               0          0          0          NO
67_2             0          0          0          NO
11               0          0          0          NO
10               0          0          0          NO
09               0          0          0          NO
60_2             0          0          0          NO
45               0          0          0          NO
46               0          0          0          NO
82               0          0          0          NO
49               0          0          0          NO
50               0          0          0          NO
51               0          0          0          NO
52               0          0          0          NO
54               0          0          0          NO
55               0          0          0          NO
56               0          0          0          NO
53               0          0          0          NO
58               0          0          0          NO
57               0          0          0          NO
14_2             0          0          0          NO
72               0          0          0          NO
73               0          0          0          NO
69               0          0          0          NO
70               0          0          0          NO
75_2             0          0          0          NO
74               0          0          0          NO
78               0          0          0          NO
83               0          0          0          NO
84               0          0          0          NO
85               0          0          0          NO
86               0          0          0          NO
87               0          0          0          NO
88               0          0          0          NO
89               0          0          0          NO
90               0          0          0          NO
91               0          0          0          NO
93               0          0          0          NO
96               0          0          0          NO
98               0          0          0          NO
00               0          0          0          NO
02               0          0          0          NO
04_2             0          0          0          NO
03               0          0          0          NO
05               0          0          0          NO
07               0          0          0          NO
08               0          0          0          NO
06               0          0          0          NO
13               0          0          0          NO
14_3             0          0          0          NO
18_2             0          0          0          NO
17               0          0          0          NO
22               0          0          0          NO
19               0          0          0          NO
23               0          0          0          NO
20               0          0          0          NO
91_2             0          0          0          NO
12               0          0          0          NO
10_2             0          0          0          NO
09_2             0          0          0          NO
26               0          0          0          NO
28               0          0          0          NO
29               0          0          0          NO
31               0          0          0          NO
32               0          0          0          NO
39               0          0          0          NO
37               0          0          0          NO
41               0          0          0          NO
43               0          0          0          NO
45_2             0          0          0          NO
56_2             0          0          0          NO
31_2             0          0          0          NO
17_2             0          0          0          NO
16               0          0          0          NO
51_2             0          0          0          NO
53_2             0          0          0          NO
55_2             0          0          0          NO
54_2             0          0          0          NO
56_3             0          0          0          NO
63_2             0          0          0          NO
14_4             0          0          0          NO
58_2             0          0          0          NO
59               0          0          0          NO
65_2             0          0          0          NO
64_2             0          0          0          NO
66_2             0          0          0          NO
67_3             0          0          0          NO
68               0          0          0          NO
70_2             0          0          0          NO
73_2             0          0          0          NO
75_3             0          0          0          NO
78_2             0          0          0          NO
48               0          0          0          NO
80               0          0          0          NO
79               0          0          0          NO
84_2             0          0          0          NO
86_2             0          0          0          NO
82_2             0          0          0          NO
88_2             0          0          0          NO
69_2             0          0          0          NO
05_2             0          0          0          NO
93_2             0          0          0          NO
50_2             0          0          0          NO
53_3             0          0          0          NO
96_2             0          0          0          NO
44               0          0          0          NO
97               0          0          0          NO
98_2             0          0          0          NO
01               0          0          0          NO
00_2             0          0          0          NO
04_3             0          0          0          NO
06_2             0          0          0          NO
05_3             0          0          0          NO
09_3             0          0          0          NO
95               0          0          0          NO
38               0          0          0          NO
11_2             0          0          0          NO
82_3             0          0          0          NO
12_2             0          0          0          NO
15               0          0          0          NO
20_2             0          0          0          NO
71               0          0          0          NO
09_4             0          0          0          NO
71_2             0          0          0          NO
27               0          0          0          NO
29_2             0          0          0          NO
26_2             0          0          0          NO
51_3             0          0          0          NO
32_2             0          0          0          NO
34               0          0          0          NO
36               0          0          0          NO
38_2             0          0          0          NO
49_2             0          0          0          NO
50_3             0          0          0          NO
51_4             0          0          0          NO
96_3             0          0          0          NO
31_3             0          0          0          NO
53_4             0          0          0          NO
55_3             0          0          0          NO
23_2             0          0          0          NO
57_2             0          0          0          NO
59_2             0          0          0          NO
58_3             0          0          0          NO
54_3             0          0          0          NO
52_2             0          0          0          NO
61_2             0          0          0          NO
60_3             0          0          0          NO
63_3             0          0          0          NO
65_3             0          0          0          NO
64_3             0          0          0          NO
48_2             0          0          0          NO
66_3             0          0          0          NO
68_2             0          0          0          NO
73_3             0          0          0          NO
74_2             0          0          0          NO
77_2             0          0          0          NO
78_3             0          0          0          NO
79_2             0          0          0          NO
71_3             0          0          0          NO
83_2             0          0          0          NO
84_3             0          0          0          NO
85_2             0          0          0          NO
86_3             0          0          0          NO
87_2             0          0          0          NO
89_2             0          0          0          NO
90_2             0          0          0          NO
93_3             0          0          0          NO
91_3             0          0          0          NO
97_2             0          0          0          NO
98_3             0          0          0          NO
99               0          0          0          NO
00_3             0          0          0          NO
01_2             0          0          0          NO
36_2             0          0          0          NO
03_2             0          0          0          NO
02_2             0          0          0          NO
04_4             0          0          0          NO
05_4             0          0          0          NO
06_3             0          0          0          NO
46_2             0          0          0          NO
21               0          0          0          NO
16_2             0          0          0          NO
10_3             0          0          0          NO
13_2             0          0          0          NO
12_3             0          0          0          NO
17_3             0          0          0          NO
20_3             0          0          0          NO
20_4             0          0          0          NO
23_3             0          0          0          NO
24               0          0          0          NO
27_2             0          0          0          NO
26_3             0          0          0          NO
29_3             0          0          0          NO
32_3             0          0          0          NO
33               0          0          0          NO
37_2             0          0          0          NO
35               0          0          0          NO
36_3             0          0          0          NO
39_2             0          0          0          NO
41_2             0          0          0          NO
42               0          0          0          NO
61_3             0          0          0          NO
45_3             0          0          0          NO
47               0          0          0          NO
49_3             0          0          0          NO
50_4             0          0          0          NO
51_5             0          0          0          NO
53_5             0          0          0          NO
58_4             0          0          0          NO
59_3             0          0          0          NO
49_4             0          0          0          NO
15_2             0          0          0          NO
46_3             0          0          0          NO
63_4             0          0          0          NO
64_4             0          0          0          NO
68_3             0          0          0          NO
19_2             0          0          0          NO
63_5             0          0          0          NO
64_5             0          0          0          NO
77_3             0          0          0          NO
65_4             0          0          0          NO
75_4             0          0          0          NO
76_2             0          0          0          NO
55_4             0          0          0          NO
48_3             0          0          0          NO
04_5             0          0          0          NO
29_4             0          0          0          NO
80_2             0          0          0          NO
78_4             0          0          0          NO
82_4             0          0          0          NO
86_4             0          0          0          NO
91_4             0          0          0          NO
87_3             0          0          0          NO
88_3             0          0          0          NO
93_4             0          0          0          NO
81               0          0          0          NO
90_3             0          0          0          NO
85_3             0          0          0          NO
41_3             0          0          0          NO
89_3             0          0          0          NO
35_2             0          0          0          NO
27_3             0          0          0          NO
25               0          0          0          NO
27_4             0          0          0          NO
28_2             0          0          0          NO
29_5             0          0          0          NO
30               0          0          0          NO
31_4             0          0          0          NO
32_4             0          0          0          NO
33_2             0          0          0          NO
34_2             0          0          0          NO
35_3             0          0          0          NO
37_3             0          0          0          NO
36_4             0          0          0          NO
39_3             0          0          0          NO
42_2             0          0          0          NO
41_4             0          0          0          NO
42_3             0          0          0          NO
99_2             0          0          0          NO
45_4             0          0          0          NO
46_4             0          0          0          NO
29_6             0          0          0          NO
76_3             0          0          0          NO
16_3             0          0          0          NO
87_4             0          0          0          NO
1184MRLJ1000     0          0          0          NO
1101MRLJ1260     0          0          0          NO
1186MRLJ2060     0          0          0          NO
1124MRLJ2140     0          0          0          NO
1195MRLJ2740     0          0          0          NO
1201MRLL0270     0          0          0          NO
1200MRLL0250     0          0          0          NO
1198MRLL0630     0          0          0          NO
1196MRLJ2660     0          0          0          NO
1100MRLJ2700     0          0          0          NO
1203MRLL0890     0          0          0          NO
1106MRLJ2440A    0          0          0          NO
1205MRLJ2560     0          0          0          NO
1158MRLL0030     0          0          0          NO
1207MRLL0010     0          0          0          NO
1115MRLJ1800A    0          0          0          NO
927              0          0          0          NO
1197MRLJ2860     0          0          0          NO
1061MRLJ2320     0          0          0          NO
1132MRLJ2500A    0          0          0          NO
1218MRLJ1300     0          0          0          NO
948              0          0          0          NO
1167MRLJ1140     0          0          0          NO
1123MRLJ1700     0          0          0          NO
1118MRLJ1740     0          0          0          NO
1233MRLJ1780     0          0          0          NO
1179MRLJ1880     0          0          0          NO
31_5             0          0          0          NO
57_3             0          0          0          NO
96_4             0          0          0          NO
98_4             0          0          0          NO
98_5             0          0          0          NO
97_3             0          0          0          NO
99_3             0          0          0          NO
04_6             0          0          0          NO
09_5             0          0          0          NO
00_4             0          0          0          NO
03_3             0          0          0          NO
01_3             0          0          0          NO
04_7             0          0          0          NO
00_5             0          0          0          NO
05_5             0          0          0          NO
06_4             0          0          0          NO
09_6             0          0          0          NO
10_4             0          0          0          NO
25_2             0          0          0          NO
12_4             0          0          0          NO
58_5             0          0          0          NO
38_3             0          0          0          NO
18_3             0          0          0          NO
61_4             0          0          0          NO
19_3             0          0          0          NO
25_3             0          0          0          NO
20_5             0          0          0          NO
22_2             0          0          0          NO
99_4             0          0          0          NO
21_2             0          0          0          NO
23_4             0          0          0          NO
24_2             0          0          0          NO
49_5             0          0          0          NO
28_3             0          0          0          NO
79_3             0          0          0          NO
30_2             0          0          0          NO
34_3             0          0          0          NO
27_5             0          0          0          NO
42_4             0          0          0          NO
45_5             0          0          0          NO
06_5             0          0          0          NO
47_2             0          0          0          NO
08_2             0          0          0          NO
40               0          0          0          NO
43_2             0          0          0          NO
41_5             0          0          0          NO
39_4             0          0          0          NO
34_4             0          0          0          NO
48_4             0          0          0          NO
94_2             0          0          0          NO
49_6             0          0          0          NO
50_5             0          0          0          NO
54_4             0          0          0          NO
51_6             0          0          0          NO
53_6             0          0          0          NO
56_4             0          0          0          NO
48_5             0          0          0          NO
94_3             0          0          0          NO
58_6             0          0          0          NO
59_4             0          0          0          NO
44_2             0          0          0          NO
67_4             0          0          0          NO
63_6             0          0          0          NO
70_3             0          0          0          NO
62_2             0          0          0          NO
65_5             0          0          0          NO
66_4             0          0          0          NO
68_4             0          0          0          NO
42_5             0          0          0          NO
70_4             0          0          0          NO
71_4             0          0          0          NO
74_3             0          0          0          NO
75_5             0          0          0          NO
76_4             0          0          0          NO
77_4             0          0          0          NO
72_2             0          0          0          NO
80_3             0          0          0          NO
78_5             0          0          0          NO
84_4             0          0          0          NO
83_3             0          0          0          NO
86_5             0          0          0          NO
89_4             0          0          0          NO
87_5             0          0          0          NO
88_4             0          0          0          NO
92               0          0          0          NO
94_4             0          0          0          NO
91_5             0          0          0          NO
93_5             0          0          0          NO
95_2             0          0          0          NO
97_4             0          0          0          NO
98_6             0          0          0          NO
00_6             0          0          0          NO
28_4             0          0          0          NO
01_4             0          0          0          NO
03_4             0          0          0          NO
69_3             0          0          0          NO
92_2             0          0          0          NO
06_6             0          0          0          NO
07_2             0          0          0          NO
08_3             0          0          0          NO
09_7             0          0          0          NO
10_5             0          0          0          NO
11_3             0          0          0          NO
71_5             0          0          0          NO
10_6             0          0          0          NO
12_5             0          0          0          NO
13_3             0          0          0          NO
15_3             0          0          0          NO
13_4             0          0          0          NO
05_6             0          0          0          NO
66_5             0          0          0          NO
07_3             0          0          0          NO
22_3             0          0          0          NO
81_2             0          0          0          NO
25_4             0          0          0          NO
68_5             0          0          0          NO
08_4             0          0          0          NO
07_4             0          0          0          NO
67_5             0          0          0          NO
46_5             0          0          0          NO
92_3             0          0          0          NO
32_5             0          0          0          NO
76_5             0          0          0          NO
33_3             0          0          0          NO
52_3             0          0          0          NO
43_3             0          0          0          NO
45_6             0          0          0          NO
47_3             0          0          0          NO
44_3             0          0          0          NO
33_4             0          0          0          NO
41_6             0          0          0          NO
25_5             0          0          0          NO
05_7             0          0          0          NO
07_5             0          0          0          NO
02_3             0          0          0          NO
24_3             0          0          0          NO
33_5             0          0          0          NO
62_3             0          0          0          NO
76_6             0          0          0          NO
84_5             0          0          0          NO
74_4             0          0          0          NO
77_5             0          0          0          NO
80_4             0          0          0          NO
75_6             0          0          0          NO
26_4             0          0          0          NO
35_4             0          0          0          NO
49_7             0          0          0          NO
30_3             0          0          0          NO
18_4             0          0          0          NO
32_6             0          0          0          NO
31_6             0          0          0          NO
35_5             0          0          0          NO
44_4             0          0          0          NO
36_5             0          0          0          NO
20_6             0          0          0          NO
37_4             0          0          0          NO
44_5             0          0          0          NO
38_4             0          0          0          NO
17_4             0          0          0          NO
39_5             0          0          0          NO
21_3             0          0          0          NO
40_2             0          0          0          NO
90_4             0          0          0          NO
92_4             0          0          0          NO
93_6             0          0          0          NO
94_5             0          0          0          NO
95_3             0          0          0          NO
73_4             0          0          0          NO
97_5             0          0          0          NO
98_7             0          0          0          NO
02_4             0          0          0          NO
03_5             0          0          0          NO
08_5             0          0          0          NO
02_5             0          0          0          NO
10_7             0          0          0          NO
11_4             0          0          0          NO
12_6             0          0          0          NO
13_5             0          0          0          NO
14_5             0          0          0          NO
15_4             0          0          0          NO
16_4             0          0          0          NO
17_5             0          0          0          NO
18_5             0          0          0          NO
20_7             0          0          0          NO
19_4             0          0          0          NO
21_4             0          0          0          NO
22_4             0          0          0          NO
23_5             0          0          0          NO
24_4             0          0          0          NO
25_6             0          0          0          NO
26_5             0          0          0          NO
10_8             0          0          0          NO
52_4             0          0          0          NO
89_5             0          0          0          NO
54_5             0          0          0          NO
55_5             0          0          0          NO
56_5             0          0          0          NO
57_4             0          0          0          NO
58_7             0          0          0          NO
59_5             0          0          0          NO
90_5             0          0          0          NO
81_3             0          0          0          NO
60_4             0          0          0          NO
42_6             0          0          0          NO
45_7             0          0          0          NO
46_6             0          0          0          NO
47_4             0          0          0          NO
49_8             0          0          0          NO
48_6             0          0          0          NO
50_6             0          0          0          NO
51_7             0          0          0          NO
53_7             0          0          0          NO
68_6             0          0          0          NO
55_6             0          0          0          NO
57_5             0          0          0          NO
58_8             0          0          0          NO
59_6             0          0          0          NO
60_5             0          0          0          NO
61_5             0          0          0          NO
64_6             0          0          0          NO
65_6             0          0          0          NO
66_6             0          0          0          NO
67_6             0          0          0          NO
69_4             0          0          0          NO
33_6             0          0          0          NO
70_5             0          0          0          NO
08_6             0          0          0          NO
73_5             0          0          0          NO
73_6             0          0          0          NO
74_5             0          0          0          NO
75_7             0          0          0          NO
76_7             0          0          0          NO
77_6             0          0          0          NO
77_7             0          0          0          NO
79_4             0          0          0          NO
80_5             0          0          0          NO
82_5             0          0          0          NO
83_4             0          0          0          NO
84_6             0          0          0          NO
72_3             0          0          0          NO
86_6             0          0          0          NO
87_6             0          0          0          NO
88_5             0          0          0          NO
24_5             0          0          0          NO
89_6             0          0          0          NO
71_6             0          0          0          NO
70_6             0          0          0          NO
22_5             0          0          0          NO
72_4             0          0          0          NO
73_7             0          0          0          NO
73_8             0          0          0          NO
90_6             0          0          0          NO
47_5             0          0          0          NO
68_7             0          0          0          NO
61_6             0          0          0          NO
63_7             0          0          0          NO
64_7             0          0          0          NO
56_6             0          0          0          NO
65_7             0          0          0          NO
12_7             0          0          0          NO
12_8             0          0          0          NO
16_5             0          0          0          NO
46_7             0          0          0          NO
68_8             0          0          0          NO
69_5             0          0          0          NO
014MRLO0290      0          0          0          NO
35_6             0          0          0          NO
07_6             0          0          0          NO
83_5             0          0          0          NO
90_7             0          0          0          NO
909              0          0          0          NO
911              0          0          0          NO
10_9             0          0          0          NO
13_6             0          0          0          NO
25_7             0          0          0          NO
60_6             0          0          0          NO
98_8             0          0          0          NO
99_5             0          0          0          NO
50_7             0          0          0          NO
46_8             0          0          0          NO
884              0          0          0          NO
968              0          0          0          NO
40_3             0          0          0          NO
947              0          0          0          NO
882              0          0          0          NO
81_4             0          0          0          NO
08_7             0          0          0          NO
85_4             0          0          0          NO
005MRLH2060      0          0          0          NO
881              0          0          0          NO
26_6             0          0          0          NO
28_5             0          0          0          NO
12_9             0          0          0          NO
34_5             0          0          0          NO
33_7             0          0          0          NO
50_8             0          0          0          NO
87_7             0          0          0          NO
62_4             0          0          0          NO
66_7             0          0          0          NO
51_8             0          0          0          NO
936              0          0          0          NO
003MRLH1840      0          0          0          NO
955              0          0          0          NO
1009MRLH1800     0          0          0          NO
1010MRLH1780     0          0          0          NO
91_6             0          0          0          NO
992              0          0          0          NO
008MRLH1720      0          0          0          NO
42_7             0          0          0          NO
039MRLH1660      0          0          0          NO
90_8             0          0          0          NO
1006MRLO0210     0          0          0          NO
38_5             0          0          0          NO
937              0          0          0          NO
015MRLO0030      0          0          0          NO
1016MRLO0010     0          0          0          NO
964              0          0          0          NO
963              0          0          0          NO
78_6             0          0          0          NO
15_5             0          0          0          NO
932              0          0          0          NO
976              0          0          0          NO
032MRLH2440      0          0          0          NO
894              0          0          0          NO
95_4             0          0          0          NO
57_6             0          0          0          NO
022MRLH0910      0          0          0          NO
1026MRLH0750     0          0          0          NO
06_7             0          0          0          NO
902              0          0          0          NO
903              0          0          0          NO
1025MRLH1030     0          0          0          NO
886              0          0          0          NO
89_7             0          0          0          NO
028MRLH0990      0          0          0          NO
59_7             0          0          0          NO
87_8             0          0          0          NO
952              0          0          0          NO
85_5             0          0          0          NO
91_7             0          0          0          NO
79_5             0          0          0          NO
80_6             0          0          0          NO
99_6             0          0          0          NO
70_7             0          0          0          NO
958              0          0          0          NO
997              0          0          0          NO
1000MRLH0650     0          0          0          NO
977              0          0          0          NO
029MRLH0590      0          0          0          NO
71_7             0          0          0          NO
922              0          0          0          NO
54_6             0          0          0          NO
74_6             0          0          0          NO
1034MRLH0190     0          0          0          NO
75_8             0          0          0          NO
017MRLH0030      0          0          0          NO
969              0          0          0          NO
41_7             0          0          0          NO
031MRLH2400      0          0          0          NO
05_8             0          0          0          NO
17_6             0          0          0          NO
18_6             0          0          0          NO
19_5             0          0          0          NO
983              0          0          0          NO
982              0          0          0          NO
033MRLH0550      0          0          0          NO
80_7             0          0          0          NO
018MRLH1350      0          0          0          NO
73_9             0          0          0          NO
019MRLH1210      0          0          0          NO
020MRLH1150      0          0          0          NO
021MRLH0850      0          0          0          NO
972              0          0          0          NO
024MRLZ0600      0          0          0          NO
023MRLH0230      0          0          0          NO
906              0          0          0          NO
027MRLH0950      0          0          0          NO
31_7             0          0          0          NO
14_6             0          0          0          NO
916              0          0          0          NO
20_8             0          0          0          NO
923              0          0          0          NO
953              0          0          0          NO
035MRLH0110      0          0          0          NO
040MRLH1430      0          0          0          NO
945              0          0          0          NO
037MRLO0450      0          0          0          NO
1038MRLH1860     0          0          0          NO
1036MRLH1450     0          0          0          NO
1041MRLH1490     0          0          0          NO
924              0          0          0          NO
949              0          0          0          NO
943              0          0          0          NO
944              0          0          0          NO
209MRLH0410      0          0          0          NO
1210MRLH0310     0          0          0          NO
939              0          0          0          NO
012MRLZ0200      0          0          0          NO
013MRLO0330      0          0          0          NO
030MRLH0790      0          0          0          NO
04_8             0          0          0          NO
219MRLH2340      0          0          0          NO
921              0          0          0          NO
29_7             0          0          0          NO
892              0          0          0          NO
011MRLH1765      0          0          0          NO
1071MRLJ1158     0          0          0          NO
1080MRLJ1100     0          0          0          NO
1181MRLJ1360     0          0          0          NO
1160MRLJ1460     0          0          0          NO
1048MRLJ1480     0          0          0          NO
1089MRLJ1600     0          0          0          NO
1092MRLJ1620     0          0          0          NO
1214MRLJ1680     0          0          0          NO
1110MRLJ2020     0          0          0          NO
1111MRLJ2040     0          0          0          NO
1112MRLJ2080     0          0          0          NO
1109MRLJ2100     0          0          0          NO
1084MRLJ1940     0          0          0          NO
1085MRLJ1960     0          0          0          NO
1074MRLJ1980     0          0          0          NO
1115MRLJ1800     0          0          0          NO
1116MRLJ1920     0          0          0          NO
1161MRLJ0130     0          0          0          NO
1169MRLJ0230     0          0          0          NO
1170MRLJ0150     0          0          0          NO
1162MRLJ0110     0          0          0          NO
1127MRLJ0090     0          0          0          NO
1128MRLJ0250     0          0          0          NO
1129MRLJ0170     0          0          0          NO
1130MRLJ0190     0          0          0          NO
1131MRLJ0210     0          0          0          NO
1122MRLJ1840     0          0          0          NO
1120MRLJ1900     0          0          0          NO
1133MRLJ2420     0          0          0          NO
1106MRLJ2440     0          0          0          NO
1051MRLJ2480     0          0          0          NO
1132MRLJ2500     0          0          0          NO
1215MRLJ2520     0          0          0          NO
1060MRLJ2800     0          0          0          NO
1171MRLJ2820     0          0          0          NO
1099MRLJ2840     0          0          0          NO
1143MRLL0610     0          0          0          NO
1073MRLL0550     0          0          0          NO
1147MRLL0490     0          0          0          NO
1146MRLL0510     0          0          0          NO
1145MRLL0470     0          0          0          NO
1148MRLL0450     0          0          0          NO
1150MRLL0410     0          0          0          NO
1153MRLL0370     0          0          0          NO
1070MRLL0330     0          0          0          NO
1065MRLL0190     0          0          0          NO
1068MRLL0210     0          0          0          NO
1154MRLL0170     0          0          0          NO
1155MRLL0150     0          0          0          NO
1063MRLL0110     0          0          0          NO
1157MRLL0130     0          0          0          NO
1064MRLL0090     0          0          0          NO
1156MRLL0070     0          0          0          NO
1095MRLJ0370     0          0          0          NO
1096MRLJ0350     0          0          0          NO
1172MRLJ0390     0          0          0          NO
1173MRLJ0330     0          0          0          NO
1043MRLJ0410     0          0          0          NO
1175MRLJ0430     0          0          0          NO
1176MRLJ0450     0          0          0          NO
1177MRLJ0470     0          0          0          NO
1174MRLJ0310     0          0          0          NO
1044MRLJ0570     0          0          0          NO
1076MRLJ0510     0          0          0          NO
1163MRLJ0550     0          0          0          NO
1098MRLJ0630     0          0          0          NO
1097MRLJ0610     0          0          0          NO
1045MRLJ0590     0          0          0          NO
1049MRLJ0670     0          0          0          NO
1141MRLJ0710     0          0          0          NO
1142MRLJ0690     0          0          0          NO
1140MRLJ0770     0          0          0          NO
1138MRLJ0730     0          0          0          NO
1072MRLL0770     0          0          0          NO
1165MRLL0930     0          0          0          NO
1139MRLL0750     0          0          0          NO
1137MRLL0730     0          0          0          NO
1164MRLL0910     0          0          0          NO
1134MRLJ0930     0          0          0          NO
1135MRLJ0910     0          0          0          NO
1178MRLJ2300     0          0          0          NO
1102MRLJ2280     0          0          0          NO
1151MRLL0650     0          0          0          NO
1144MRLL0590     0          0          0          NO
1052MRLJ2600     0          0          0          NO
1075MRLJ0030     0          0          0          NO
1094MRLJ0290     0          0          0          NO
1046MRLJ0270     0          0          0          NO
1093MRLJ0070     0          0          0          NO
1180MRLJ2378     0          0          0          NO
1213MRLJ2340     0          0          0          NO
1079MRLJ1040     0          0          0          NO
1078MRLJ1060     0          0          0          NO
1182MRLJ1020     0          0          0          NO
1247MRLJ2625     0          0          0          NO
1194MRLJ2760     0          0          0          NO
1192MRLJ2780     0          0          0          NO
1136MRLJ0870     0          0          0          NO
1004MRLJ0790     0          0          0          NO
1223MRLJ1418     0          0          0          NO
1220MRLJ0010     0          0          0          NO
1168MRLJ1340     0          0          0          NO
1247MRLJ2625A    0          0          0          NO
1221MRLL0668     0          0          0          NO
1152MRLL0670     0          0          0          NO
1224MRLH0530     0          0          0          NO
224MRLH0530A     0          0          0          NO
225MRLH0350      0          0          0          NO
1226MRLH0130     0          0          0          NO
1227MRLH0150     0          0          0          NO
228MRLO0150      0          0          0          NO
1229MRLO0130     0          0          0          NO
1230MRLO0110     0          0          0          NO
231MRLH1250      0          0          0          NO
1042MRLZ0580     0          0          0          NO
232MRLZ0560      0          0          0          NO
1208MRLO0090     0          0          0          NO
898              0          0          0          NO
897              0          0          0          NO
1234MRLZ0500     0          0          0          NO
896              0          0          0          NO
1235MRLZ0340     0          0          0          NO
236MRLZ0300      0          0          0          NO
1237MRLZ0240     0          0          0          NO
1238MRLZ0260     0          0          0          NO
1239MRLZ0360     0          0          0          NO
240MRLZ0380      0          0          0          NO
241MRLH2800      0          0          0          NO
1245MRLH1763     0          0          0          NO
1245MRLH1763A    0          0          0          NO
1246MRLH1769     0          0          0          NO
56_7             0          0          0          NO
1007MRLO0230     0          0          0          NO
1189MRLJ1720     0          0          0          NO
1244MRLH0933     0          0          0          NO
1050MRLJ1903     0          0          0          NO
1055MRLJ0890     0          0          0          NO
1067MRLL0048     0          0          0          NO
1058MRLL0289     0          0          0          NO
67_7             0          0          0          NO
65_8             0          0          0          NO
1264MRLJ2182     0          0          0          NO
1258MRLJ2180     0          0          0          NO
1053MRLJ0050     0          0          0          NO
1183MRLJ1020A    0          0          0          NO
1267MRLJ0788     0          0          0          NO
268MRLH1475      0          0          0          NO
001MRLH2740      0          0          0          NO
07_7             0          0          0          NO
04_9             0          0          0          NO
06_8             0          0          0          NO
02_6             0          0          0          NO
95_5             0          0          0          NO
15_6             0          0          0          NO
18_7             0          0          0          NO
96_5             0          0          0          NO
03_6             0          0          0          NO
14_7             0          0          0          NO
21_5             0          0          0          NO
23_6             0          0          0          NO
37_5             0          0          0          NO
39_6             0          0          0          NO
16_6             0          0          0          NO
40_4             0          0          0          NO
38_6             0          0          0          NO
66_8             0          0          0          NO
42_8             0          0          0          NO
44_6             0          0          0          NO
43_4             0          0          0          NO
47_6             0          0          0          NO
19_6             0          0          0          NO
17_7             0          0          0          NO
26_7             0          0          0          NO
28_6             0          0          0          NO
24_6             0          0          0          NO
30_4             0          0          0          NO
33_8             0          0          0          NO
32_7             0          0          0          NO
81_5             0          0          0          NO
92_5             0          0          0          NO
02_7             0          0          0          NO
11_5             0          0          0          NO
33_9             0          0          0          NO
35_7             0          0          0          NO
40_5             0          0          0          NO
44_7             0          0          0          NO
01_5             0          0          0          NO
94_6             0          0          0          NO
57_7             0          0          0          NO
72_5             0          0          0          NO
77_8             0          0          0          NO
74_7             0          0          0          NO
85_6             0          0          0          NO
03_7             0          0          0          NO
02_8             0          0          0          NO
99_7             0          0          0          NO
35_8             0          0          0          NO
37_6             0          0          0          NO
34_6             0          0          0          NO
56_8             0          0          0          NO
67_8             0          0          0          NO
69_6             0          0          0          NO
70_8             0          0          0          NO
80_8             0          0          0          NO
82_6             0          0          0          NO
88_6             0          0          0          NO
92_6             0          0          0          NO
16_7             0          0          0          NO
15_7             0          0          0          NO
18_8             0          0          0          NO
25_8             0          0          0          NO
21_6             0          0          0          NO
19_7             0          0          0          NO
28_7             0          0          0          NO
83_6             0          0          0          NO
85_7             0          0          0          NO
62_5             0          0          0          NO
78_7             0          0          0          NO
97_6             0          0          0          NO
32_8             0          0          0          NO
40_6             0          0          0          NO
46_9             0          0          0          NO
807MRLP0590      0          0          0          NO
72_6             0          0          0          NO
002MRLO0430      0          0          0          NO
84_7             0          0          0          NO
001MRLH2740A     0          0          0          NO
94_7             0          0          0          NO
95_6             0          0          0          NO
93_7             0          0          0          NO
61_7             0          0          0          NO
1081MRLJ1380     0          0          0          NO
30_5             0          0          0          NO
31_8             0          0          0          NO
40_7             0          0          0          NO
34_7             0          0          0          NO
43_5             0          0          0          NO
24_7             0          0          0          NO
55_7             0          0          0          NO
43_6             0          0          0          NO
548              0          0          0          NO
52_5             0          0          0          NO
54_7             0          0          0          NO
25_9             0          0          0          NO
38_7             0          0          0          NO
27_6             0          0          0          NO
08_8             0          0          0          NO
11_6             0          0          0          NO
13_7             0          0          0          NO
26_8             0          0          0          NO
62_6             0          0          0          NO
60_7             0          0          0          NO
69_7             0          0          0          NO
81_6             0          0          0          NO
1159MRLJ1400     0          0          0          NO
1047MRLJ1500     0          0          0          NO
1087MRLJ1520     0          0          0          NO
1090MRLJ1560     0          0          0          NO
1088MRLJ1580     0          0          0          NO
1091MRLJ1660     0          0          0          NO
1124MRLJ2140A    0          0          0          NO
1107MRLJ2220     0          0          0          NO
1133MRLJ2420A    0          0          0          NO
1149MRLL0430     0          0          0          NO
1125MRLJ0490     0          0          0          NO
1126MRLJ0530     0          0          0          NO
1056MRLJ0650     0          0          0          NO
1077MRLJ0750     0          0          0          NO
1139MRLL0750A    0          0          0          NO
1104MRLJ2240     0          0          0          NO
1103MRLJ2260     0          0          0          NO
1120MRLJ1900A    0          0          0          NO
1105MRLJ2460     0          0          0          NO
1082MRLJ1180     0          0          0          NO
1185MRLJ1280     0          0          0          NO
1114MRLJ1320     0          0          0          NO
1187MRLJ1200     0          0          0          NO
1188MRLJ1240     0          0          0          NO
1108MRLJ2200     0          0          0          NO
1191MRLJ2360     0          0          0          NO
1057MRLL0710     0          0          0          NO
1199MRLL0310     0          0          0          NO
1193MRLJ2720     0          0          0          NO
1202MRLL0870     0          0          0          NO
1204MRLJ2680     0          0          0          NO
1211MRLL0830     0          0          0          NO
1117MRLJ1760     0          0          0          NO
1248MRLJ1878     0          0          0          NO
1212MRLJ2400     0          0          0          NO
1113MRLJ2120     0          0          0          NO
1086MRLJ2000     0          0          0          NO
1054MRLJ1540     0          0          0          NO
1080MRLJ1120     0          0          0          NO
1119MRLJ1820     0          0          0          NO
1066MRLL0570     0          0          0          NO
1217MRLJ2620     0          0          0          NO
1216MRLJ2580     0          0          0          NO
1206MRLJ2540     0          0          0          NO
1243MRLH1770     0          0          0          NO
249MRLH0931      0          0          0          NO
1250MRLJ1905     0          0          0          NO
1083MRLJ1640     0          0          0          NO
1171MRLJ2820A    0          0          0          NO
986              0          0          0          NO
1062MRLJ1220     0          0          0          NO
93_8             0          0          0          NO
1076MOLJ0510     0          0          0          NO
1125MOLJ0490B    0          0          0          NO
1126MOLJ0530     0          0          0          NO
1163MOLJ0550A    0          0          0          NO
1053MOLJ0050A    0          0          0          NO
1190MOLJ2160     0          0          0          NO
1109MOLJ2100A    0          0          0          NO
1103MOLJ2260     0          0          0          NO
1178MOLJ2300A    0          0          0          NO
1191MOLJ2360     0          0          0          NO
102MOLJ2280B     0          0          0          NO
1252MOLJ2380     0          0          0          NO
1252MOLJ2380A    0          0          0          NO
1252MOLJ2380B    0          0          0          NO
1175MOLJ0430     0          0          0          NO
1215MOLJ2520     0          0          0          NO
1051MOLJ2480     0          0          0          NO
1049MOLJ0670     0          0          0          NO
1052MOLJ2600     0          0          0          NO
1052MOLJ2600A    0          0          0          NO
1216MOLJ2580A    0          0          0          NO
1253MOLJ2640     0          0          0          NO
1253MOLJ2640A    0          0          0          NO
1147MOLL0490     0          0          0          NO
1100MOLJ2700     0          0          0          NO
1100MOLJ2700A    0          0          0          NO
1100MOLJ2700B    0          0          0          NO
1099MOLJ2840     0          0          0          NO
1197MOLJ2860     0          0          0          NO
1096MOLJ0350B    0          0          0          NO
1133MOLJ2420A    0          0          0          NO
095MOLJ0370A     0          0          0          NO
1107MOLJ2220     0          0          0          NO
1174MOLJ0310B    0          0          0          NO
1258MOLJ2180     0          0          0          NO
1043MOLJ0410     0          0          0          NO
1122MOLJ1840     0          0          0          NO
1169MOLJ0230     0          0          0          NO
1121MOLJ1860     0          0          0          NO
1128MOLJ0250B    0          0          0          NO
1149MOLL0430     0          0          0          NO
1059MOLL0350     0          0          0          NO
1059MOLL0350A    0          0          0          NO
1049MOLJ0670B    0          0          0          NO
1254MOLL0690     0          0          0          NO
1150MOLL0410     0          0          0          NO
1140MOLJ0770     0          0          0          NO
1140MOLJ0770A    0          0          0          NO
1044MOLJ0570A    0          0          0          NO
1134MOLJ0930     0          0          0          NO
1004MOLJ0790     0          0          0          NO
1044MOLJ0570B    0          0          0          NO
1004MOLJ0790B    0          0          0          NO
925              0          0          0          NO
25_10            0          0          0          NO
925_2            0          0          0          NO
924_2            0          0          0          NO
924_3            0          0          0          NO
09_8             0          0          0          NO
11_7             0          0          0          NO
241MOLH2800      0          0          0          NO
11_8             0          0          0          NO
11_9             0          0          0          NO
1200MOLL0250     0          0          0          NO
946              0          0          0          NO
1063MOLL0110     0          0          0          NO
1238MOLZ0260     0          0          0          NO
947_2            0          0          0          NO
1006MOLO0210     0          0          0          NO
947_3            0          0          0          NO
1006MOLO0210A    0          0          0          NO
013MOLO0330      0          0          0          NO
56_9             0          0          0          NO
1207MOLL0010A    0          0          0          NO
1207MOLL0010B    0          0          0          NO
1156MOLL0070     0          0          0          NO
85_9             0          0          0          NO
78_8             0          0          0          NO
15_9             0          0          0          NO
10_10            0          0          0          NO
15_10            0          0          0          NO
85_10            0          0          0          NO
10_11            0          0          0          NO
10_12            0          0          0          NO
85_11            0          0          0          NO
11_10            0          0          0          NO
13_9             0          0          0          NO
81_8             0          0          0          NO
263MOLH2240      0          0          0          NO
981              0          0          0          NO
1101MOLJ1260B    0          0          0          NO
1238MOLZ0260A    0          0          0          NO
1016MOLO0010     0          0          0          NO
07_9             0          0          0          NO
11_11            0          0          0          NO
1018MOLH1350     0          0          0          NO
235MOLZ0340      0          0          0          NO
84_8             0          0          0          NO
90_10            0          0          0          NO
1016MOLO0010A    0          0          0          NO
897_2            0          0          0          NO
016MOLO0010B     0          0          0          NO
971              0          0          0          NO
1016MOLO0010C    0          0          0          NO
941              0          0          0          NO
008MOLH1720      0          0          0          NO
208MOLO0090      0          0          0          NO
1140MOLJ0770B    0          0          0          NO
54_8             0          0          0          NO
263MOLH2240A     0          0          0          NO
79_8             0          0          0          NO
969_2            0          0          0          NO
02_9             0          0          0          NO
02_10            0          0          0          NO
89_8             0          0          0          NO
1008MOLH1720A    0          0          0          NO
41_9             0          0          0          NO
940              0          0          0          NO
41_10            0          0          0          NO
1179MOLJ1880     0          0          0          NO
88_7             0          0          0          NO
1226MOLH0130     0          0          0          NO
98_9             0          0          0          NO
19_9             0          0          0          NO
917              0          0          0          NO
1012MOLZ0200     0          0          0          NO
008MOLH1720B     0          0          0          NO
977_2            0          0          0          NO
958_2            0          0          0          NO
029MOLH0590      0          0          0          NO
1029MOLH0590B    0          0          0          NO
70_9             0          0          0          NO
943_2            0          0          0          NO
225MOLH0350B     0          0          0          NO
1226MOLH0130A    0          0          0          NO
82_7             0          0          0          NO
1017MOLH0030     0          0          0          NO
979              0          0          0          NO
957              0          0          0          NO
032MOLH2440A     0          0          0          NO
1072MOLL0770     0          0          0          NO
943_3            0          0          0          NO
965              0          0          0          NO
1009MOLH1800     0          0          0          NO
1255MOLH2380     0          0          0          NO
976_2            0          0          0          NO
1030MOLH0790     0          0          0          NO
137MOLL0730      0          0          0          NO
28_9             0          0          0          NO
203MOLL0890A     0          0          0          NO
1208MOLO0090A    0          0          0          NO
246MOLH1769      0          0          0          NO
012MOLZ0200A     0          0          0          NO
949_2            0          0          0          NO
261MOLH1767      0          0          0          NO
19_10            0          0          0          NO
921_2            0          0          0          NO
187MOLJ1200      0          0          0          NO
23_8             0          0          0          NO
921_3            0          0          0          NO
53_8             0          0          0          NO
953_2            0          0          0          NO
921_4            0          0          0          NO
921_5            0          0          0          NO
965_2            0          0          0          NO
923_2            0          0          0          NO
029MOLH0590C     0          0          0          NO
013MOLO0330B     0          0          0          NO
11_12            0          0          0          NO
31_9             0          0          0          NO
98_10            0          0          0          NO
981_2            0          0          0          NO
58_9             0          0          0          NO
03_8             0          0          0          NO
03_9             0          0          0          NO
95_8             0          0          0          NO
036MOLH1450      0          0          0          NO
263MOLH2240B     0          0          0          NO
1263MOLH2240C    0          0          0          NO
1165MOLL0930A    0          0          0          NO
1032MOLH2440C    0          0          0          NO
31_10            0          0          0          NO
902_2            0          0          0          NO
957_2            0          0          0          NO
95_9             0          0          0          NO
85_12            0          0          0          NO
893              0          0          0          NO
234MOLZ0500      0          0          0          NO
1234MOLZ0500A    0          0          0          NO
882_2            0          0          0          NO
952_2            0          0          0          NO
1237MOLZ0240     0          0          0          NO
53_9             0          0          0          NO
018MOLH1350A     0          0          0          NO
887              0          0          0          NO
73_11            0          0          0          NO
1235MOLZ0340A    0          0          0          NO
235MOLZ0340B     0          0          0          NO
236MOLZ0300      0          0          0          NO
88_8             0          0          0          NO
902_3            0          0          0          NO
944_2            0          0          0          NO
86_7             0          0          0          NO
79_9             0          0          0          NO
919              0          0          0          NO
944_3            0          0          0          NO
58_10            0          0          0          NO
13_10            0          0          0          NO
1024MOLZ0600     0          0          0          NO
1158MOLL0030     0          0          0          NO
1065MOLL0190     0          0          0          NO
99_9             0          0          0          NO
897_3            0          0          0          NO
34_8             0          0          0          NO
955_2            0          0          0          NO
78_9             0          0          0          NO
226MOLH0130B     0          0          0          NO
029MOLH0590D     0          0          0          NO
1166MOLL0790C    0          0          0          NO
15_11            0          0          0          NO
1238MOLZ0260B    0          0          0          NO
70_10            0          0          0          NO
1061MOLJ2320     0          0          0          NO
1064MOLL0090A    0          0          0          NO
1051MOLJ2480B    0          0          0          NO
1238MOLZ0260C    0          0          0          NO
955_3            0          0          0          NO
1118MOLJ1740     0          0          0          NO
1253MOLJ2640B    0          0          0          NO
1194MOLJ2760B    0          0          0          NO
989              0          0          0          NO
1092MOLJ1620A    0          0          0          NO
1097MOLJ0610A    0          0          0          NO
1261MOLH1767A    0          0          0          NO
51_9             0          0          0          NO
91_10            0          0          0          NO
952_3            0          0          0          NO
1044MOLJ0570C    0          0          0          NO
973              0          0          0          NO
82_8             0          0          0          NO
184MOLJ1000A     0          0          0          NO
184MOLJ1000B     0          0          0          NO
1259MOLL0050     0          0          0          NO
1259MOLL0050A    0          0          0          NO
1043MOLJ0410B    0          0          0          NO
044MOLJ0570D     0          0          0          NO
135MOLJ0910      0          0          0          NO
52_7             0          0          0          NO
235MOLZ0340C     0          0          0          NO
1004MOLJ0790C    0          0          0          NO
88_9             0          0          0          NO
1176MOLJ0450     0          0          0          NO
880              0          0          0          NO
898_2            0          0          0          NO
923_3            0          0          0          NO
1242MOLZ0610     0          0          0          NO
1017MOLH0030A    0          0          0          NO
1203MOLL0890B    0          0          0          NO
93_9             0          0          0          NO
1021MOLH0850     0          0          0          NO
1065MOLL0190A    0          0          0          NO
88_10            0          0          0          NO
25_11            0          0          0          NO
89_9             0          0          0          NO
56_10            0          0          0          NO
48_7             0          0          0          NO
67_9             0          0          0          NO
41_11            0          0          0          NO
79_10            0          0          0          NO
08_9             0          0          0          NO
06_9             0          0          0          NO
50_10            0          0          0          NO
01_7             0          0          0          NO
89_10            0          0          0          NO
97_7             0          0          0          NO
40_9             0          0          0          NO
23_9             0          0          0          NO
14_9             0          0          0          NO
44_8             0          0          0          NO
98_11            0          0          0          NO
19_11            0          0          0          NO
10_13            0          0          0          NO
20_10            0          0          0          NO
22_9             0          0          0          NO
43_8             0          0          0          NO
41_12            0          0          0          NO
22_10            0          0          0          NO
48_8             0          0          0          NO
43_9             0          0          0          NO
40_10            0          0          0          NO
03_10            0          0          0          NO
03_11            0          0          0          NO
62_9             0          0          0          NO
62_10            0          0          0          NO
27_8             0          0          0          NO
62_11            0          0          0          NO
43_10            0          0          0          NO
43_11            0          0          0          NO
62_12            0          0          0          NO
62_13            0          0          0          NO
41_13            0          0          0          NO
86_8             0          0          0          NO
14_10            0          0          0          NO
41_14            0          0          0          NO
41_15            0          0          0          NO
45_8             0          0          0          NO
07_10            0          0          0          NO
07_11            0          0          0          NO
51_10            0          0          0          NO
51_11            0          0          0          NO
84_9             0          0          0          NO
50_11            0          0          0          NO
86_9             0          0          0          NO
88_11            0          0          0          NO
24_8             0          0          0          NO
07_12            0          0          0          NO
07_13            0          0          0          NO
07_14            0          0          0          NO
69_8             0          0          0          NO
83_8             0          0          0          NO
39_8             0          0          0          NO
24_9             0          0          0          NO
60_9             0          0          0          NO
50_12            0          0          0          NO
96_7             0          0          0          NO
02_11            0          0          0          NO
97_8             0          0          0          NO
99_10            0          0          0          NO
02_12            0          0          0          NO
03_12            0          0          0          NO
05_9             0          0          0          NO
35_9             0          0          0          NO
79_11            0          0          0          NO
71_10            0          0          0          NO
85_13            0          0          0          NO
33_10            0          0          0          NO
01_8             0          0          0          NO
06_10            0          0          0          NO
59_9             0          0          0          NO
71_11            0          0          0          NO
59_10            0          0          0          NO
05_10            0          0          0          NO
99_11            0          0          0          NO
01_9             0          0          0          NO
50_13            0          0          0          NO
50_14            0          0          0          NO
79_12            0          0          0          NO
17_9             0          0          0          NO
51_12            0          0          0          NO
71_12            0          0          0          NO
03_13            0          0          0          NO
03_14            0          0          0          NO
71_13            0          0          0          NO
53_10            0          0          0          NO
58_11            0          0          0          NO
26_9             0          0          0          NO
66_9             0          0          0          NO
28_10            0          0          0          NO
28_11            0          0          0          NO
33_11            0          0          0          NO
79_13            0          0          0          NO
79_14            0          0          0          NO
58_12            0          0          0          NO
58_13            0          0          0          NO
71_14            0          0          0          NO
71_15            0          0          0          NO
72_9             0          0          0          NO
72_10            0          0          0          NO
68_10            0          0          0          NO
82_9             0          0          0          NO
53_11            0          0          0          NO
95_10            0          0          0          NO
66_10            0          0          0          NO
26_10            0          0          0          NO
50_15            0          0          0          NO
33_12            0          0          0          NO
15_12            0          0          0          NO
67_10            0          0          0          NO
67_11            0          0          0          NO
53_12            0          0          0          NO
95_11            0          0          0          NO
15_13            0          0          0          NO
31_11            0          0          0          NO
64_8             0          0          0          NO
72_11            0          0          0          NO
64_9             0          0          0          NO
15_14            0          0          0          NO
15_15            0          0          0          NO
72_12            0          0          0          NO
82_10            0          0          0          NO
96_8             0          0          0          NO
52_8             0          0          0          NO
67_12            0          0          0          NO
76_8             0          0          0          NO
19_12            0          0          0          NO
39_9             0          0          0          NO
39_10            0          0          0          NO
19_13            0          0          0          NO
39_11            0          0          0          NO
90_11            0          0          0          NO
90_12            0          0          0          NO
50_16            0          0          0          NO
36_8             0          0          0          NO
56_11            0          0          0          NO
36_9             0          0          0          NO
62_14            0          0          0          NO
38_9             0          0          0          NO
38_10            0          0          0          NO
38_11            0          0          0          NO
79_15            0          0          0          NO
877              0          0          0          NO
543              0          0          0          NO
50_17            0          0          0          NO
50_18            0          0          0          NO
21_8             0          0          0          NO
89_11            0          0          0          NO
89_12            0          0          0          NO
89_13            0          0          0          NO
23_10            0          0          0          NO
93_10            0          0          0          NO
14_11            0          0          0          NO
18_9             0          0          0          NO
17_10            0          0          0          NO
94_8             0          0          0          NO
25_12            0          0          0          NO
95_12            0          0          0          NO
09_9             0          0          0          NO
23_11            0          0          0          NO
95_13            0          0          0          NO
03_15            0          0          0          NO
23_12            0          0          0          NO
02_13            0          0          0          NO
05_11            0          0          0          NO
10_14            0          0          0          NO
05_12            0          0          0          NO
05_13            0          0          0          NO
06_11            0          0          0          NO
03_16            0          0          0          NO
09_10            0          0          0          NO
01_10            0          0          0          NO
03_17            0          0          0          NO
90_13            0          0          0          NO
40_11            0          0          0          NO
01_11            0          0          0          NO
98_12            0          0          0          NO
00_7             0          0          0          NO
99_12            0          0          0          NO
03_18            0          0          0          NO
38_12            0          0          0          NO
02_14            0          0          0          NO
17_11            0          0          0          NO
38_13            0          0          0          NO
45_9             0          0          0          NO
45_10            0          0          0          NO
07_15            0          0          0          NO
29_9             0          0          0          NO
17_12            0          0          0          NO
29_10            0          0          0          NO
26_11            0          0          0          NO
42_10            0          0          0          NO
01_12            0          0          0          NO
17_13            0          0          0          NO
17_14            0          0          0          NO
21_9             0          0          0          NO
94_9             0          0          0          NO
05_14            0          0          0          NO
87_9             0          0          0          NO
40_12            0          0          0          NO
45_11            0          0          0          NO
28_12            0          0          0          NO
05_15            0          0          0          NO
02_15            0          0          0          NO
26_12            0          0          0          NO
98_13            0          0          0          NO
26_13            0          0          0          NO
26_14            0          0          0          NO
26_15            0          0          0          NO
26_16            0          0          0          NO
21_10            0          0          0          NO
02_16            0          0          0          NO
39_12            0          0          0          NO
39_13            0          0          0          NO
39_14            0          0          0          NO
27_9             0          0          0          NO
22_11            0          0          0          NO
04_10            0          0          0          NO
96_9             0          0          0          NO
97_9             0          0          0          NO
22_12            0          0          0          NO
68_11            0          0          0          NO
21_11            0          0          0          NO
29_11            0          0          0          NO
49_9             0          0          0          NO
28_13            0          0          0          NO
28_14            0          0          0          NO
29_12            0          0          0          NO
29_13            0          0          0          NO
98_14            0          0          0          NO
05_16            0          0          0          NO
05_17            0          0          0          NO
00_8             0          0          0          NO
99_13            0          0          0          NO
30_8             0          0          0          NO
32_9             0          0          0          NO
30_9             0          0          0          NO
49_10            0          0          0          NO
83_9             0          0          0          NO
83_10            0          0          0          NO
81_9             0          0          0          NO
81_10            0          0          0          NO
30_10            0          0          0          NO
48_9             0          0          0          NO
00_9             0          0          0          NO
12_11            0          0          0          NO
79_16            0          0          0          NO
50_19            0          0          0          NO
12_12            0          0          0          NO
45_12            0          0          0          NO
81_11            0          0          0          NO
86_10            0          0          0          NO
82_11            0          0          0          NO
85_14            0          0          0          NO
50_20            0          0          0          NO
82_12            0          0          0          NO
47_8             0          0          0          NO
45_13            0          0          0          NO
35_10            0          0          0          NO
04_11            0          0          0          NO
12_13            0          0          0          NO
47_9             0          0          0          NO
49_11            0          0          0          NO
92_7             0          0          0          NO
22_13            0          0          0          NO
50_21            0          0          0          NO
38_14            0          0          0          NO
04_12            0          0          0          NO
34_9             0          0          0          NO
47_10            0          0          0          NO
56_12            0          0          0          NO
45_14            0          0          0          NO
42_11            0          0          0          NO
96_10            0          0          0          NO
50_22            0          0          0          NO
68_12            0          0          0          NO
18_10            0          0          0          NO
89_14            0          0          0          NO
89_15            0          0          0          NO
92_8             0          0          0          NO
56_13            0          0          0          NO
07_16            0          0          0          NO
06_12            0          0          0          NO
06_13            0          0          0          NO
71_16            0          0          0          NO
57_8             0          0          0          NO
55_8             0          0          0          NO
21_12            0          0          0          NO
57_9             0          0          0          NO
42_12            0          0          0          NO
42_13            0          0          0          NO
97_10            0          0          0          NO
57_10            0          0          0          NO
55_9             0          0          0          NO
57_11            0          0          0          NO
57_12            0          0          0          NO
08_10            0          0          0          NO
39_15            0          0          0          NO
44_9             0          0          0          NO
02_17            0          0          0          NO
45_15            0          0          0          NO
45_16            0          0          0          NO
39_16            0          0          0          NO
69_9             0          0          0          NO
50_23            0          0          0          NO
00_10            0          0          0          NO
03_19            0          0          0          NO
95_14            0          0          0          NO
33_13            0          0          0          NO
75_9             0          0          0          NO
46_10            0          0          0          NO
46_11            0          0          0          NO
03_20            0          0          0          NO
87_10            0          0          0          NO
50_24            0          0          0          NO
23_13            0          0          0          NO
53_13            0          0          0          NO
53_14            0          0          0          NO
64_10            0          0          0          NO
45_17            0          0          0          NO
17_15            0          0          0          NO
64_11            0          0          0          NO
64_12            0          0          0          NO
67_13            0          0          0          NO
05_18            0          0          0          NO
96_11            0          0          0          NO
79_17            0          0          0          NO
05_19            0          0          0          NO
30_11            0          0          0          NO
30_12            0          0          0          NO
22_14            0          0          0          NO
71_17            0          0          0          NO
25_13            0          0          0          NO
72_13            0          0          0          NO
79_18            0          0          0          NO
60_10            0          0          0          NO
70_11            0          0          0          NO
16_8             0          0          0          NO
68_13            0          0          0          NO
60_11            0          0          0          NO
72_14            0          0          0          NO
72_15            0          0          0          NO
72_16            0          0          0          NO
24_10            0          0          0          NO
86_11            0          0          0          NO
86_12            0          0          0          NO
79_19            0          0          0          NO
55_10            0          0          0          NO
70_12            0          0          0          NO
85_15            0          0          0          NO
76_9             0          0          0          NO
58_14            0          0          0          NO
22_15            0          0          0          NO
65_9             0          0          0          NO
24_11            0          0          0          NO
79_20            0          0          0          NO
79_21            0          0          0          NO
79_22            0          0          0          NO
61_8             0          0          0          NO
61_9             0          0          0          NO
12_14            0          0          0          NO
58_15            0          0          0          NO
03_21            0          0          0          NO
82_13            0          0          0          NO
87_11            0          0          0          NO
58_16            0          0          0          NO
19_14            0          0          0          NO
27_10            0          0          0          NO
52_9             0          0          0          NO
14_12            0          0          0          NO
92_9             0          0          0          NO
87_12            0          0          0          NO
28_15            0          0          0          NO
76_10            0          0          0          NO
76_11            0          0          0          NO
60_12            0          0          0          NO
56_14            0          0          0          NO
59_11            0          0          0          NO
59_12            0          0          0          NO
86_13            0          0          0          NO
64_13            0          0          0          NO
87_13            0          0          0          NO
66_11            0          0          0          NO
59_13            0          0          0          NO
28_16            0          0          0          NO
28_17            0          0          0          NO
56_15            0          0          0          NO
82_14            0          0          0          NO
87_14            0          0          0          NO
87_15            0          0          0          NO
89_16            0          0          0          NO
23_14            0          0          0          NO
76_12            0          0          0          NO
76_13            0          0          0          NO
60_13            0          0          0          NO
78_10            0          0          0          NO
82_15            0          0          0          NO
10_15            0          0          0          NO
60_14            0          0          0          NO
92_10            0          0          0          NO
56_16            0          0          0          NO
32_10            0          0          0          NO
32_11            0          0          0          NO
77_9             0          0          0          NO
15_16            0          0          0          NO
87_16            0          0          0          NO
59_14            0          0          0          NO
32_12            0          0          0          NO
33_14            0          0          0          NO
78_11            0          0          0          NO
65_10            0          0          0          NO
59_15            0          0          0          NO
02_18            0          0          0          NO
82_16            0          0          0          NO
89_17            0          0          0          NO
74_8             0          0          0          NO
77_10            0          0          0          NO
71_18            0          0          0          NO
14_13            0          0          0          NO
81_12            0          0          0          NO
77_11            0          0          0          NO
65_11            0          0          0          NO
27_11            0          0          0          NO
27_12            0          0          0          NO
62_15            0          0          0          NO
77_12            0          0          0          NO
10_16            0          0          0          NO
55_11            0          0          0          NO
65_12            0          0          0          NO
81_13            0          0          0          NO
13_11            0          0          0          NO
15_17            0          0          0          NO
77_13            0          0          0          NO
82_17            0          0          0          NO
22_16            0          0          0          NO
08_11            0          0          0          NO
07_17            0          0          0          NO
82_18            0          0          0          NO
36_10            0          0          0          NO
64_14            0          0          0          NO
08_12            0          0          0          NO
80_9             0          0          0          NO
68_14            0          0          0          NO
55_12            0          0          0          NO
55_13            0          0          0          NO
68_15            0          0          0          NO
35_11            0          0          0          NO
35_12            0          0          0          NO
47_11            0          0          0          NO
68_16            0          0          0          NO
36_11            0          0          0          NO
08_13            0          0          0          NO
32_13            0          0          0          NO
18_11            0          0          0          NO
64_15            0          0          0          NO
36_12            0          0          0          NO
64_16            0          0          0          NO
75_10            0          0          0          NO
75_11            0          0          0          NO
36_13            0          0          0          NO
37_8             0          0          0          NO
29_14            0          0          0          NO
37_9             0          0          0          NO
67_14            0          0          0          NO
74_9             0          0          0          NO
62_16            0          0          0          NO
64_17            0          0          0          NO
64_18            0          0          0          NO
64_19            0          0          0          NO
68_17            0          0          0          NO
18_12            0          0          0          NO
19_15            0          0          0          NO
67_15            0          0          0          NO
41_16            0          0          0          NO
63_8             0          0          0          NO
67_16            0          0          0          NO
15_18            0          0          0          NO
62_17            0          0          0          NO
61_10            0          0          0          NO
45_18            0          0          0          NO
43_12            0          0          0          NO
52_10            0          0          0          NO
67_17            0          0          0          NO
18_13            0          0          0          NO
67_18            0          0          0          NO
28_18            0          0          0          NO
16_9             0          0          0          NO
32_14            0          0          0          NO
67_19            0          0          0          NO
24_12            0          0          0          NO
24_13            0          0          0          NO
34_10            0          0          0          NO
04_13            0          0          0          NO
41_17            0          0          0          NO
51_13            0          0          0          NO
05_20            0          0          0          NO
18_14            0          0          0          NO
82_19            0          0          0          NO
67_20            0          0          0          NO
51_14            0          0          0          NO
14_14            0          0          0          NO
53_15            0          0          0          NO
24_14            0          0          0          NO
51_15            0          0          0          NO
67_21            0          0          0          NO
34_11            0          0          0          NO
48_10            0          0          0          NO
12_15            0          0          0          NO
34_12            0          0          0          NO
27_13            0          0          0          NO
05_21            0          0          0          NO
27_14            0          0          0          NO
22_17            0          0          0          NO
22_18            0          0          0          NO
50_25            0          0          0          NO
12_16            0          0          0          NO
64_20            0          0          0          NO
68_18            0          0          0          NO
06_14            0          0          0          NO
05_22            0          0          0          NO
48_11            0          0          0          NO
42_14            0          0          0          NO
48_12            0          0          0          NO
82_20            0          0          0          NO
09_11            0          0          0          NO
82_21            0          0          0          NO
81_14            0          0          0          NO
68_19            0          0          0          NO
06_15            0          0          0          NO
49_12            0          0          0          NO
49_13            0          0          0          NO
42_15            0          0          0          NO
49_14            0          0          0          NO
49_15            0          0          0          NO
49_16            0          0          0          NO
49_17            0          0          0          NO
49_18            0          0          0          NO
49_19            0          0          0          NO
45_19            0          0          0          NO
21_13            0          0          0          NO
87_17            0          0          0          NO
87_18            0          0          0          NO
31_12            0          0          0          NO
87_19            0          0          0          NO
29_15            0          0          0          NO
6807MOLP0590     0          0          0          NO
54_9             0          0          0          NO
62_18            0          0          0          NO
27_15            0          0          0          NO
55_14            0          0          0          NO
60_15            0          0          0          NO
58_17            0          0          0          NO
18_15            0          0          0          NO
14_15            0          0          0          NO
58_18            0          0          0          NO
59_16            0          0          0          NO
54_10            0          0          0          NO
57_13            0          0          0          NO
74_10            0          0          0          NO
745              0          0          0          NO
44_10            0          0          0          NO
42_16            0          0          0          NO
72_17            0          0          0          NO
29_16            0          0          0          NO
718              0          0          0          NO
21_14            0          0          0          NO
87_20            0          0          0          NO
89_18            0          0          0          NO
83_11            0          0          0          NO
76_14            0          0          0          NO
35_13            0          0          0          NO
18_16            0          0          0          NO
05_23            0          0          0          NO
23_15            0          0          0          NO
19_16            0          0          0          NO
93_11            0          0          0          NO
84_10            0          0          0          NO
94_10            0          0          0          NO
89_19            0          0          0          NO
88_12            0          0          0          NO
19_17            0          0          0          NO
05_24            0          0          0          NO
05_25            0          0          0          NO
1183MOLJ1020     0          0          0          NO
1082MOLJ1180A    0          0          0          NO
1159MOLJ1400     0          0          0          NO
1182MOLJ1040     0          0          0          NO
1079MOLJ1060     0          0          0          NO
1183MOLJ1020B    0          0          0          NO
1181MOLJ1360     0          0          0          NO
1181MOLJ1360A    0          0          0          NO
1081MOLJ1380     0          0          0          NO
1080MOLJ1120     0          0          0          NO
1181MOLJ1360C    0          0          0          NO
167MOLJ1140      0          0          0          NO
1167MOLJ1140A    0          0          0          NO
1167MOLJ1140B    0          0          0          NO
1101MOLJ1260     0          0          0          NO
1218MOLJ1300     0          0          0          NO
1112MOLJ2080B    0          0          0          NO
1218MOLJ1300A    0          0          0          NO
1168MOLJ1340     0          0          0          NO
1083MOLJ1640     0          0          0          NO
1128MOLJ0250     0          0          0          NO
1125MOLJ0490     0          0          0          NO

[INFLOWS]
;;Node           Constituent  Time Series      Type     Mfactor  Sfactor  Baseline Pattern
;;-------------- ------------ ---------------- -------- -------- -------- -------- --------
;; SYNTHETIC TEST INFLOWS — the source .xp carried no constant inflows
;; and RUNF hydrology is not converted; 1.00 CFS is applied at each
;; headwater node so the network runs wet for QA. Replace with real
;; hydrology or inflow hydrographs before using results.
NLB1150          FLOW         ""               FLOW     1.0      1.0      1.00
NLB0730          FLOW         ""               FLOW     1.0      1.0      1.00
NLC0990          FLOW         ""               FLOW     1.0      1.0      1.00
NLN0430          FLOW         ""               FLOW     1.0      1.0      1.00
NLG0450          FLOW         ""               FLOW     1.0      1.0      1.00
NLK0010          FLOW         ""               FLOW     1.0      1.0      1.00
NLC2170          FLOW         ""               FLOW     1.0      1.0      1.00
NLC1490          FLOW         ""               FLOW     1.0      1.0      1.00
NLD0210          FLOW         ""               FLOW     1.0      1.0      1.00
NLP1550          FLOW         ""               FLOW     1.0      1.0      1.00
NLZ0080          FLOW         ""               FLOW     1.0      1.0      1.00
NLH1170          FLOW         ""               FLOW     1.0      1.0      1.00
NLH2760          FLOW         ""               FLOW     1.0      1.0      1.00
NLH2660          FLOW         ""               FLOW     1.0      1.0      1.00
NLH2100          FLOW         ""               FLOW     1.0      1.0      1.00
NLH2200          FLOW         ""               FLOW     1.0      1.0      1.00
NLO0170          FLOW         ""               FLOW     1.0      1.0      1.00
NLH1680          FLOW         ""               FLOW     1.0      1.0      1.00
NLH0090          FLOW         ""               FLOW     1.0      1.0      1.00
NLH1330          FLOW         ""               FLOW     1.0      1.0      1.00
NLH2540          FLOW         ""               FLOW     1.0      1.0      1.00
NLH1640          FLOW         ""               FLOW     1.0      1.0      1.00
NLH1800          FLOW         ""               FLOW     1.0      1.0      1.00
NLZ0200          FLOW         ""               FLOW     1.0      1.0      1.00
NLH0030          FLOW         ""               FLOW     1.0      1.0      1.00
NLH1490          FLOW         ""               FLOW     1.0      1.0      1.00
NLL0110          FLOW         ""               FLOW     1.0      1.0      1.00
NLL0190          FLOW         ""               FLOW     1.0      1.0      1.00
NLJ1940          FLOW         ""               FLOW     1.0      1.0      1.00
NLJ1620          FLOW         ""               FLOW     1.0      1.0      1.00
NLJ2700          FLOW         ""               FLOW     1.0      1.0      1.00
NLJ1800          FLOW         ""               FLOW     1.0      1.0      1.00
NLJ1900          FLOW         ""               FLOW     1.0      1.0      1.00
NLJ1840          FLOW         ""               FLOW     1.0      1.0      1.00
NLJ1700          FLOW         ""               FLOW     1.0      1.0      1.00
NLJ2140          FLOW         ""               FLOW     1.0      1.0      1.00
NLJ2420          FLOW         ""               FLOW     1.0      1.0      1.00
NLJ0130          FLOW         ""               FLOW     1.0      1.0      1.00
NLJ1360          FLOW         ""               FLOW     1.0      1.0      1.00
NLJ2060          FLOW         ""               FLOW     1.0      1.0      1.00
NLJ2860          FLOW         ""               FLOW     1.0      1.0      1.00
NLO0090          FLOW         ""               FLOW     1.0      1.0      1.00
NLJ0010          FLOW         ""               FLOW     1.0      1.0      1.00
NLJ1882          FLOW         ""               FLOW     1.0      1.0      1.00
NLJ2380          FLOW         ""               FLOW     1.0      1.0      1.00
NLJ2640          FLOW         ""               FLOW     1.0      1.0      1.00
NLL0050          FLOW         ""               FLOW     1.0      1.0      1.00
NLL0290          FLOW         ""               FLOW     1.0      1.0      1.00
NLJ1907          FLOW         ""               FLOW     1.0      1.0      1.00
HW_67            FLOW         ""               FLOW     1.0      1.0      1.00
HW_65            FLOW         ""               FLOW     1.0      1.0      1.00
HW_66            FLOW         ""               FLOW     1.0      1.0      1.00
HW_63            FLOW         ""               FLOW     1.0      1.0      1.00
HW_61            FLOW         ""               FLOW     1.0      1.0      1.00
HW_14            FLOW         ""               FLOW     1.0      1.0      1.00
HW_94            FLOW         ""               FLOW     1.0      1.0      1.00
HW_60            FLOW         ""               FLOW     1.0      1.0      1.00
HW_67_2          FLOW         ""               FLOW     1.0      1.0      1.00
HW_70            FLOW         ""               FLOW     1.0      1.0      1.00
HW_75_2          FLOW         ""               FLOW     1.0      1.0      1.00
HW_74            FLOW         ""               FLOW     1.0      1.0      1.00
HW_78            FLOW         ""               FLOW     1.0      1.0      1.00
HW_83            FLOW         ""               FLOW     1.0      1.0      1.00
HW_84            FLOW         ""               FLOW     1.0      1.0      1.00
HW_85            FLOW         ""               FLOW     1.0      1.0      1.00
HW_86            FLOW         ""               FLOW     1.0      1.0      1.00
HW_87            FLOW         ""               FLOW     1.0      1.0      1.00
HW_08            FLOW         ""               FLOW     1.0      1.0      1.00
HW_23            FLOW         ""               FLOW     1.0      1.0      1.00
HW_91_2          FLOW         ""               FLOW     1.0      1.0      1.00
HW_12            FLOW         ""               FLOW     1.0      1.0      1.00
HW_10_2          FLOW         ""               FLOW     1.0      1.0      1.00
HW_09_2          FLOW         ""               FLOW     1.0      1.0      1.00
HW_32            FLOW         ""               FLOW     1.0      1.0      1.00
HW_37            FLOW         ""               FLOW     1.0      1.0      1.00
HW_41            FLOW         ""               FLOW     1.0      1.0      1.00
HW_54_2          FLOW         ""               FLOW     1.0      1.0      1.00
HW_63_2          FLOW         ""               FLOW     1.0      1.0      1.00
HW_14_4          FLOW         ""               FLOW     1.0      1.0      1.00
HW_58_2          FLOW         ""               FLOW     1.0      1.0      1.00
HW_59            FLOW         ""               FLOW     1.0      1.0      1.00
HW_65_2          FLOW         ""               FLOW     1.0      1.0      1.00
HW_64_2          FLOW         ""               FLOW     1.0      1.0      1.00
HW_66_2          FLOW         ""               FLOW     1.0      1.0      1.00
HW_67_3          FLOW         ""               FLOW     1.0      1.0      1.00
HW_68            FLOW         ""               FLOW     1.0      1.0      1.00
HW_70_2          FLOW         ""               FLOW     1.0      1.0      1.00
HW_73_2          FLOW         ""               FLOW     1.0      1.0      1.00
HW_75_3          FLOW         ""               FLOW     1.0      1.0      1.00
HW_78_2          FLOW         ""               FLOW     1.0      1.0      1.00
HW_48            FLOW         ""               FLOW     1.0      1.0      1.00
HW_80            FLOW         ""               FLOW     1.0      1.0      1.00
HW_79            FLOW         ""               FLOW     1.0      1.0      1.00
HW_84_2          FLOW         ""               FLOW     1.0      1.0      1.00
HW_86_2          FLOW         ""               FLOW     1.0      1.0      1.00
HW_82_2          FLOW         ""               FLOW     1.0      1.0      1.00
HW_88_2          FLOW         ""               FLOW     1.0      1.0      1.00
HW_69_2          FLOW         ""               FLOW     1.0      1.0      1.00
HW_05_2          FLOW         ""               FLOW     1.0      1.0      1.00
HW_93_2          FLOW         ""               FLOW     1.0      1.0      1.00
HW_50_2          FLOW         ""               FLOW     1.0      1.0      1.00
HW_53_3          FLOW         ""               FLOW     1.0      1.0      1.00
HW_96_2          FLOW         ""               FLOW     1.0      1.0      1.00
HW_44            FLOW         ""               FLOW     1.0      1.0      1.00
HW_97            FLOW         ""               FLOW     1.0      1.0      1.00
HW_98_2          FLOW         ""               FLOW     1.0      1.0      1.00
HW_01            FLOW         ""               FLOW     1.0      1.0      1.00
HW_00_2          FLOW         ""               FLOW     1.0      1.0      1.00
HW_04_3          FLOW         ""               FLOW     1.0      1.0      1.00
HW_06_2          FLOW         ""               FLOW     1.0      1.0      1.00
HW_05_3          FLOW         ""               FLOW     1.0      1.0      1.00
HW_09_3          FLOW         ""               FLOW     1.0      1.0      1.00
HW_95            FLOW         ""               FLOW     1.0      1.0      1.00
HW_38            FLOW         ""               FLOW     1.0      1.0      1.00
HW_11_2          FLOW         ""               FLOW     1.0      1.0      1.00
HW_82_3          FLOW         ""               FLOW     1.0      1.0      1.00
HW_12_2          FLOW         ""               FLOW     1.0      1.0      1.00
HW_15            FLOW         ""               FLOW     1.0      1.0      1.00
HW_20_2          FLOW         ""               FLOW     1.0      1.0      1.00
HW_71            FLOW         ""               FLOW     1.0      1.0      1.00
HW_09_4          FLOW         ""               FLOW     1.0      1.0      1.00
HW_71_2          FLOW         ""               FLOW     1.0      1.0      1.00
HW_27            FLOW         ""               FLOW     1.0      1.0      1.00
HW_29_2          FLOW         ""               FLOW     1.0      1.0      1.00
HW_26_2          FLOW         ""               FLOW     1.0      1.0      1.00
HW_51_3          FLOW         ""               FLOW     1.0      1.0      1.00
HW_32_2          FLOW         ""               FLOW     1.0      1.0      1.00
HW_36            FLOW         ""               FLOW     1.0      1.0      1.00
HW_38_2          FLOW         ""               FLOW     1.0      1.0      1.00
HW_96_3          FLOW         ""               FLOW     1.0      1.0      1.00
HW_31_3          FLOW         ""               FLOW     1.0      1.0      1.00
HW_53_4          FLOW         ""               FLOW     1.0      1.0      1.00
HW_55_3          FLOW         ""               FLOW     1.0      1.0      1.00
HW_23_2          FLOW         ""               FLOW     1.0      1.0      1.00
HW_57_2          FLOW         ""               FLOW     1.0      1.0      1.00
HW_59_2          FLOW         ""               FLOW     1.0      1.0      1.00
HW_58_3          FLOW         ""               FLOW     1.0      1.0      1.00
HW_54_3          FLOW         ""               FLOW     1.0      1.0      1.00
HW_52_2          FLOW         ""               FLOW     1.0      1.0      1.00
HW_83_2          FLOW         ""               FLOW     1.0      1.0      1.00
HW_84_3          FLOW         ""               FLOW     1.0      1.0      1.00
HW_85_2          FLOW         ""               FLOW     1.0      1.0      1.00
HW_86_3          FLOW         ""               FLOW     1.0      1.0      1.00
HW_87_2          FLOW         ""               FLOW     1.0      1.0      1.00
HW_89_2          FLOW         ""               FLOW     1.0      1.0      1.00
HW_93_3          FLOW         ""               FLOW     1.0      1.0      1.00
HW_91_3          FLOW         ""               FLOW     1.0      1.0      1.00
HW_98_3          FLOW         ""               FLOW     1.0      1.0      1.00
HW_36_2          FLOW         ""               FLOW     1.0      1.0      1.00
HW_03_2          FLOW         ""               FLOW     1.0      1.0      1.00
HW_02_2          FLOW         ""               FLOW     1.0      1.0      1.00
HW_04_4          FLOW         ""               FLOW     1.0      1.0      1.00
HW_05_4          FLOW         ""               FLOW     1.0      1.0      1.00
HW_06_3          FLOW         ""               FLOW     1.0      1.0      1.00
HW_21            FLOW         ""               FLOW     1.0      1.0      1.00
HW_16_2          FLOW         ""               FLOW     1.0      1.0      1.00
HW_10_3          FLOW         ""               FLOW     1.0      1.0      1.00
HW_13_2          FLOW         ""               FLOW     1.0      1.0      1.00
HW_12_3          FLOW         ""               FLOW     1.0      1.0      1.00
HW_17_3          FLOW         ""               FLOW     1.0      1.0      1.00
HW_23_3          FLOW         ""               FLOW     1.0      1.0      1.00
HW_24            FLOW         ""               FLOW     1.0      1.0      1.00
HW_51_5          FLOW         ""               FLOW     1.0      1.0      1.00
HW_58_4          FLOW         ""               FLOW     1.0      1.0      1.00
HW_59_3          FLOW         ""               FLOW     1.0      1.0      1.00
HW_68_3          FLOW         ""               FLOW     1.0      1.0      1.00
HW_82_4          FLOW         ""               FLOW     1.0      1.0      1.00
HW_88_3          FLOW         ""               FLOW     1.0      1.0      1.00
HW_93_4          FLOW         ""               FLOW     1.0      1.0      1.00
HW_89_3          FLOW         ""               FLOW     1.0      1.0      1.00
HW_27_4          FLOW         ""               FLOW     1.0      1.0      1.00
HW_37_3          FLOW         ""               FLOW     1.0      1.0      1.00
HW_36_4          FLOW         ""               FLOW     1.0      1.0      1.00
HW_99_2          FLOW         ""               FLOW     1.0      1.0      1.00
HW_45_4          FLOW         ""               FLOW     1.0      1.0      1.00
HW_46_4          FLOW         ""               FLOW     1.0      1.0      1.00
HW_29_6          FLOW         ""               FLOW     1.0      1.0      1.00
HW_76_3          FLOW         ""               FLOW     1.0      1.0      1.00
HW_16_3          FLOW         ""               FLOW     1.0      1.0      1.00
HW_87_4          FLOW         ""               FLOW     1.0      1.0      1.00
HW_25_2          FLOW         ""               FLOW     1.0      1.0      1.00
HW_12_4          FLOW         ""               FLOW     1.0      1.0      1.00
HW_58_5          FLOW         ""               FLOW     1.0      1.0      1.00
HW_38_3          FLOW         ""               FLOW     1.0      1.0      1.00
HW_18_3          FLOW         ""               FLOW     1.0      1.0      1.00
HW_61_4          FLOW         ""               FLOW     1.0      1.0      1.00
HW_19_3          FLOW         ""               FLOW     1.0      1.0      1.00
HW_25_3          FLOW         ""               FLOW     1.0      1.0      1.00
HW_20_5          FLOW         ""               FLOW     1.0      1.0      1.00
HW_22_2          FLOW         ""               FLOW     1.0      1.0      1.00
HW_99_4          FLOW         ""               FLOW     1.0      1.0      1.00
HW_21_2          FLOW         ""               FLOW     1.0      1.0      1.00
HW_27_5          FLOW         ""               FLOW     1.0      1.0      1.00
HW_34_4          FLOW         ""               FLOW     1.0      1.0      1.00
HW_94_2          FLOW         ""               FLOW     1.0      1.0      1.00
HW_50_5          FLOW         ""               FLOW     1.0      1.0      1.00
HW_58_6          FLOW         ""               FLOW     1.0      1.0      1.00
HW_59_4          FLOW         ""               FLOW     1.0      1.0      1.00
HW_65_5          FLOW         ""               FLOW     1.0      1.0      1.00
HW_66_4          FLOW         ""               FLOW     1.0      1.0      1.00
HW_68_4          FLOW         ""               FLOW     1.0      1.0      1.00
HW_71_4          FLOW         ""               FLOW     1.0      1.0      1.00
HW_74_3          FLOW         ""               FLOW     1.0      1.0      1.00
HW_75_5          FLOW         ""               FLOW     1.0      1.0      1.00
HW_76_4          FLOW         ""               FLOW     1.0      1.0      1.00
HW_77_4          FLOW         ""               FLOW     1.0      1.0      1.00
HW_72_2          FLOW         ""               FLOW     1.0      1.0      1.00
HW_80_3          FLOW         ""               FLOW     1.0      1.0      1.00
HW_78_5          FLOW         ""               FLOW     1.0      1.0      1.00
HW_97_4          FLOW         ""               FLOW     1.0      1.0      1.00
HW_00_6          FLOW         ""               FLOW     1.0      1.0      1.00
HW_01_4          FLOW         ""               FLOW     1.0      1.0      1.00
HW_03_4          FLOW         ""               FLOW     1.0      1.0      1.00
HW_92_2          FLOW         ""               FLOW     1.0      1.0      1.00
HW_10_5          FLOW         ""               FLOW     1.0      1.0      1.00
HW_11_3          FLOW         ""               FLOW     1.0      1.0      1.00
HW_10_6          FLOW         ""               FLOW     1.0      1.0      1.00
HW_12_5          FLOW         ""               FLOW     1.0      1.0      1.00
HW_15_3          FLOW         ""               FLOW     1.0      1.0      1.00
HW_07_3          FLOW         ""               FLOW     1.0      1.0      1.00
HW_81_2          FLOW         ""               FLOW     1.0      1.0      1.00
HW_25_4          FLOW         ""               FLOW     1.0      1.0      1.00
HW_76_5          FLOW         ""               FLOW     1.0      1.0      1.00
HW_33_3          FLOW         ""               FLOW     1.0      1.0      1.00
HW_52_3          FLOW         ""               FLOW     1.0      1.0      1.00
HW_33_4          FLOW         ""               FLOW     1.0      1.0      1.00
HW_41_6          FLOW         ""               FLOW     1.0      1.0      1.00
HW_25_5          FLOW         ""               FLOW     1.0      1.0      1.00
HW_24_3          FLOW         ""               FLOW     1.0      1.0      1.00
HW_74_4          FLOW         ""               FLOW     1.0      1.0      1.00
HW_77_5          FLOW         ""               FLOW     1.0      1.0      1.00
HW_80_4          FLOW         ""               FLOW     1.0      1.0      1.00
HW_35_4          FLOW         ""               FLOW     1.0      1.0      1.00
HW_49_7          FLOW         ""               FLOW     1.0      1.0      1.00
HW_30_3          FLOW         ""               FLOW     1.0      1.0      1.00
HW_18_4          FLOW         ""               FLOW     1.0      1.0      1.00
HW_32_6          FLOW         ""               FLOW     1.0      1.0      1.00
HW_31_6          FLOW         ""               FLOW     1.0      1.0      1.00
HW_35_5          FLOW         ""               FLOW     1.0      1.0      1.00
HW_44_4          FLOW         ""               FLOW     1.0      1.0      1.00
HW_36_5          FLOW         ""               FLOW     1.0      1.0      1.00
HW_20_6          FLOW         ""               FLOW     1.0      1.0      1.00
HW_37_4          FLOW         ""               FLOW     1.0      1.0      1.00
HW_44_5          FLOW         ""               FLOW     1.0      1.0      1.00
HW_38_4          FLOW         ""               FLOW     1.0      1.0      1.00
HW_17_4          FLOW         ""               FLOW     1.0      1.0      1.00
HW_21_3          FLOW         ""               FLOW     1.0      1.0      1.00
HW_40_2          FLOW         ""               FLOW     1.0      1.0      1.00
HW_90_4          FLOW         ""               FLOW     1.0      1.0      1.00
HW_92_4          FLOW         ""               FLOW     1.0      1.0      1.00
HW_73_4          FLOW         ""               FLOW     1.0      1.0      1.00
HW_16_4          FLOW         ""               FLOW     1.0      1.0      1.00
HW_17_5          FLOW         ""               FLOW     1.0      1.0      1.00
HW_20_7          FLOW         ""               FLOW     1.0      1.0      1.00
HW_19_4          FLOW         ""               FLOW     1.0      1.0      1.00
HW_21_4          FLOW         ""               FLOW     1.0      1.0      1.00
HW_22_4          FLOW         ""               FLOW     1.0      1.0      1.00
HW_23_5          FLOW         ""               FLOW     1.0      1.0      1.00
HW_24_4          FLOW         ""               FLOW     1.0      1.0      1.00
HW_10_8          FLOW         ""               FLOW     1.0      1.0      1.00
HW_52_4          FLOW         ""               FLOW     1.0      1.0      1.00
HW_89_5          FLOW         ""               FLOW     1.0      1.0      1.00
HW_54_5          FLOW         ""               FLOW     1.0      1.0      1.00
HW_55_5          FLOW         ""               FLOW     1.0      1.0      1.00
HW_56_5          FLOW         ""               FLOW     1.0      1.0      1.00
HW_58_7          FLOW         ""               FLOW     1.0      1.0      1.00
HW_59_5          FLOW         ""               FLOW     1.0      1.0      1.00
HW_90_5          FLOW         ""               FLOW     1.0      1.0      1.00
HW_81_3          FLOW         ""               FLOW     1.0      1.0      1.00
HW_42_6          FLOW         ""               FLOW     1.0      1.0      1.00
HW_45_7          FLOW         ""               FLOW     1.0      1.0      1.00
HW_46_6          FLOW         ""               FLOW     1.0      1.0      1.00
HW_47_4          FLOW         ""               FLOW     1.0      1.0      1.00
HW_68_6          FLOW         ""               FLOW     1.0      1.0      1.00
HW_55_6          FLOW         ""               FLOW     1.0      1.0      1.00
HW_57_5          FLOW         ""               FLOW     1.0      1.0      1.00
HW_58_8          FLOW         ""               FLOW     1.0      1.0      1.00
HW_59_6          FLOW         ""               FLOW     1.0      1.0      1.00
HW_61_5          FLOW         ""               FLOW     1.0      1.0      1.00
HW_64_6          FLOW         ""               FLOW     1.0      1.0      1.00
HW_67_6          FLOW         ""               FLOW     1.0      1.0      1.00
HW_69_4          FLOW         ""               FLOW     1.0      1.0      1.00
HW_33_6          FLOW         ""               FLOW     1.0      1.0      1.00
HW_70_5          FLOW         ""               FLOW     1.0      1.0      1.00
HW_08_6          FLOW         ""               FLOW     1.0      1.0      1.00
HW_73_5          FLOW         ""               FLOW     1.0      1.0      1.00
HW_73_6          FLOW         ""               FLOW     1.0      1.0      1.00
HW_74_5          FLOW         ""               FLOW     1.0      1.0      1.00
HW_76_7          FLOW         ""               FLOW     1.0      1.0      1.00
HW_77_6          FLOW         ""               FLOW     1.0      1.0      1.00
HW_77_7          FLOW         ""               FLOW     1.0      1.0      1.00
HW_79_4          FLOW         ""               FLOW     1.0      1.0      1.00
HW_80_5          FLOW         ""               FLOW     1.0      1.0      1.00
HW_82_5          FLOW         ""               FLOW     1.0      1.0      1.00
HW_83_4          FLOW         ""               FLOW     1.0      1.0      1.00
HW_72_3          FLOW         ""               FLOW     1.0      1.0      1.00
HW_86_6          FLOW         ""               FLOW     1.0      1.0      1.00
HW_24_5          FLOW         ""               FLOW     1.0      1.0      1.00
HW_89_6          FLOW         ""               FLOW     1.0      1.0      1.00
HW_71_6          FLOW         ""               FLOW     1.0      1.0      1.00
HW_70_6          FLOW         ""               FLOW     1.0      1.0      1.00
HW_22_5          FLOW         ""               FLOW     1.0      1.0      1.00
HW_90_6          FLOW         ""               FLOW     1.0      1.0      1.00
HW_47_5          FLOW         ""               FLOW     1.0      1.0      1.00
HW_12_7          FLOW         ""               FLOW     1.0      1.0      1.00
HW_12_8          FLOW         ""               FLOW     1.0      1.0      1.00
HW_16_5          FLOW         ""               FLOW     1.0      1.0      1.00
HW_46_7          FLOW         ""               FLOW     1.0      1.0      1.00
HW_69_5          FLOW         ""               FLOW     1.0      1.0      1.00
HW_35_6          FLOW         ""               FLOW     1.0      1.0      1.00
HW_07_6          FLOW         ""               FLOW     1.0      1.0      1.00
HW_83_5          FLOW         ""               FLOW     1.0      1.0      1.00
HW_10_9          FLOW         ""               FLOW     1.0      1.0      1.00
HW_13_6          FLOW         ""               FLOW     1.0      1.0      1.00
HW_25_7          FLOW         ""               FLOW     1.0      1.0      1.00
HW_60_6          FLOW         ""               FLOW     1.0      1.0      1.00
HW_98_8          FLOW         ""               FLOW     1.0      1.0      1.00
HW_99_5          FLOW         ""               FLOW     1.0      1.0      1.00
HW_50_7          FLOW         ""               FLOW     1.0      1.0      1.00
HW_40_3          FLOW         ""               FLOW     1.0      1.0      1.00
HW_81_4          FLOW         ""               FLOW     1.0      1.0      1.00
HW_08_7          FLOW         ""               FLOW     1.0      1.0      1.00
HW_85_4          FLOW         ""               FLOW     1.0      1.0      1.00
HW_005MRLH2060   FLOW         ""               FLOW     1.0      1.0      1.00
HW_26_6          FLOW         ""               FLOW     1.0      1.0      1.00
HW_28_5          FLOW         ""               FLOW     1.0      1.0      1.00
HW_12_9          FLOW         ""               FLOW     1.0      1.0      1.00
HW_34_5          FLOW         ""               FLOW     1.0      1.0      1.00
HW_33_7          FLOW         ""               FLOW     1.0      1.0      1.00
HW_50_8          FLOW         ""               FLOW     1.0      1.0      1.00
HW_87_7          FLOW         ""               FLOW     1.0      1.0      1.00
HW_62_4          FLOW         ""               FLOW     1.0      1.0      1.00
HW_66_7          FLOW         ""               FLOW     1.0      1.0      1.00
HW_51_8          FLOW         ""               FLOW     1.0      1.0      1.00
HW_003MRLH1840   FLOW         ""               FLOW     1.0      1.0      1.00
HW_91_6          FLOW         ""               FLOW     1.0      1.0      1.00
HW_008MRLH1720   FLOW         ""               FLOW     1.0      1.0      1.00
HW_42_7          FLOW         ""               FLOW     1.0      1.0      1.00
HW_039MRLH1660   FLOW         ""               FLOW     1.0      1.0      1.00
HW_90_8          FLOW         ""               FLOW     1.0      1.0      1.00
HW_38_5          FLOW         ""               FLOW     1.0      1.0      1.00
HW_015MRLO0030   FLOW         ""               FLOW     1.0      1.0      1.00
HW_78_6          FLOW         ""               FLOW     1.0      1.0      1.00
HW_15_5          FLOW         ""               FLOW     1.0      1.0      1.00
HW_032MRLH2440   FLOW         ""               FLOW     1.0      1.0      1.00
HW_54_6          FLOW         ""               FLOW     1.0      1.0      1.00
HW_74_6          FLOW         ""               FLOW     1.0      1.0      1.00
HW_75_8          FLOW         ""               FLOW     1.0      1.0      1.00
HW_017MRLH0030   FLOW         ""               FLOW     1.0      1.0      1.00
HW_41_7          FLOW         ""               FLOW     1.0      1.0      1.00
HW_031MRLH2400   FLOW         ""               FLOW     1.0      1.0      1.00
HW_018MRLH1350   FLOW         ""               FLOW     1.0      1.0      1.00
HW_73_9          FLOW         ""               FLOW     1.0      1.0      1.00
HW_31_7          FLOW         ""               FLOW     1.0      1.0      1.00
HW_14_6          FLOW         ""               FLOW     1.0      1.0      1.00
HW_035MRLH0110   FLOW         ""               FLOW     1.0      1.0      1.00
HW_040MRLH1430   FLOW         ""               FLOW     1.0      1.0      1.00
HW_012MRLZ0200   FLOW         ""               FLOW     1.0      1.0      1.00
HW_29_7          FLOW         ""               FLOW     1.0      1.0      1.00
HW_011MRLH1765   FLOW         ""               FLOW     1.0      1.0      1.00
HW_001MRLH2740   FLOW         ""               FLOW     1.0      1.0      1.00
HW_95_5          FLOW         ""               FLOW     1.0      1.0      1.00
HW_15_6          FLOW         ""               FLOW     1.0      1.0      1.00
HW_18_7          FLOW         ""               FLOW     1.0      1.0      1.00
HW_96_5          FLOW         ""               FLOW     1.0      1.0      1.00
HW_81_5          FLOW         ""               FLOW     1.0      1.0      1.00
HW_11_5          FLOW         ""               FLOW     1.0      1.0      1.00
HW_33_9          FLOW         ""               FLOW     1.0      1.0      1.00
HW_35_7          FLOW         ""               FLOW     1.0      1.0      1.00
HW_40_5          FLOW         ""               FLOW     1.0      1.0      1.00
HW_72_5          FLOW         ""               FLOW     1.0      1.0      1.00
HW_77_8          FLOW         ""               FLOW     1.0      1.0      1.00
HW_74_7          FLOW         ""               FLOW     1.0      1.0      1.00
HW_85_6          FLOW         ""               FLOW     1.0      1.0      1.00
HW_03_7          FLOW         ""               FLOW     1.0      1.0      1.00
HW_02_8          FLOW         ""               FLOW     1.0      1.0      1.00
HW_37_6          FLOW         ""               FLOW     1.0      1.0      1.00
HW_34_6          FLOW         ""               FLOW     1.0      1.0      1.00
HW_56_8          FLOW         ""               FLOW     1.0      1.0      1.00
HW_80_8          FLOW         ""               FLOW     1.0      1.0      1.00
HW_82_6          FLOW         ""               FLOW     1.0      1.0      1.00
HW_88_6          FLOW         ""               FLOW     1.0      1.0      1.00
HW_92_6          FLOW         ""               FLOW     1.0      1.0      1.00
HW_16_7          FLOW         ""               FLOW     1.0      1.0      1.00
HW_15_7          FLOW         ""               FLOW     1.0      1.0      1.00
HW_18_8          FLOW         ""               FLOW     1.0      1.0      1.00
HW_25_8          FLOW         ""               FLOW     1.0      1.0      1.00
HW_19_7          FLOW         ""               FLOW     1.0      1.0      1.00
HW_62_5          FLOW         ""               FLOW     1.0      1.0      1.00
HW_78_7          FLOW         ""               FLOW     1.0      1.0      1.00
HW_72_6          FLOW         ""               FLOW     1.0      1.0      1.00
HW_84_7          FLOW         ""               FLOW     1.0      1.0      1.00
HW_001MRLH2740A  FLOW         ""               FLOW     1.0      1.0      1.00
HW_94_7          FLOW         ""               FLOW     1.0      1.0      1.00
HW_95_6          FLOW         ""               FLOW     1.0      1.0      1.00
HW_93_7          FLOW         ""               FLOW     1.0      1.0      1.00
HW_61_7          FLOW         ""               FLOW     1.0      1.0      1.00
HW_55_7          FLOW         ""               FLOW     1.0      1.0      1.00
HW_52_5          FLOW         ""               FLOW     1.0      1.0      1.00
HW_54_7          FLOW         ""               FLOW     1.0      1.0      1.00
HW_27_6          FLOW         ""               FLOW     1.0      1.0      1.00
HW_11_6          FLOW         ""               FLOW     1.0      1.0      1.00
HW_13_7          FLOW         ""               FLOW     1.0      1.0      1.00
HW_62_6          FLOW         ""               FLOW     1.0      1.0      1.00
HW_60_7          FLOW         ""               FLOW     1.0      1.0      1.00
HW_93_8          FLOW         ""               FLOW     1.0      1.0      1.00
HW_79_6          FLOW         ""               FLOW     1.0      1.0      1.00
HW_27_7          FLOW         ""               FLOW     1.0      1.0      1.00
HW_38_8          FLOW         ""               FLOW     1.0      1.0      1.00
HW_50_9          FLOW         ""               FLOW     1.0      1.0      1.00
HW_62_7          FLOW         ""               FLOW     1.0      1.0      1.00
HW_71_8          FLOW         ""               FLOW     1.0      1.0      1.00
HW_83_7          FLOW         ""               FLOW     1.0      1.0      1.00
HW_90_9          FLOW         ""               FLOW     1.0      1.0      1.00
HW_91_8          FLOW         ""               FLOW     1.0      1.0      1.00
HW_91_9          FLOW         ""               FLOW     1.0      1.0      1.00
HW_72_7          FLOW         ""               FLOW     1.0      1.0      1.00
HW_17_8          FLOW         ""               FLOW     1.0      1.0      1.00
HW_28_8          FLOW         ""               FLOW     1.0      1.0      1.00
HW_30_7          FLOW         ""               FLOW     1.0      1.0      1.00
HW_39_7          FLOW         ""               FLOW     1.0      1.0      1.00
HW_40_8          FLOW         ""               FLOW     1.0      1.0      1.00
HW_07_8          FLOW         ""               FLOW     1.0      1.0      1.00
HW_14_8          FLOW         ""               FLOW     1.0      1.0      1.00
HW_22_7          FLOW         ""               FLOW     1.0      1.0      1.00
HW_73_10         FLOW         ""               FLOW     1.0      1.0      1.00
HW_36_7          FLOW         ""               FLOW     1.0      1.0      1.00
HW_12_10         FLOW         ""               FLOW     1.0      1.0      1.00
HW_81_7          FLOW         ""               FLOW     1.0      1.0      1.00
HW_79_7          FLOW         ""               FLOW     1.0      1.0      1.00
HW_96_6          FLOW         ""               FLOW     1.0      1.0      1.00
HW_99_8          FLOW         ""               FLOW     1.0      1.0      1.00
HW_71_9          FLOW         ""               FLOW     1.0      1.0      1.00
HW_43_7          FLOW         ""               FLOW     1.0      1.0      1.00
HW_68_9          FLOW         ""               FLOW     1.0      1.0      1.00
HW_85_8          FLOW         ""               FLOW     1.0      1.0      1.00
HW_15_8          FLOW         ""               FLOW     1.0      1.0      1.00
HW_102MOLJ2280B  FLOW         ""               FLOW     1.0      1.0      1.00
HW_25_10         FLOW         ""               FLOW     1.0      1.0      1.00
HW_09_8          FLOW         ""               FLOW     1.0      1.0      1.00
HW_11_7          FLOW         ""               FLOW     1.0      1.0      1.00
HW_11_8          FLOW         ""               FLOW     1.0      1.0      1.00
HW_11_9          FLOW         ""               FLOW     1.0      1.0      1.00
HW_85_9          FLOW         ""               FLOW     1.0      1.0      1.00
HW_78_8          FLOW         ""               FLOW     1.0      1.0      1.00
HW_15_9          FLOW         ""               FLOW     1.0      1.0      1.00
HW_10_10         FLOW         ""               FLOW     1.0      1.0      1.00
HW_15_10         FLOW         ""               FLOW     1.0      1.0      1.00
HW_85_10         FLOW         ""               FLOW     1.0      1.0      1.00
HW_10_11         FLOW         ""               FLOW     1.0      1.0      1.00
HW_10_12         FLOW         ""               FLOW     1.0      1.0      1.00
HW_85_11         FLOW         ""               FLOW     1.0      1.0      1.00
HW_11_10         FLOW         ""               FLOW     1.0      1.0      1.00
HW_13_9          FLOW         ""               FLOW     1.0      1.0      1.00
HW_81_8          FLOW         ""               FLOW     1.0      1.0      1.00
HW_07_9          FLOW         ""               FLOW     1.0      1.0      1.00
HW_11_11         FLOW         ""               FLOW     1.0      1.0      1.00
HW_016MOLO0010B  FLOW         ""               FLOW     1.0      1.0      1.00
HW_008MOLH1720   FLOW         ""               FLOW     1.0      1.0      1.00
HW_54_8          FLOW         ""               FLOW     1.0      1.0      1.00
HW_89_8          FLOW         ""               FLOW     1.0      1.0      1.00
HW_41_9          FLOW         ""               FLOW     1.0      1.0      1.00
HW_41_10         FLOW         ""               FLOW     1.0      1.0      1.00
HW_88_7          FLOW         ""               FLOW     1.0      1.0      1.00
HW_98_9          FLOW         ""               FLOW     1.0      1.0      1.00
HW_008MOLH1720B  FLOW         ""               FLOW     1.0      1.0      1.00
HW_82_7          FLOW         ""               FLOW     1.0      1.0      1.00
HW_032MOLH2440A  FLOW         ""               FLOW     1.0      1.0      1.00
HW_28_9          FLOW         ""               FLOW     1.0      1.0      1.00
HW_012MOLZ0200A  FLOW         ""               FLOW     1.0      1.0      1.00
HW_23_8          FLOW         ""               FLOW     1.0      1.0      1.00
HW_53_8          FLOW         ""               FLOW     1.0      1.0      1.00
HW_11_12         FLOW         ""               FLOW     1.0      1.0      1.00
HW_31_9          FLOW         ""               FLOW     1.0      1.0      1.00
HW_98_10         FLOW         ""               FLOW     1.0      1.0      1.00
HW_95_8          FLOW         ""               FLOW     1.0      1.0      1.00
HW_036MOLH1450   FLOW         ""               FLOW     1.0      1.0      1.00
HW_31_10         FLOW         ""               FLOW     1.0      1.0      1.00
HW_53_9          FLOW         ""               FLOW     1.0      1.0      1.00
HW_018MOLH1350A  FLOW         ""               FLOW     1.0      1.0      1.00
HW_73_11         FLOW         ""               FLOW     1.0      1.0      1.00
HW_13_10         FLOW         ""               FLOW     1.0      1.0      1.00
HW_99_9          FLOW         ""               FLOW     1.0      1.0      1.00
HW_34_8          FLOW         ""               FLOW     1.0      1.0      1.00
HW_78_9          FLOW         ""               FLOW     1.0      1.0      1.00
HW_15_11         FLOW         ""               FLOW     1.0      1.0      1.00
HW_51_9          FLOW         ""               FLOW     1.0      1.0      1.00
HW_82_8          FLOW         ""               FLOW     1.0      1.0      1.00
HW_88_9          FLOW         ""               FLOW     1.0      1.0      1.00
HW_93_9          FLOW         ""               FLOW     1.0      1.0      1.00
HW_89_9          FLOW         ""               FLOW     1.0      1.0      1.00
HW_67_9          FLOW         ""               FLOW     1.0      1.0      1.00
HW_06_9          FLOW         ""               FLOW     1.0      1.0      1.00
HW_50_10         FLOW         ""               FLOW     1.0      1.0      1.00
HW_89_10         FLOW         ""               FLOW     1.0      1.0      1.00
HW_23_9          FLOW         ""               FLOW     1.0      1.0      1.00
HW_14_9          FLOW         ""               FLOW     1.0      1.0      1.00
HW_10_13         FLOW         ""               FLOW     1.0      1.0      1.00
HW_22_9          FLOW         ""               FLOW     1.0      1.0      1.00
HW_22_10         FLOW         ""               FLOW     1.0      1.0      1.00
HW_03_10         FLOW         ""               FLOW     1.0      1.0      1.00
HW_03_11         FLOW         ""               FLOW     1.0      1.0      1.00
HW_62_9          FLOW         ""               FLOW     1.0      1.0      1.00
HW_62_10         FLOW         ""               FLOW     1.0      1.0      1.00
HW_27_8          FLOW         ""               FLOW     1.0      1.0      1.00
HW_62_11         FLOW         ""               FLOW     1.0      1.0      1.00
HW_62_12         FLOW         ""               FLOW     1.0      1.0      1.00
HW_62_13         FLOW         ""               FLOW     1.0      1.0      1.00
HW_14_10         FLOW         ""               FLOW     1.0      1.0      1.00
HW_51_10         FLOW         ""               FLOW     1.0      1.0      1.00
HW_51_11         FLOW         ""               FLOW     1.0      1.0      1.00
HW_50_11         FLOW         ""               FLOW     1.0      1.0      1.00
HW_60_9          FLOW         ""               FLOW     1.0      1.0      1.00
HW_79_11         FLOW         ""               FLOW     1.0      1.0      1.00
HW_71_10         FLOW         ""               FLOW     1.0      1.0      1.00
HW_85_13         FLOW         ""               FLOW     1.0      1.0      1.00
HW_33_10         FLOW         ""               FLOW     1.0      1.0      1.00
HW_59_9          FLOW         ""               FLOW     1.0      1.0      1.00
HW_71_11         FLOW         ""               FLOW     1.0      1.0      1.00
HW_59_10         FLOW         ""               FLOW     1.0      1.0      1.00
HW_99_11         FLOW         ""               FLOW     1.0      1.0      1.00
HW_79_12         FLOW         ""               FLOW     1.0      1.0      1.00
HW_17_9          FLOW         ""               FLOW     1.0      1.0      1.00
HW_71_12         FLOW         ""               FLOW     1.0      1.0      1.00
HW_71_13         FLOW         ""               FLOW     1.0      1.0      1.00
HW_53_10         FLOW         ""               FLOW     1.0      1.0      1.00
HW_58_11         FLOW         ""               FLOW     1.0      1.0      1.00
HW_26_9          FLOW         ""               FLOW     1.0      1.0      1.00
HW_28_10         FLOW         ""               FLOW     1.0      1.0      1.00
HW_28_11         FLOW         ""               FLOW     1.0      1.0      1.00
HW_33_11         FLOW         ""               FLOW     1.0      1.0      1.00
HW_79_13         FLOW         ""               FLOW     1.0      1.0      1.00
HW_79_14         FLOW         ""               FLOW     1.0      1.0      1.00
HW_58_12         FLOW         ""               FLOW     1.0      1.0      1.00
HW_58_13         FLOW         ""               FLOW     1.0      1.0      1.00
HW_71_14         FLOW         ""               FLOW     1.0      1.0      1.00
HW_71_15         FLOW         ""               FLOW     1.0      1.0      1.00
HW_72_9          FLOW         ""               FLOW     1.0      1.0      1.00
HW_72_10         FLOW         ""               FLOW     1.0      1.0      1.00
HW_68_10         FLOW         ""               FLOW     1.0      1.0      1.00
HW_82_9          FLOW         ""               FLOW     1.0      1.0      1.00
HW_53_11         FLOW         ""               FLOW     1.0      1.0      1.00
HW_95_10         FLOW         ""               FLOW     1.0      1.0      1.00
HW_26_10         FLOW         ""               FLOW     1.0      1.0      1.00
HW_33_12         FLOW         ""               FLOW     1.0      1.0      1.00
HW_67_10         FLOW         ""               FLOW     1.0      1.0      1.00
HW_67_11         FLOW         ""               FLOW     1.0      1.0      1.00
HW_53_12         FLOW         ""               FLOW     1.0      1.0      1.00
HW_95_11         FLOW         ""               FLOW     1.0      1.0      1.00
HW_31_11         FLOW         ""               FLOW     1.0      1.0      1.00
HW_82_10         FLOW         ""               FLOW     1.0      1.0      1.00
HW_96_8          FLOW         ""               FLOW     1.0      1.0      1.00
HW_52_8          FLOW         ""               FLOW     1.0      1.0      1.00
HW_67_12         FLOW         ""               FLOW     1.0      1.0      1.00
HW_76_8          FLOW         ""               FLOW     1.0      1.0      1.00
HW_19_12         FLOW         ""               FLOW     1.0      1.0      1.00
HW_19_13         FLOW         ""               FLOW     1.0      1.0      1.00
HW_90_11         FLOW         ""               FLOW     1.0      1.0      1.00
HW_90_12         FLOW         ""               FLOW     1.0      1.0      1.00
HW_50_16         FLOW         ""               FLOW     1.0      1.0      1.00
HW_62_14         FLOW         ""               FLOW     1.0      1.0      1.00
HW_38_9          FLOW         ""               FLOW     1.0      1.0      1.00
HW_38_10         FLOW         ""               FLOW     1.0      1.0      1.00
HW_38_11         FLOW         ""               FLOW     1.0      1.0      1.00
HW_79_15         FLOW         ""               FLOW     1.0      1.0      1.00
HW_50_17         FLOW         ""               FLOW     1.0      1.0      1.00
HW_50_18         FLOW         ""               FLOW     1.0      1.0      1.00
HW_89_11         FLOW         ""               FLOW     1.0      1.0      1.00
HW_89_12         FLOW         ""               FLOW     1.0      1.0      1.00
HW_89_13         FLOW         ""               FLOW     1.0      1.0      1.00
HW_23_10         FLOW         ""               FLOW     1.0      1.0      1.00
HW_25_12         FLOW         ""               FLOW     1.0      1.0      1.00
HW_09_9          FLOW         ""               FLOW     1.0      1.0      1.00
HW_23_11         FLOW         ""               FLOW     1.0      1.0      1.00
HW_10_14         FLOW         ""               FLOW     1.0      1.0      1.00
HW_09_10         FLOW         ""               FLOW     1.0      1.0      1.00
HW_40_11         FLOW         ""               FLOW     1.0      1.0      1.00
HW_98_12         FLOW         ""               FLOW     1.0      1.0      1.00
HW_99_12         FLOW         ""               FLOW     1.0      1.0      1.00
HW_38_12         FLOW         ""               FLOW     1.0      1.0      1.00
HW_02_14         FLOW         ""               FLOW     1.0      1.0      1.00
HW_17_11         FLOW         ""               FLOW     1.0      1.0      1.00
HW_38_13         FLOW         ""               FLOW     1.0      1.0      1.00
HW_07_15         FLOW         ""               FLOW     1.0      1.0      1.00
HW_17_12         FLOW         ""               FLOW     1.0      1.0      1.00
HW_01_12         FLOW         ""               FLOW     1.0      1.0      1.00
HW_17_13         FLOW         ""               FLOW     1.0      1.0      1.00
HW_17_14         FLOW         ""               FLOW     1.0      1.0      1.00
HW_21_9          FLOW         ""               FLOW     1.0      1.0      1.00
HW_40_12         FLOW         ""               FLOW     1.0      1.0      1.00
HW_05_15         FLOW         ""               FLOW     1.0      1.0      1.00
HW_02_15         FLOW         ""               FLOW     1.0      1.0      1.00
HW_21_10         FLOW         ""               FLOW     1.0      1.0      1.00
HW_02_16         FLOW         ""               FLOW     1.0      1.0      1.00
HW_39_12         FLOW         ""               FLOW     1.0      1.0      1.00
HW_39_13         FLOW         ""               FLOW     1.0      1.0      1.00
HW_39_14         FLOW         ""               FLOW     1.0      1.0      1.00
HW_27_9          FLOW         ""               FLOW     1.0      1.0      1.00
HW_22_11         FLOW         ""               FLOW     1.0      1.0      1.00
HW_22_12         FLOW         ""               FLOW     1.0      1.0      1.00
HW_68_11         FLOW         ""               FLOW     1.0      1.0      1.00
HW_21_11         FLOW         ""               FLOW     1.0      1.0      1.00
HW_05_16         FLOW         ""               FLOW     1.0      1.0      1.00
HW_05_17         FLOW         ""               FLOW     1.0      1.0      1.00
HW_32_9          FLOW         ""               FLOW     1.0      1.0      1.00
HW_83_9          FLOW         ""               FLOW     1.0      1.0      1.00
HW_83_10         FLOW         ""               FLOW     1.0      1.0      1.00
HW_81_9          FLOW         ""               FLOW     1.0      1.0      1.00
HW_81_10         FLOW         ""               FLOW     1.0      1.0      1.00
HW_79_16         FLOW         ""               FLOW     1.0      1.0      1.00
HW_50_19         FLOW         ""               FLOW     1.0      1.0      1.00
HW_81_11         FLOW         ""               FLOW     1.0      1.0      1.00
HW_86_10         FLOW         ""               FLOW     1.0      1.0      1.00
HW_82_11         FLOW         ""               FLOW     1.0      1.0      1.00
HW_85_14         FLOW         ""               FLOW     1.0      1.0      1.00
HW_50_20         FLOW         ""               FLOW     1.0      1.0      1.00
HW_82_12         FLOW         ""               FLOW     1.0      1.0      1.00
HW_35_10         FLOW         ""               FLOW     1.0      1.0      1.00
HW_92_7          FLOW         ""               FLOW     1.0      1.0      1.00
HW_22_13         FLOW         ""               FLOW     1.0      1.0      1.00
HW_50_21         FLOW         ""               FLOW     1.0      1.0      1.00
HW_38_14         FLOW         ""               FLOW     1.0      1.0      1.00
HW_34_9          FLOW         ""               FLOW     1.0      1.0      1.00
HW_50_22         FLOW         ""               FLOW     1.0      1.0      1.00
HW_68_12         FLOW         ""               FLOW     1.0      1.0      1.00
HW_18_10         FLOW         ""               FLOW     1.0      1.0      1.00
HW_07_16         FLOW         ""               FLOW     1.0      1.0      1.00
HW_06_12         FLOW         ""               FLOW     1.0      1.0      1.00
HW_06_13         FLOW         ""               FLOW     1.0      1.0      1.00
HW_71_16         FLOW         ""               FLOW     1.0      1.0      1.00
HW_21_12         FLOW         ""               FLOW     1.0      1.0      1.00
HW_69_9          FLOW         ""               FLOW     1.0      1.0      1.00
HW_50_23         FLOW         ""               FLOW     1.0      1.0      1.00
HW_95_14         FLOW         ""               FLOW     1.0      1.0      1.00
HW_33_13         FLOW         ""               FLOW     1.0      1.0      1.00
HW_75_9          FLOW         ""               FLOW     1.0      1.0      1.00
HW_87_10         FLOW         ""               FLOW     1.0      1.0      1.00
HW_50_24         FLOW         ""               FLOW     1.0      1.0      1.00
HW_53_13         FLOW         ""               FLOW     1.0      1.0      1.00
HW_53_14         FLOW         ""               FLOW     1.0      1.0      1.00
HW_45_17         FLOW         ""               FLOW     1.0      1.0      1.00
HW_17_15         FLOW         ""               FLOW     1.0      1.0      1.00
HW_67_13         FLOW         ""               FLOW     1.0      1.0      1.00
HW_05_18         FLOW         ""               FLOW     1.0      1.0      1.00
HW_96_11         FLOW         ""               FLOW     1.0      1.0      1.00
HW_79_17         FLOW         ""               FLOW     1.0      1.0      1.00
HW_05_19         FLOW         ""               FLOW     1.0      1.0      1.00
HW_30_11         FLOW         ""               FLOW     1.0      1.0      1.00
HW_30_12         FLOW         ""               FLOW     1.0      1.0      1.00
HW_22_14         FLOW         ""               FLOW     1.0      1.0      1.00
HW_25_13         FLOW         ""               FLOW     1.0      1.0      1.00
HW_79_18         FLOW         ""               FLOW     1.0      1.0      1.00
HW_16_8          FLOW         ""               FLOW     1.0      1.0      1.00
HW_24_10         FLOW         ""               FLOW     1.0      1.0      1.00
HW_79_19         FLOW         ""               FLOW     1.0      1.0      1.00
HW_55_10         FLOW         ""               FLOW     1.0      1.0      1.00
HW_85_15         FLOW         ""               FLOW     1.0      1.0      1.00
HW_58_14         FLOW         ""               FLOW     1.0      1.0      1.00
HW_22_15         FLOW         ""               FLOW     1.0      1.0      1.00
HW_65_9          FLOW         ""               FLOW     1.0      1.0      1.00
HW_24_11         FLOW         ""               FLOW     1.0      1.0      1.00
HW_79_20         FLOW         ""               FLOW     1.0      1.0      1.00
HW_79_21         FLOW         ""               FLOW     1.0      1.0      1.00
HW_79_22         FLOW         ""               FLOW     1.0      1.0      1.00
HW_12_14         FLOW         ""               FLOW     1.0      1.0      1.00
HW_58_15         FLOW         ""               FLOW     1.0      1.0      1.00
HW_82_13         FLOW         ""               FLOW     1.0      1.0      1.00
HW_58_16         FLOW         ""               FLOW     1.0      1.0      1.00
HW_27_10         FLOW         ""               FLOW     1.0      1.0      1.00
HW_52_9          FLOW         ""               FLOW     1.0      1.0      1.00
HW_76_10         FLOW         ""               FLOW     1.0      1.0      1.00
HW_76_11         FLOW         ""               FLOW     1.0      1.0      1.00
HW_56_14         FLOW         ""               FLOW     1.0      1.0      1.00
HW_59_11         FLOW         ""               FLOW     1.0      1.0      1.00
HW_59_12         FLOW         ""               FLOW     1.0      1.0      1.00
HW_66_11         FLOW         ""               FLOW     1.0      1.0      1.00
HW_59_13         FLOW         ""               FLOW     1.0      1.0      1.00
HW_56_15         FLOW         ""               FLOW     1.0      1.0      1.00
HW_82_14         FLOW         ""               FLOW     1.0      1.0      1.00
HW_87_14         FLOW         ""               FLOW     1.0      1.0      1.00
HW_89_16         FLOW         ""               FLOW     1.0      1.0      1.00
HW_23_14         FLOW         ""               FLOW     1.0      1.0      1.00
HW_76_12         FLOW         ""               FLOW     1.0      1.0      1.00
HW_76_13         FLOW         ""               FLOW     1.0      1.0      1.00
HW_78_10         FLOW         ""               FLOW     1.0      1.0      1.00
HW_82_15         FLOW         ""               FLOW     1.0      1.0      1.00
HW_10_15         FLOW         ""               FLOW     1.0      1.0      1.00
HW_77_9          FLOW         ""               FLOW     1.0      1.0      1.00
HW_15_16         FLOW         ""               FLOW     1.0      1.0      1.00
HW_87_16         FLOW         ""               FLOW     1.0      1.0      1.00
HW_33_14         FLOW         ""               FLOW     1.0      1.0      1.00
HW_78_11         FLOW         ""               FLOW     1.0      1.0      1.00
HW_59_15         FLOW         ""               FLOW     1.0      1.0      1.00
HW_82_16         FLOW         ""               FLOW     1.0      1.0      1.00
HW_74_8          FLOW         ""               FLOW     1.0      1.0      1.00
HW_77_10         FLOW         ""               FLOW     1.0      1.0      1.00
HW_27_11         FLOW         ""               FLOW     1.0      1.0      1.00
HW_27_12         FLOW         ""               FLOW     1.0      1.0      1.00
HW_77_12         FLOW         ""               FLOW     1.0      1.0      1.00
HW_10_16         FLOW         ""               FLOW     1.0      1.0      1.00
HW_15_17         FLOW         ""               FLOW     1.0      1.0      1.00
HW_77_13         FLOW         ""               FLOW     1.0      1.0      1.00
HW_82_17         FLOW         ""               FLOW     1.0      1.0      1.00
HW_22_16         FLOW         ""               FLOW     1.0      1.0      1.00
HW_82_18         FLOW         ""               FLOW     1.0      1.0      1.00
HW_36_10         FLOW         ""               FLOW     1.0      1.0      1.00
HW_64_14         FLOW         ""               FLOW     1.0      1.0      1.00
HW_47_11         FLOW         ""               FLOW     1.0      1.0      1.00
HW_36_11         FLOW         ""               FLOW     1.0      1.0      1.00
HW_36_12         FLOW         ""               FLOW     1.0      1.0      1.00
HW_75_10         FLOW         ""               FLOW     1.0      1.0      1.00
HW_75_11         FLOW         ""               FLOW     1.0      1.0      1.00
HW_67_14         FLOW         ""               FLOW     1.0      1.0      1.00
HW_74_9          FLOW         ""               FLOW     1.0      1.0      1.00
HW_67_15         FLOW         ""               FLOW     1.0      1.0      1.00
HW_63_8          FLOW         ""               FLOW     1.0      1.0      1.00
HW_67_16         FLOW         ""               FLOW     1.0      1.0      1.00
HW_15_18         FLOW         ""               FLOW     1.0      1.0      1.00
HW_61_10         FLOW         ""               FLOW     1.0      1.0      1.00
HW_45_18         FLOW         ""               FLOW     1.0      1.0      1.00
HW_43_12         FLOW         ""               FLOW     1.0      1.0      1.00
HW_67_17         FLOW         ""               FLOW     1.0      1.0      1.00
HW_67_18         FLOW         ""               FLOW     1.0      1.0      1.00
HW_67_19         FLOW         ""               FLOW     1.0      1.0      1.00
HW_82_19         FLOW         ""               FLOW     1.0      1.0      1.00
HW_67_20         FLOW         ""               FLOW     1.0      1.0      1.00
HW_14_14         FLOW         ""               FLOW     1.0      1.0      1.00
HW_67_21         FLOW         ""               FLOW     1.0      1.0      1.00
HW_12_15         FLOW         ""               FLOW     1.0      1.0      1.00
HW_12_16         FLOW         ""               FLOW     1.0      1.0      1.00
HW_68_18         FLOW         ""               FLOW     1.0      1.0      1.00
HW_68_19         FLOW         ""               FLOW     1.0      1.0      1.00
HW_87_17         FLOW         ""               FLOW     1.0      1.0      1.00
HW_87_18         FLOW         ""               FLOW     1.0      1.0      1.00
HW_87_19         FLOW         ""               FLOW     1.0      1.0      1.00
HW_54_9          FLOW         ""               FLOW     1.0      1.0      1.00
HW_62_18         FLOW         ""               FLOW     1.0      1.0      1.00
HW_27_15         FLOW         ""               FLOW     1.0      1.0      1.00
HW_55_14         FLOW         ""               FLOW     1.0      1.0      1.00
HW_60_15         FLOW         ""               FLOW     1.0      1.0      1.00
HW_58_17         FLOW         ""               FLOW     1.0      1.0      1.00
HW_18_15         FLOW         ""               FLOW     1.0      1.0      1.00
HW_14_15         FLOW         ""               FLOW     1.0      1.0      1.00
HW_58_18         FLOW         ""               FLOW     1.0      1.0      1.00
HW_59_16         FLOW         ""               FLOW     1.0      1.0      1.00
HW_54_10         FLOW         ""               FLOW     1.0      1.0      1.00
HW_57_13         FLOW         ""               FLOW     1.0      1.0      1.00
HW_74_10         FLOW         ""               FLOW     1.0      1.0      1.00
HW_87_20         FLOW         ""               FLOW     1.0      1.0      1.00
HW_89_18         FLOW         ""               FLOW     1.0      1.0      1.00
HW_83_11         FLOW         ""               FLOW     1.0      1.0      1.00
HW_76_14         FLOW         ""               FLOW     1.0      1.0      1.00
HW_35_13         FLOW         ""               FLOW     1.0      1.0      1.00
HW_18_16         FLOW         ""               FLOW     1.0      1.0      1.00
HW_23_15         FLOW         ""               FLOW     1.0      1.0      1.00
HW_19_16         FLOW         ""               FLOW     1.0      1.0      1.00
HW_89_19         FLOW         ""               FLOW     1.0      1.0      1.00
HW_19_17         FLOW         ""               FLOW     1.0      1.0      1.00
HW_83_12         FLOW         ""               FLOW     1.0      1.0      1.00

[COORDINATES]
;;Node           X-Coord            Y-Coord
;;-------------- ------------------ ------------------
NLC0810          -1295087.02        488671.56         
NLC0830          -1295302.65        488699.10         
NLB0550          -1297923.67        489239.84         
NLB0790          -1297912.44        489198.62         
NLB0510          -1297904.54        489072.64         
NLB0490          -1297903.89        488667.77         
NLB0470          -1297757.54        488667.08         
NLB0390          -1297773.44        488297.79         
NLB0370          -1297779.77        487860.06         
NLB0330          -1297779.71        487409.86         
NLB0170          -1297680.05        487398.95         
NLB0410          -1297904.68        488242.29         
NLB0430          -1297839.84        488262.95         
NLZ0001          -1291054.01        480556.71         
NLC4670          -1291125.10        492612.26         
NLB1110          -1297887.45        491970.77         
NLB1090          -1297905.03        490711.19         
NLB1130          -1297842.88        491674.80         
NLB1150          -1297822.04        492204.75         
NLB1030          -1299339.08        490053.72         
NLB1230          -1297971.09        492417.76         
NLB1210          -1297930.64        492415.68         
NLB0810          -1297908.33        490044.86         
NLB1010          -1298339.12        490053.07         
NLB0990          -1298303.16        490051.68         
NLB0970          -1298077.54        490051.63         
NLB1050          -1297904.68        490669.18         
NLB0930          -1296777.28        491449.29         
NLB0910          -1296563.74        491329.50         
NLB0890          -1296571.35        490710.08         
NLB0870          -1296571.07        490658.35         
NLB0850          -1296577.05        490046.81         
NLC2050          -1296389.85        490044.90         
NLB0830          -1297708.84        490048.61         
NLB0650          -1297154.35        488605.98         
NLB0670          -1297153.65        488712.23         
NLB0610          -1297282.42        488714.70         
NLB0750          -1297278.65        489200.05         
NLB0630          -1297199.24        488599.47         
NLB0590          -1297292.98        487901.01         
NLA0510          -1299246.65        488921.53         
NLA0470          -1299253.08        488723.77         
NLA0490          -1299231.73        488827.00         
NLA0450          -1299261.92        488048.58         
NLA0410          -1299269.67        487434.16         
NLA0230          -1299281.11        486075.57         
NLA0350          -1298616.76        486067.80         
NLA0310          -1299028.69        486069.40         
NLB0730          -1298187.93        488716.16         
NLB0710          -1297797.90        488714.81         
NLB0690          -1297294.11        488716.35         
NLC0930          -1296225.37        488688.85         
NLC0950          -1296435.43        488688.07         
NLC0990          -1296714.12        488690.75         
NLC0970          -1296447.09        488786.18         
NLC0870          -1295992.26        488698.54         
NLC0890          -1296015.79        488799.04         
NLC0910          -1296063.62        488804.98         
NLC0850          -1295749.35        488695.46         
NLB0130          -1297306.53        486685.37         
NLB0230          -1297292.93        486694.98         
NLB0110          -1297309.07        486365.41         
NLB0210          -1297300.12        486372.57         
NLB0090          -1297317.86        486011.01         
NLB0190          -1297307.12        486003.46         
NLB0010          -1297653.01        486005.77         
NLN0430          -1296955.57        487066.92         
NLN0390          -1296592.34        487061.51         
NLN0110          -1296492.97        486761.73         
NLN0290          -1295825.97        487471.54         
NLN0250          -1295834.34        486970.00         
NLN0230          -1295835.33        486750.40         
NLN0030          -1296624.03        486047.12         
NLN0050          -1296512.70        486045.55         
NLN0090          -1295969.74        486037.14         
NLN0070          -1296398.94        486051.18         
NLC2890          -1295207.94        494646.96         
NLC2570          -1295079.00        493412.23         
NLC2550          -1295172.75        493428.90         
NLC2590          -1295229.91        493951.36         
NLC2530          -1295231.88        493054.33         
NLC2610          -1295226.23        493981.59         
NLC2650          -1294797.66        493977.65         
NLC2630          -1295029.32        493977.98         
NLC2770          -1295599.69        493985.72         
NLC2810          -1295913.73        493981.75         
NLG0490          -1290706.26        490047.64         
NLG0470          -1290833.81        489823.59         
NLG0450          -1290857.47        489581.85         
NLG0430          -1290962.81        489611.00         
NLG0410          -1291020.67        489584.41         
NLG0390          -1291213.26        489380.61         
NLG0370          -1291249.03        489382.58         
NLG0630          -1293008.60        490866.57         
NLG0610          -1292914.85        490864.83         
NLG0650          -1293055.42        491004.17         
NLG0570          -1291719.65        490225.20         
NLG0550          -1291659.09        490190.93         
NLG0330          -1291262.77        488793.41         
NLG0270          -1291265.89        488599.32         
NLI0510          -1289967.95        488686.91         
NLI0410          -1290402.49        487303.80         
NLI0430          -1289971.23        487671.69         
NLI0390          -1289984.52        487244.83         
NLI0230          -1290127.58        485973.51         
NLI0350          -1289998.86        486639.53         
NLI0090          -1289997.02        485992.49         
NLI0070          -1290009.32        485853.21         
NLI0050          -1290009.32        485647.80         
NLI0030          -1290013.29        485526.57         
NLI0010          -1290015.92        485161.17         
NLM0310          -1288952.49        487294.68         
NLM0290          -1288677.92        487283.56         
NLE0250          -1292096.19        486035.73         
NLE0230          -1292109.69        486014.64         
NLM0250          -1288687.98        486625.83         
NLM0230          -1288645.00        486625.29         
NLM0210          -1288406.58        486621.09         
NLM0370          -1288162.62        487328.88         
NLM0430          -1288007.47        487761.15         
NLM0410          -1288091.24        487749.43         
NLM0190          -1288214.16        486618.93         
NLM0170          -1288171.72        486618.16         
NLM0070          -1288154.04        485985.91         
NLE0210          -1291761.97        486024.17         
NLE0150          -1292045.60        486252.86         
NLE1150          -1292158.63        485950.19         
NLE1170          -1292159.91        486001.33         
NLE1130          -1292284.45        486172.94         
NLE1110          -1292239.05        486086.50         
NLE0090          -1292240.26        486027.18         
NLE0070          -1292240.73        485949.28         
NLE0050          -1292244.73        485720.56         
NLE0030          -1292244.01        485667.74         
NLG0110          -1291310.88        485987.86         
NLG0170          -1291173.42        486984.93         
NLG0190          -1291097.20        487088.75         
NLG0230          -1291288.77        487296.70         
NLG0150          -1291289.11        487271.63         
NLG0130          -1291308.51        486222.92         
NLG0310          -1291457.77        488507.91         
NLG0290          -1291330.69        488477.36         
NLG0250          -1291277.33        487948.09         
NLG0210          -1291433.64        487313.33         
NLE0550          -1293119.95        486021.55         
NLE0490          -1292575.18        486017.78         
NLE0310          -1292455.29        486037.37         
NLE0270          -1292129.89        486033.19         
NLK0010          -1285872.36        484655.57         
NLK0270          -1285221.25        485946.37         
NLK0230          -1285490.07        484775.53         
NLK0250          -1285458.12        484894.22         
NLK0030          -1285455.20        484648.28         
NLK0210          -1285519.73        484697.24         
NLK0310          -1285674.84        484923.68         
NLK0290          -1285671.81        484849.27         
NLK0090          -1284749.90        484639.69         
NLK0050          -1285208.31        484643.25         
NLC3390          -1298040.72        493073.98         
NLK0130          -1284754.52        485162.37         
NLK0170          -1284559.32        485265.63         
NLK0150          -1284639.61        485271.27         
NLC3950          -1293910.95        495799.81         
NLC3930          -1293911.23        495768.07         
NLC3910          -1293902.99        495638.28         
NLC3850          -1293903.85        495289.34         
NLC3830          -1293905.59        495127.02         
NLC3690          -1293927.28        493979.65         
NLC3770          -1293827.26        494178.40         
NLC3790          -1293775.01        494083.99         
NLC4170          -1292562.23        494614.29         
NLC4150          -1292573.68        493998.57         
NLC4130          -1292575.17        493926.24         
NLC4690          -1290882.77        492610.32         
NLC4610          -1291260.94        492613.35         
NLC4650          -1291237.36        493260.08         
NLC4630          -1291245.15        492642.11         
NLC4490          -1292300.97        492640.14         
NLC4050          -1292520.59        492917.90         
NLC4070          -1292461.91        492922.06         
NLC4190          -1292565.24        492636.86         
NLC4530          -1292383.19        492922.92         
NLC4510          -1292322.34        492887.24         
NLC4090          -1292586.99        493022.82         
NLC4110          -1292586.21        493077.59         
NLC4010          -1292632.04        492635.92         
NLC4030          -1292609.95        492733.62         
NLC3610          -1293932.76        493318.36         
NLC2710          -1294415.57        493895.00         
NLC2430          -1294424.25        493349.21         
NLC2690          -1294493.76        493929.91         
NLC3630          -1294308.07        493378.80         
NLC2410          -1294501.30        493399.02         
NLC3490          -1293609.43        492308.75         
NLC3570          -1293827.60        492527.16         
NLC4450          -1290380.40        491982.93         
NLC4430          -1290636.86        491982.05         
NLC4410          -1290888.35        491985.96         
NLC4350          -1291375.75        491987.10         
NLC4310          -1291624.29        491987.25         
NLC4290          -1291706.30        491987.94         
NLC4330          -1291422.21        491985.94         
NLC4270          -1291954.83        491991.07         
NLC4230          -1292149.08        491995.99         
NLC4250          -1292174.71        491839.41         
NLC4210          -1292503.99        492515.27         
NLC2330          -1293299.87        491436.74         
NLC3510          -1293221.58        492507.82         
NLC2230          -1293970.06        491788.19         
NLC2250          -1293846.42        491586.22         
NLC2390          -1294633.68        492194.39         
NLC2510          -1295757.79        492858.02         
NLC3350          -1297896.72        493604.38         
NLC3130          -1297179.10        493133.28         
NLC3090          -1297408.52        492717.78         
NLC3110          -1297409.73        492750.81         
NLC3190          -1297905.62        492743.33         
NLB1170          -1297880.10        492620.18         
NLC3210          -1297980.66        492632.90         
NLC3250          -1298598.16        492746.87         
NLC2490          -1295284.14        492201.85         
NLC2030          -1295253.40        490695.99         
NLC1930          -1295013.58        490161.27         
NLC1890          -1294735.98        490179.43         
NLC2070          -1293959.76        490687.66         
NLC2090          -1293830.25        490626.19         
NLC2110          -1293757.55        490613.17         
NLC2150          -1294407.54        490871.13         
NLC2170          -1294406.24        490989.62         
NLC1810          -1293959.76        490025.66         
NLC2190          -1293955.46        491170.27         
NLC1850          -1293865.33        490029.92         
NLG0530          -1291326.07        490009.34         
NLG0510          -1291285.75        489962.87         
NLC1370          -1292073.48        489223.19         
NLC1350          -1292075.56        489135.90         
NLC1390          -1292035.56        489378.62         
NLC1410          -1292034.70        489494.07         
NLC1490          -1292020.28        488962.71         
NLC1470          -1292018.37        488751.60         
NLC1250          -1292408.20        488737.81         
NLC1270          -1292407.68        488679.14         
NLC1330          -1292077.12        488739.76         
NLC1210          -1292749.60        488695.89         
NLC1110          -1293152.27        488744.35         
NLC1230          -1292617.52        488737.81         
NLC0670          -1293985.09        488739.27         
NLC1050          -1293354.81        488746.23         
NLC1030          -1293811.83        488734.67         
NLC1010          -1293914.68        488734.66         
NLC1510          -1293976.82        489134.14         
NLC1590          -1293888.23        489675.26         
NLC1570          -1293970.42        489635.96         
NLC1870          -1294588.71        490038.08         
NLC1950          -1295523.95        490035.29         
NLC1970          -1295553.84        489610.33         
NLC1910          -1294876.91        489833.49         
NLC1990          -1295555.09        489360.71         
NLC0750          -1294645.13        488524.92         
NLC0790          -1295045.99        488482.64         
NLC1130          -1293078.72        488653.48         
NLC0730          -1294501.33        488618.90         
NLC0690          -1294231.22        488679.46         
NLC0710          -1294499.47        488682.47         
NLC0650          -1293989.29        488301.43         
NLC0550          -1293967.38        487716.44         
NLC0510          -1293973.47        487342.48         
NLC0450          -1293974.01        487286.07         
NLC0330          -1293984.80        486700.77         
NLC0230          -1293989.85        486040.36         
NLC0630          -1294465.63        487750.51         
NLC0610          -1294085.44        487751.13         
NLC0530          -1294039.29        487359.72         
NLC0370          -1294845.12        487290.43         
NLC0350          -1294857.59        486851.23         
NLC0270          -1293871.84        486075.54         
NLC0470          -1293828.41        487292.41         
NLC0250          -1294215.95        486024.48         
NLC0110          -1294002.80        485956.19         
NLC0090          -1294007.43        485395.62         
NLC0070          -1294011.51        485271.00         
NLC0010          -1294018.70        484906.29         
NLC0170          -1294220.23        485967.45         
NLC0130          -1293874.35        485652.91         
NLC0030          -1293878.09        484994.56         
NLA0110          -1299411.54        486023.32         
NLA0070          -1299285.07        486025.27         
NLA0090          -1299423.40        485601.70         
NLA0210          -1299177.79        486020.49         
NLA0030          -1299190.99        484714.52         
NLA0010          -1299306.43        484940.60         
NLA0050          -1299169.60        485393.55         
NLC3410          -1298053.31        493155.57         
NLC3430          -1297870.84        493057.54         
NLC3150          -1297876.58        492764.68         
NLB0270          -1297786.13        486324.05         
NLB0030          -1297676.87        486007.37         
NLI0470          -1289546.01        487669.27         
NLI0290          -1290656.82        485974.35         
NLI0270          -1290390.45        485976.38         
NLG0070          -1291314.68        485933.49         
NLG0010          -1291324.30        485289.59         
NLE0010          -1291451.12        485298.93         
NLG0090          -1291400.23        485920.42         
NLG0030          -1291292.80        485484.68         
NLG0050          -1291260.33        485639.72         
NLE0730          -1293119.71        485959.52         
NLC3070          -1296770.90        492701.95         
NLP1590          -1283338.50        487624.08         
NLP1570          -1282915.97        487599.21         
NLP1490          -1281522.08        487544.09         
NLP1510          -1281521.73        487453.47         
NLP1470          -1281517.84        487600.44         
NLP1530          -1282426.51        487613.09         
NLP1450          -1281097.75        487589.99         
NLP1430          -1281029.00        487590.51         
NLP1370          -1280164.93        487563.15         
NLP1270          -1281106.27        486955.19         
NLP1250          -1281034.74        486895.47         
NLP1410          -1280696.20        487715.50         
NLP1390          -1280695.68        487614.98         
NLP1330          -1281863.84        486958.92         
NLP1310          -1281514.27        486953.94         
NLP1230          -1280881.68        486815.49         
NLP1210          -1280165.96        486686.09         
NLP1190          -1280166.25        486624.12         
NLP1170          -1280169.58        486430.68         
NLP1150          -1280171.66        486364.79         
NLP0910          -1280172.62        486105.60         
NLP1130          -1280171.23        486172.27         
NLP0890          -1280173.68        485910.55         
NLP0830          -1280174.03        485844.93         
NLP0350          -1283818.49        485868.76         
NLP0330          -1283702.77        485807.90         
NLP0370          -1283820.52        485962.18         
NLP0310          -1283383.20        485623.92         
NLP0970          -1281504.07        486163.95         
NLP0950          -1281052.29        486160.46         
NLP0930          -1280660.92        486158.90         
NLP0990          -1281581.60        486165.50         
NLP0750          -1280184.85        485077.32         
NLP0870          -1280663.24        485896.14         
NLP0810          -1281575.45        485088.38         
NLP0790          -1281351.32        485091.07         
NLP0710          -1280181.38        484080.79         
NLP0610          -1280181.82        484030.68         
NLP0630          -1280650.20        484057.88         
NLP0650          -1281077.30        484052.54         
NLP0090          -1281548.82        483006.31         
NLP0070          -1281493.27        483014.65         
NLP0470          -1282030.81        483689.95         
NLP0450          -1282038.67        483416.96         
NLE0750          -1293115.72        486055.23         
NLE0510          -1292978.22        486024.51         
NLE0530          -1293070.93        486065.13         
NLP0190          -1282588.14        482906.61         
NLP0170          -1282519.44        482763.13         
NLP0150          -1282456.46        482762.83         
NLP0010          -1280199.75        483004.44         
NLP0050          -1281084.16        483008.79         
NLD0950          -1297693.79        494155.16         
NLD0890          -1297358.81        494000.47         
NLD0830          -1296735.49        493995.16         
NLD1190          -1298015.90        494919.98         
NLD1250          -1298509.00        495583.88         
NLD1290          -1298735.16        495698.16         
NLD1070          -1297673.16        496062.00         
NLD1150          -1298074.07        495829.07         
NLC3170          -1297876.40        492742.96         
NLP1350          -1280165.63        486968.00         
NLD1370          -1297727.99        496725.32         
NLD1350          -1297686.32        496710.05         
NLD0810          -1296708.82        494938.61         
NLD0690          -1296698.42        495945.90         
NLD0710          -1296354.71        495949.73         
NLD0670          -1296697.39        496332.44         
NLD1030          -1297356.74        496216.72         
NLD0970          -1297026.89        496340.08         
NLD0630          -1296379.26        496536.02         
NLD0170          -1295142.47        497122.72         
NLD0130          -1295575.66        497154.84         
NLD0410          -1295206.50        496638.77         
NLD0370          -1295208.81        496665.68         
NLD0390          -1294972.37        496662.44         
NLD0350          -1295636.82        496677.78         
NLD0110          -1295625.51        497137.38         
NLD0090          -1295617.25        497430.05         
NLD0590          -1296266.11        496674.02         
NLD0530          -1296058.80        496675.26         
NLD0470          -1295640.38        496643.91         
NLD0030          -1295619.24        497892.78         
NLN0330          -1295821.36        487969.83         
NLE0810          -1293096.55        487564.49         
NLE0790          -1293095.67        487326.74         
NLE0770          -1293106.46        486676.90         
NLE0910          -1293408.93        487332.78         
NLE0970          -1293456.48        486680.14         
NLE0850          -1293140.49        486679.20         
NLE1010          -1293505.81        486305.75         
NLE0870          -1293426.84        486049.37         
NLE0390          -1292820.63        486040.45         
NLE0410          -1292804.56        486671.77         
NLE0330          -1292444.13        486676.95         
NLE0990          -1293478.35        486281.12         
NLN0450          -1296635.62        487751.69         
NLN0410          -1296631.61        487061.51         
NLI0450          -1289842.23        487671.61         
NLM0330          -1288168.22        486824.86         
NLM0050          -1288167.05        485790.91         
NLM0030          -1288167.09        485538.64         
NLM0010          -1288167.96        485467.03         
NLK0110          -1284758.08        484899.70         
NLC3370          -1298029.40        493082.40         
NLC3310          -1299287.58        492758.89         
NLE0290          -1292455.83        486022.24         
NLK0190          -1284750.46        485416.89         
NLP1610          -1283338.05        487675.84         
NLE0190          -1292075.45        487320.47         
NLE0170          -1292087.03        486664.15         
NLE0130          -1292225.46        487322.67         
NLI0310          -1290762.29        486011.86         
NLI0250          -1290271.47        486023.35         
NLP0730          -1280185.95        484575.13         
NLP0270          -1282953.53        485215.10         
NLP0110          -1281556.62        482755.73         
NLD0990          -1297161.46        496341.77         
NLD1010          -1297328.74        496228.33         
NLD0210          -1294844.15        497137.09         
NLE0470          -1292423.45        486017.32         
NLD0550          -1296099.45        496642.76         
NLC2970          -1295556.62        495350.39         
NLD0910          -1297375.09        493927.85         
NLC3010          -1296578.17        493611.73         
NLC3030          -1296554.21        493653.40         
NLB0950          -1297285.66        491497.27         
NLC2370          -1294106.68        491919.53         
NLE0670          -1293163.99        485358.44         
NLE0650          -1293126.14        485309.14         
NLE0590          -1293066.48        485072.39         
NLE0630          -1292871.38        485308.29         
NLE0610          -1292856.50        485070.76         
NLE0710          -1293124.76        485610.87         
NLE0830          -1293152.40        486041.69         
NLC3330          -1299572.25        492746.80         
NLD0510          -1295972.02        496561.98         
NLD0490          -1295942.94        496601.91         
NLC0570          -1294032.99        487701.71         
NLP1550          -1282430.08        487582.27         
NLP0410          -1282045.61        483053.18         
NLC2950          -1295510.08        495348.43         
NLA0430          -1298861.05        487430.83         
NLP0030          -1280659.46        483007.37         
NLP0130          -1282042.35        482763.68         
NLP0390          -1283861.67        485961.26         
NLN0310          -1295823.63        487725.37         
NLC3450          -1293787.01        491826.86         
NLC3230          -1298287.23        492741.43         
NLB0450          -1297765.48        488482.72         
NLP0850          -1280598.51        485889.80         
NLD1210          -1298483.56        496075.43         
NLD1230          -1298484.52        495597.47         
NLD1130          -1298056.55        496080.33         
NLD0190          -1295117.42        497121.80         
NLD0150          -1295436.14        497130.15         
NLC1190          -1292748.54        488736.95         
NLC1290          -1292246.43        488739.26         
NLP0210          -1282594.35        483295.96         
NLC0770          -1294721.48        488675.30         
NLC3870          -1293858.73        495302.36         
NLC1430          -1292069.62        489657.87         
NLC1630          -1293492.51        489669.71         
NLC1710          -1293309.35        489669.14         
NLC1730          -1292950.11        489664.87         
NLC1750          -1292591.80        489662.46         
NLC1770          -1292375.19        489660.67         
NLC1670          -1293828.40        489599.33         
NLC1690          -1293839.18        489508.89         
NLC1650          -1293674.29        489598.78         
NLA0370          -1298754.33        486757.30         
NLA0330          -1298757.31        486068.34         
NLP0550          -1281995.35        485093.98         
NLP0570          -1281985.86        485395.92         
NLP0510          -1282029.25        484575.73         
NLP0490          -1282033.12        484102.48         
NLP1110          -1282936.28        486139.62         
NLP1090          -1282871.05        486136.62         
NLD0610          -1296265.22        496637.33         
NLP1650          -1283801.29        487638.70         
NLP1070          -1282744.40        486146.04         
NLP1030          -1282016.85        486168.90         
NLP1010          -1281947.32        486172.29         
NLP1050          -1281985.08        486137.39         
NLD0650          -1296344.18        496542.81         
NLC1550          -1294101.64        489055.51         
NLC1530          -1294042.61        489054.82         
NLP0530          -1282030.45        484724.37         
NLC3670          -1293596.25        493375.78         
NLC3650          -1293614.04        493351.50         
NLC3050          -1296003.84        492698.65         
NLG0590          -1292747.63        490815.03         
NLP1290          -1281045.44        486991.95         
NLD1050          -1297647.43        496074.58         
NLC2670          -1294577.18        493975.50         
NLD1270          -1298507.79        495247.99         
NLP0430          -1282041.43        483272.00         
NLD0790          -1296702.61        495539.97         
NLN0350          -1297281.51        486059.26         
NLN0170          -1296351.59        487987.18         
NLN0150          -1296481.95        487986.61         
NLN0130          -1296488.38        487479.57         
NLN0210          -1296352.64        487464.90         
NLN0270          -1295830.08        487225.72         
NLN0190          -1296362.57        486759.48         
NLB0770          -1297740.49        489207.24         
NLC4370          -1291260.90        491332.80         
NLZ0080          -1298492.61        497696.13         
NLD1170          -1298080.91        495230.95         
NLZ0020          -1296379.68        498040.70         
NLC2310          -1293019.65        491063.83         
NLC1150          -1292979.77        488767.52         
NLC1170          -1292978.47        488798.77         
NLP0250          -1282672.19        484090.87         
NLD0010          -1295636.61        498280.56         
NLC0590          -1293986.24        487888.89         
NLC2990          -1296584.20        493514.57         
NLC0430          -1295297.20        486716.59         
NLC4570          -1291679.27        492618.22         
NLZ0075          -1298461.88        498012.72         
NLZ0065          -1298234.88        497915.70         
NLZ0060          -1298226.55        498041.73         
NLC2270          -1293761.05        491611.85         
NLZ0000          -1292796.36        503413.11         
NLZ0050          -1297652.58        498015.69         
NLZ0025          -1296724.44        498084.43         
NLZ0010          -1296394.24        498208.41         
NLC1310          -1292251.82        488659.00         
NLB1190          -1297930.00        492421.39         
NLC2290          -1293528.03        491356.65         
NLB0530          -1297749.32        489035.50         
NLZ0070          -1298241.12        497662.56         
NLZ0045          -1297368.46        497885.08         
NLZ0040          -1297368.28        497941.51         
NLZ0035          -1297274.61        498057.84         
NLZ0055          -1297738.84        497929.29         
NLZ0030          -1296711.96        497784.38         
NLD0330          -1296033.39        497583.75         
NLD0310          -1295796.06        497583.23         
NLD0570          -1296056.30        496831.65         
NLD0730          -1296067.34        495952.47         
NLD1110          -1297854.15        495933.89         
NLD1330          -1299184.51        495401.29         
NLD1310          -1299062.40        495525.92         
NLD0270          -1295798.37        497320.67         
NLZ0015          -1296388.70        498144.55         
NLC3970          -1293909.89        495970.73         
NLC3890          -1293835.11        495298.05         
NLD0770          -1296368.91        495022.77         
NLC2930          -1295504.11        495310.03         
NLC2910          -1295207.29        495286.22         
NLC2870          -1296173.82        493952.39         
NLD0870          -1296422.35        494344.94         
NLD0850          -1296429.06        493994.40         
NLC3710          -1294258.42        493985.18         
NLC3750          -1293981.97        494082.72         
NLC3730          -1293959.81        494120.44         
NLC4470          -1290038.52        491963.45         
NLC2350          -1293259.73        491570.57         
NLC3530          -1293081.54        492489.40         
NLC3550          -1293181.11        492006.57         
NLN0010          -1296621.62        485706.28         
NLC0210          -1296078.12        485976.49         
NLC0190          -1294585.37        485977.79         
NLA0190          -1299025.30        486021.67         
NLA0150          -1298766.88        485980.96         
NLA0130          -1298781.37        484718.08         
NLA0170          -1298665.45        486014.40         
NLC2830          -1296174.68        493991.89         
NLB0050          -1297813.05        485945.61         
NLB0070          -1297837.48        484943.41         
NLI0490          -1289277.37        487666.47         
NLC1450          -1291711.83        489724.21         
NLC1790          -1292262.82        489525.73         
NLG0350          -1291473.57        489013.90         
NLM0350          -1288082.51        486865.31         
NLM0150          -1288129.50        486350.76         
NLM0130          -1288154.84        486323.84         
NLM0090          -1288154.54        486198.05         
NLM0110          -1287731.78        486195.79         
NLM0390          -1288394.82        487326.10         
NLM0270          -1288969.15        486634.43         
NLI0370          -1289859.98        486650.73         
NLC1610          -1293690.05        489672.48         
NLC1090          -1293411.42        488642.98         
NLC1070          -1293391.11        488642.98         
NLE0110          -1292120.25        486670.04         
NLE0370          -1292480.69        486673.03         
NLE0450          -1292841.43        486674.49         
NLE0690          -1293121.99        485441.80         
NLE0570          -1292837.23        484998.18         
NLE0890          -1293417.82        486681.48         
NLE0950          -1293461.69        486187.75         
NLE1090          -1293466.13        486024.26         
NLE0930          -1293464.98        486050.45         
NLE1070          -1293399.05        486024.83         
NLE1050          -1293298.05        486025.31         
NLE1030          -1293182.00        486025.48         
NLE0430          -1292851.73        486044.59         
NLE0350          -1292489.06        486039.96         
NLC0490          -1293756.36        487292.87         
NLC0310          -1293776.17        486330.65         
NLC0290          -1293848.64        486344.52         
NLC0150          -1293789.64        485647.14         
NLC0050          -1293798.50        485043.02         
NLI0210          -1288813.20        485983.66         
NLI0170          -1289095.98        485985.74         
NLI0190          -1289026.94        485981.58         
NLI0150          -1289329.11        486001.28         
NLI0130          -1289451.84        485990.38         
NLI0110          -1289728.78        485990.19         
NLC2130          -1293853.45        490473.13         
NLC0410          -1294793.17        487382.41         
NLC0390          -1294848.56        487341.52         
NLC2010          -1295270.90        490193.31         
NLB1070          -1297878.72        490670.30         
NLA0250          -1300129.63        486091.29         
NLA0270          -1299761.93        486088.18         
NLA0290          -1299402.56        486073.59         
NLB0290          -1297767.25        487200.31         
NLB0310          -1297690.95        487365.63         
NLB0350          -1297800.02        487380.52         
NLN0370          -1296614.89        486339.86         
NLC3270          -1298913.71        492753.80         
NLC3290          -1298913.94        492660.55         
NLK0070          -1284793.85        484900.08         
NLP0290          -1282933.49        485317.98         
NLP0230          -1282619.70        483666.65         
NLP0690          -1281526.58        484317.81         
NLP0670          -1281102.21        484285.33         
NLP0770          -1281099.52        485087.36         
NLC4390          -1291127.95        491982.79         
NLC4730          -1290370.66        492599.95         
NLC4710          -1290623.38        492605.44         
NLP1630          -1283375.52        487598.43         
NLC4550          -1291989.53        492623.18         
NLC4590          -1291401.20        492612.62         
NLC3990          -1292882.79        492639.66         
NLC2210          -1293969.94        491596.10         
NLC3810          -1293925.57        494174.96         
NLC3590          -1293945.03        492950.96         
NLC2730          -1295326.88        493982.06         
NLC2790          -1295619.30        494030.90         
NLC2750          -1295339.46        494035.77         
NLD1090          -1297847.59        496054.53         
NLD0070          -1295138.00        497865.69         
NLD0050          -1295262.99        497867.77         
NLD0450          -1295193.20        495881.30         
NLD0430          -1295192.18        496410.48         
NLD0930          -1297391.89        493889.54         
NLD0290          -1295629.79        497586.09         
NLD0250          -1295634.21        497324.98         
NLD0230          -1295632.58        497173.03         
NLB0570          -1297482.41        487645.02         
NLB0150          -1297340.54        487120.38         
NLI0330          -1290866.36        486015.13         
NLC1830          -1293103.18        490022.90         
NLC2470          -1295232.12        492271.06         
NLC2450          -1295202.33        492261.17         
NLA0390          -1299275.08        486716.40         
NLB0250          -1297793.17        486055.40         
NLZ0002          -1291527.61        480132.26         
NLI0515          -1290325.21        488682.98         
NLD0455          -1294785.92        495755.27         
NLP0835          -1279757.80        485903.64         
NLZ0006          -1278846.98        482155.13         
NLZ0009          -1302382.31        490857.64         
NLZ0320          -1294255.29        498583.32         
NLH1390          -1293354.86        497320.65         
NLH1370          -1293416.51        497360.02         
NLH1290          -1293383.99        497962.54         
NLH1270          -1293344.09        497976.18         
NLZ0460          -1292823.48        499247.14         
NLH1190          -1292494.64        497958.92         
NLZ0400          -1293508.75        498996.30         
NLZ0420          -1293316.00        499209.42         
NLH1110          -1292001.55        497690.67         
NLH1170          -1292494.21        497918.62         
NLH1050          -1292067.82        498975.78         
NLH1410          -1293186.56        496535.93         
NLH1470          -1292668.67        495944.99         
NLH0770          -1291910.89        495935.89         
NLH0810          -1291881.49        495983.04         
NLZ0480          -1292784.57        499518.42         
NLZ0520          -1292517.47        500012.63         
NLZ0540          -1292324.73        500405.82         
NLH0250          -1291074.23        499774.59         
NLH0290          -1290420.34        499275.59         
NLH0210          -1290263.40        500006.52         
NLH1010          -1291550.29        497887.39         
NLH0970          -1291387.53        497904.75         
NLH0670          -1291455.46        499017.82         
NLH0470          -1290719.69        497475.04         
NLH0930          -1291450.49        496635.39         
NLH2620          -1291091.36        494211.82         
NLH2560          -1291087.78        494563.66         
NLH2760          -1291644.12        493292.01         
NLH2660          -1291327.32        493947.01         
NLH2780          -1291095.76        493289.07         
NLH2160          -1289925.88        493922.63         
NLH2680          -1291131.52        493940.95         
NLH2480          -1291313.81        495300.47         
NLH2500          -1291626.61        495299.43         
NLH2378          -1290818.97        495981.90         
NLH0490          -1290414.27        497472.58         
NLH0430          -1290056.99        497459.49         
NLH0390          -1290009.20        497768.84         
NLH0450          -1290062.74        496918.53         
NLH0330          -1289546.39        497630.79         
NLH0570          -1290420.86        499230.20         
NLH0170          -1290190.66        499229.09         
NLL0850          -1289312.05        493255.54         
NLH2100          -1289619.11        493289.31         
NLH2120          -1289466.73        493292.70         
NLL0810          -1288960.39        493941.65         
NLH2140          -1289465.35        493944.41         
NLH2238          -1290244.95        494680.30         
NLH2200          -1289916.14        494550.50         
NLH2720          -1291231.08        493918.41         
NLH2460          -1291186.84        495264.87         
NLH2300          -1289897.10        495284.20         
NLH2260          -1289858.81        495239.03         
NLH2320          -1289896.71        495244.50         
NLH1900          -1289209.02        496570.29         
NLO0050          -1285516.54        497637.43         
NLO0070          -1285756.74        497488.47         
NLO0190          -1286578.87        496924.45         
NLO0170          -1287090.59        496923.29         
NLH1680          -1287027.77        497897.20         
NLH1620          -1286827.79        498269.65         
NLZ0220          -1287226.30        498657.83         
NLH0010          -1289312.14        500081.14         
NLO0410          -1287570.15        494354.68         
NLO0470          -1286840.62        494745.60         
NLO0250          -1286779.72        496531.26         
NLL0230          -1285844.39        495058.77         
NLH1600          -1286636.79        498331.94         
NLH2020          -1289282.40        495275.43         
NLH1920          -1289217.38        496280.23         
NLZ0440          -1293296.81        499214.41         
NLH0090          -1289357.22        499206.92         
NLH0050          -1289091.64        498805.82         
NLH1820          -1288548.48        497365.59         
NLO0270          -1286770.32        496106.49         
NLH0870          -1291864.61        496451.23         
NLH0630          -1290723.81        498748.54         
NLH0710          -1291254.62        498358.89         
NLH2080          -1289311.03        493288.91         
NLH2220          -1289916.14        494550.50         
NLH1960          -1289225.49        495273.67         
NLO0390          -1288607.51        495792.19         
NLO0490          -1286801.41        494764.79         
NLO0350          -1288438.80        496546.88         
NLH1940          -1289218.30        495899.05         
NLO0370          -1288881.47        496537.94         
NLH1230          -1292853.90        497952.04         
NLH1130          -1292058.62        497956.02         
NLH0730          -1291163.91        498290.03         
NLH0270          -1290682.18        499769.72         
NLH0890          -1291861.74        496631.41         
NLH1330          -1293389.24        497575.20         
NLH0070          -1289072.92        499224.30         
NLH0080          -1289166.24        499271.14         
NLH2420          -1290822.40        495549.21         
NLH0690          -1291043.22        498816.12         
NLH2520          -1291895.90        495309.85         
NLH1070          -1292063.00        498846.02         
NLH1090          -1292065.60        498791.33         
NLH2540          -1290865.16        494636.94         
NLH0370          -1290187.86        498176.18         
NLH0510          -1290385.78        497472.18         
NLH2180          -1289919.79        493984.55         
NLH2600          -1291298.25        494616.67         
NLO0310          -1287306.32        495897.09         
NLH1980          -1289222.26        495229.31         
NLH2280          -1289858.94        495283.26         
NLH1640          -1286909.01        498080.95         
NLH1700          -1286932.59        498086.99         
NLH1760          -1287374.36        498074.86         
NLH1740          -1287221.05        498184.84         
NLH2580          -1291211.30        494562.66         
NLH2700          -1291229.60        493995.69         
NLH2640          -1291225.52        494102.44         
NLH2360          -1291051.66        496634.04         
NLH0610          -1290549.49        498789.66         
NLH2040          -1289316.09        495227.15         
NLH2000          -1289277.48        495230.60         
NLH0650          -1290755.06        498815.74         
NLH2740          -1291233.58        493343.82         
NLO0430          -1287515.80        494404.25         
NLH1840          -1289164.81        497016.92         
NLJ0790          -1288874.45        492562.33         
NLH2060          -1289275.06        493302.75         
NLO0210          -1286535.35        496854.50         
NLO0230          -1286776.80        496571.23         
NLH1720          -1287193.45        498186.24         
NLH1800          -1288588.89        497559.23         
NLH1780          -1288543.43        497572.43         
NLH1765          -1287760.84        497743.79         
NLZ0200          -1288206.39        498906.48         
NLO0330          -1287540.47        495902.43         
NLO0290          -1286766.83        495781.36         
NLO0030          -1285720.04        497750.41         
NLO0010          -1285076.43        498084.33         
NLH0030          -1288964.00        500102.88         
NLH1350          -1293353.64        497362.75         
NLH1210          -1292684.84        497958.31         
NLH1150          -1292174.39        497958.53         
NLH0850          -1291899.09        496440.46         
NLH0910          -1291517.31        496628.87         
NLH0230          -1291410.67        499755.77         
NLZ0600          -1292016.61        499511.69         
NLH1030          -1291551.17        497942.02         
NLH0750          -1291425.88        496639.68         
NLH0950          -1291406.37        497276.11         
NLH0990          -1291434.42        497944.62         
NLH0590          -1290532.76        498812.91         
NLH0790          -1291914.07        495973.74         
NLH2400          -1290818.20        495903.40         
NLH2440          -1290838.99        495259.98         
NLH0550          -1290207.14        498161.86         
NLH0190          -1290186.27        499273.14         
NLH0110          -1289347.54        499268.52         
NLH1450          -1293418.06        496623.29         
NLO0450          -1286756.56        494709.02         
NLH1860          -1289207.55        496995.91         
NLH1660          -1286909.01        498080.95         
NLH1430          -1293401.85        496676.52         
NLH1490          -1293575.13        496376.42         
NLZ0580          -1291809.54        500516.14         
NLJ0410          -1289625.16        490621.44         
NLJ0570          -1289282.49        491947.83         
NLJ0590          -1288917.91        491943.49         
NLJ0270          -1287963.92        490002.52         
NLJ1500          -1286664.86        487548.33         
NLJ1480          -1286498.67        487652.50         
NLJ0670          -1287769.27        491941.90         
NLJ1903          -1285767.10        489530.65         
NLJ2480          -1284382.28        490060.11         
NLJ2600          -1284747.30        490583.33         
NLJ0050          -1288320.88        489458.12         
NLJ1540          -1287444.56        487959.74         
NLJ0890          -1289468.82        492797.98         
NLJ0650          -1287950.06        491938.57         
NLL0710          -1287147.85        493896.59         
NLL0289          -1284896.38        494629.78         
NLL0350          -1283873.80        494477.91         
NLJ2800          -1285335.75        491370.73         
NLJ2320          -1283811.39        489193.76         
NLJ1220          -1284303.13        487323.28         
NLL0110          -1284631.44        497559.33         
NLL0090          -1284250.24        497397.62         
NLL0190          -1284696.30        495486.72         
NLL0570          -1285271.86        492633.91         
NLL0048          -1283566.83        496900.26         
NLL0210          -1284614.52        495486.50         
NLL0390          -1284134.77        493490.52         
NLL0330          -1284641.45        495038.35         
NLJ1158          -1286737.47        486569.34         
NLL0770          -1287674.58        492904.61         
NLL0550          -1285332.33        492530.76         
NLJ1980          -1285637.76        488522.08         
NLJ0030          -1288679.32        488784.60         
NLJ0510          -1287963.15        490597.00         
NLJ0750          -1287945.92        492507.78         
NLJ1100          -1286209.90        485963.55         
NLJ1060          -1286487.62        485963.78         
NLJ1120          -1286040.57        485961.01         
NLJ1380          -1286291.08        487060.44         
NLJ1180          -1286676.19        486566.41         
NLJ1640          -1286659.34        488017.07         
NLJ1940          -1285818.00        488503.33         
NLJ1960          -1285689.10        488512.88         
NLJ2000          -1285638.97        488684.54         
NLJ1520          -1287263.70        487874.87         
NLJ1580          -1287296.52        488586.68         
NLJ1600          -1287288.84        488654.27         
NLJ1560          -1287312.02        488307.08         
NLJ1660          -1286643.61        488550.67         
NLJ1620          -1287254.95        488648.73         
NLJ0070          -1287567.59        489964.56         
NLJ0290          -1288607.78        489977.78         
NLJ0370          -1289987.34        489992.51         
NLJ0350          -1289635.78        489980.57         
NLJ0610          -1288600.26        491937.66         
NLJ0630          -1288111.83        491929.54         
NLJ2840          -1286000.64        492180.08         
NLJ2700          -1285976.26        491630.64         
NLJ1260          -1285188.52        486680.08         
NLJ2280          -1283837.41        488592.17         
NLJ2260          -1283895.72        489148.98         
NLJ2240          -1284500.69        489146.36         
NLJ2460          -1284291.62        489934.94         
NLJ2440          -1284324.95        489864.46         
NLJ2220          -1284843.96        489584.60         
NLJ2200          -1285106.98        489159.25         
NLJ2100          -1285190.30        488670.23         
NLJ2020          -1285217.47        487905.67         
NLJ2040          -1285219.86        488070.41         
NLJ2080          -1285197.49        488152.26         
NLJ2120          -1285414.81        488682.02         
NLJ1320          -1285461.04        486831.07         
NLJ1800          -1286074.96        488561.23         
NLJ1920          -1286076.35        488652.20         
NLJ1760          -1286367.86        488652.57         
NLJ1740          -1286323.59        488796.67         
NLJ1820          -1286117.10        488655.56         
NLJ1900          -1285968.02        489923.17         
NLJ1860          -1285965.41        489961.19         
NLJ1840          -1286076.49        489968.93         
NLJ1700          -1286320.67        489656.63         
NLJ2140          -1285267.30        488915.41         
NLJ0490          -1287958.26        490528.22         
NLJ0530          -1287949.58        491122.83         
NLJ0090          -1287315.14        489970.84         
NLJ0250          -1287320.34        490500.35         
NLJ0170          -1286876.03        489965.56         
NLJ0190          -1286647.24        490615.09         
NLJ0210          -1286680.58        490615.09         
NLJ2500          -1284522.46        490075.06         
NLJ2420          -1284373.73        489877.15         
NLJ0930          -1289621.16        492486.78         
NLJ0910          -1289618.55        492581.83         
NLJ0870          -1289272.33        492575.69         
NLL0730          -1287859.56        493929.82         
NLJ0730          -1287945.49        492589.21         
NLL0750          -1287883.15        493898.75         
NLJ0770          -1288231.60        492581.88         
NLJ0710          -1287524.66        492514.17         
NLJ0690          -1287346.27        492514.17         
NLL0610          -1286623.43        492606.67         
NLL0590          -1286227.69        492624.66         
NLL0470          -1284693.61        492624.89         
NLL0510          -1284953.59        492485.27         
NLL0490          -1284954.89        492021.73         
NLL0450          -1285228.56        492737.06         
NLL0430          -1285173.22        492815.19         
NLL0410          -1284638.35        493868.64         
NLL0650          -1285941.61        493711.30         
NLL0670          -1286006.93        493723.89         
NLL0370          -1284616.29        494172.53         
NLL0170          -1284628.56        496510.24         
NLL0150          -1284627.49        496552.47         
NLL0070          -1283992.86        497385.89         
NLL0130          -1284582.81        497380.68         
NLL0030          -1283512.66        497786.68         
NLJ1400          -1286672.02        487275.23         
NLJ1460          -1286670.28        487389.81         
NLJ0130          -1287242.30        489928.11         
NLJ0110          -1287259.23        489964.14         
NLJ0550          -1287950.55        491179.95         
NLL0910          -1288614.55        493247.28         
NLL0930          -1288571.32        493242.08         
NLL0790          -1287960.68        493263.70         
NLJ1140          -1285925.05        486012.91         
NLJ1340          -1286001.39        487148.24         
NLJ0230          -1287074.69        490251.50         
NLJ0150          -1287204.90        489965.04         
NLJ2820          -1285947.10        492225.55         
NLJ0390          -1289988.43        490624.86         
NLJ0330          -1289287.48        489982.50         
NLJ0310          -1288940.25        489977.29         
NLJ0430          -1289281.57        490617.53         
NLJ0450          -1288943.02        490615.79         
NLJ0470          -1288618.37        490612.32         
NLJ2300          -1283777.28        488816.17         
NLJ1880          -1285402.13        490002.71         
NLJ2378          -1283978.60        489567.53         
NLJ1360          -1286382.67        486909.58         
NLJ1040          -1286601.97        485964.34         
NLJ1020          -1286862.92        485972.27         
NLJ1000          -1287049.03        485963.24         
NLJ1280          -1285232.82        486706.01         
NLJ2060          -1284763.92        488149.33         
NLJ1200          -1284299.98        486155.03         
NLJ1240          -1284740.52        486419.79         
NLJ1720          -1286315.02        489404.47         
NLJ2160          -1285246.32        488948.38         
NLJ2360          -1284068.99        489501.34         
NLJ2780          -1285381.46        491321.14         
NLJ2720          -1285941.66        491603.90         
NLJ2760          -1285418.49        491373.52         
NLJ2740          -1285446.70        491409.33         
NLJ2660          -1286638.37        491375.91         
NLJ2860          -1286078.98        492285.29         
NLL0630          -1286455.23        492879.91         
NLL0310          -1285223.53        495057.17         
NLL0250          -1285470.93        495065.85         
NLL0270          -1285214.85        494664.38         
NLL0870          -1289236.07        493254.67         
NLL0890          -1288613.70        493288.16         
NLJ2680          -1286600.89        491371.95         
NLJ2560          -1284678.12        490344.30         
NLJ2540          -1284629.51        490278.33         
NLL0010          -1283791.27        498146.67         
NLO0090          -1286091.04        497787.40         
NLH0410          -1289827.28        497447.63         
NLH0310          -1289883.40        498362.55         
NLL0830          -1288960.39        493905.42         
NLJ2400          -1284075.98        489634.86         
NLJ2340          -1283928.94        489426.91         
NLJ1680          -1286649.45        488625.58         
NLJ2520          -1284498.15        490092.42         
NLJ2580          -1284845.88        490577.29         
NLJ2620          -1285090.92        490917.63         
NLJ1300          -1285173.06        486989.87         
NLH2340          -1290712.28        496389.08         
NLJ0010          -1289311.87        488921.51         
NLL0668          -1285955.50        493749.25         
NLJ2638          -1285485.66        490914.21         
NLJ1418          -1286844.14        487313.32         
NLH0530          -1290410.46        497687.08         
NLH0350          -1289934.64        498331.19         
NLH0130          -1289711.88        499221.25         
NLH0150          -1289705.33        499270.49         
NLO0150          -1286133.96        497181.32         
NLO0130          -1286172.38        497084.85         
NLO0110          -1286142.87        497259.33         
NLH1250          -1292892.83        497952.04         
NLZ0560          -1292143.26        500418.13         
NLJ1780          -1286278.54        488654.05         
NLZ0500          -1292612.36        499821.25         
NLZ0340          -1293880.15        498712.49         
NLZ0300          -1294566.30        498452.13         
NLZ0240          -1285361.33        498026.77         
NLZ0260          -1284789.42        497741.94         
NLZ0360          -1293880.89        498822.74         
NLZ0380          -1293834.82        499230.11         
NLH2800          -1290553.25        493285.80         
NLZ0610          -1288379.51        500243.35         
NLH1770          -1288138.59        497361.32         
NLH0933          -1290966.84        496544.40         
NLH1763          -1287764.86        497693.16         
NLH1769          -1287785.34        497750.36         
NLJ2625          -1285139.23        490988.64         
NLJ1878          -1285401.89        489955.62         
NLH0931          -1290959.25        496589.55         
NLJ1905          -1285972.98        489273.26         
NLJ1882          -1285422.95        490001.75         
NLJ2380          -1283964.47        489575.52         
NLJ2640          -1285538.14        490909.94         
NLL0690          -1286023.54        493721.92         
NLH2380          -1290817.55        496004.89         
NLJ1420          -1286889.63        487316.87         
NLJ1160          -1286738.08        486593.59         
NLJ2180          -1285419.01        489274.35         
NLL0050          -1283561.71        496834.57         
NLL0290          -1284962.36        494629.78         
NLH1767          -1287758.63        497669.03         
NLH0935          -1290968.25        496515.42         
NLH2240          -1290369.72        494926.38         
NLJ2182          -1285533.82        489511.04         
NLJ1907          -1285600.28        489546.23         
NLJ1010          -1286925.05        485894.55         
NLJ0788          -1287944.53        492742.91         
NLH1475          -1292843.45        495913.40         
NLZ0003          -1287794.46        505117.81         
NLZ0004          -1292359.93        502852.11         
NLZ0005          -1285957.84        500045.03         
NLZ0007          -1281287.05        492709.60         
NLZ0008          -1287337.96        485468.23         
NLZ0011          -1278771.61        482531.18         
NLZ0012          -1302345.38        491572.77         
NLP0590          -1280203.62        483285.80         

[MAP]
DIMENSIONS -1302382.31 480132.26 -1278771.61 505117.81
Units      None

[REPORT]
SUBCATCHMENTS ALL
NODES ALL
LINKS ALL
