;; SWMM5 .inp converted from XPSWMM .xp file
;; Generated by XPSWMM Card Reader
;; Source format: XP_CARD | Original title: 1:5 year flood predeveloed
;; Links parsed from source: 10 | Routable in this .inp: 10

[TITLE]
;;Project Title/Notes
1:5 year flood predeveloed

[OPTIONS]
FLOW_UNITS           CFS
INFILTRATION         HORTON
FLOW_ROUTING         DYNWAVE
LINK_OFFSETS         DEPTH
MIN_SLOPE            0.0
ALLOW_PONDING        NO
SKIP_STEADY_STATE    NO
ROUTING_STEP         00:00:20
VARIABLE_STEP        0.75
INERTIAL_DAMPING     PARTIAL
NORMAL_FLOW_LIMITED  BOTH
START_DATE           01/01/2001
START_TIME           00:00:00
REPORT_START_DATE    01/01/2001
REPORT_START_TIME    00:00:00
END_DATE             01/02/2001
END_TIME             00:00:00
SWEEP_START          01/01
SWEEP_END            12/31
DRY_DAYS             0
REPORT_STEP          00:15:00
WET_STEP             00:05:00
DRY_STEP             01:00:00

[JUNCTIONS]
;;Name           Elev       MaxDepth   InitDepth  SurDepth   Aponded
;;-------------- ---------- ---------- ---------- ---------- ----------
Node_1           0          0          0          0          0
Node_2           609.79     0          0          0          0
Node_5           0          0          0          0          0
Node_3           609.79     0          0          0          0
Node_6           0          0          0          0          0
Node_4           609.79     0          0          0          0
Node_21          609.79     0          0          0          0
Node_31          609.79     0          0          0          0

[OUTFALLS]
;;Name           Elev       Type       Stage      Gated
;;-------------- ---------- ---------- ---------- -----
Node_out         609.79     FREE                  NO

[CONDUITS]
;;Name           From             To               Length     Roughness  InOffset   OutOffset  InitFlow   MaxFlow
;;-------------- ---------------- ---------------- ---------- ---------- ---------- ---------- ---------- ----------
210.1            Node_1           Node_2           1400.00    0.0200     0          0          0          0
104              Node_2           Node_3           1230.00    0.0200     604.00     603.00     0          0
105              Node_3           Node_4           1230.00    0.0200     603.00     602.00     0          0
102              Node_5           Node_3           1460.00    0.0200     0          0          0          0
103              Node_6           Node_4           1230.00    0.0140     0          0          0          0
C1-1             Node_2           Node_21          150.00     0.0130     604.00     603.50     0          0
C1-2             Node_21          Node_3           150.00     0.0130     603.50     603.00     0          0
C2-2             Node_31          Node_4           140.00     0.0130     602.50     602.00     0          0
222.1            Node_3           Node_31          140.00     0.0130     603.00     602.50     0          0
C3               Node_4           Node_out         100.00     0.0140     602.00     601.00     0          0

[XSECTIONS]
;;Link           Shape        Geom1      Geom2      Geom3      Geom4      Barrels
;;-------------- ------------ ---------- ---------- ---------- ---------- ----------
210.1            TRAPEZOIDAL  4.00       2.00       1          1          1
104              TRAPEZOIDAL  4.00       2.50       1          1          1
105              TRAPEZOIDAL  4.00       3.00       1          1          1
102              TRAPEZOIDAL  4.00       2.00       1          1          1
103              TRAPEZOIDAL  4.00       2.00       1          1          1
C1-1             TRAPEZOIDAL  5.00       2.50       1          1          1
C1-2             TRAPEZOIDAL  5.00       2.50       1          1          1
C2-2             TRAPEZOIDAL  5.00       3.00       1          1          1
222.1            TRAPEZOIDAL  5.00       3.00       1          1          1
C3               TRAPEZOIDAL  5.00       3.00       1          1          1

[LOSSES]
;;Link           Inlet      Outlet     Average    Flap Gate
;;-------------- ---------- ---------- ---------- ----------
210.1            0          0          0          NO
104              0          0          0          NO
105              0          0          0          NO
102              0          0          0          NO
103              0          0          0          NO
C1-1             0          0          0          NO
C1-2             0          0          0          NO
C2-2             0          0          0          NO
222.1            0          0          0          NO
C3               0          0          0          NO

[INFLOWS]
;;Node           Constituent  Time Series      Type     Mfactor  Sfactor  Baseline Pattern
;;-------------- ------------ ---------------- -------- -------- -------- -------- --------
;; SYNTHETIC TEST INFLOWS — the source .xp carried no constant inflows
;; and RUNF hydrology is not converted; 1.00 CFS is applied at each
;; headwater node so the network runs wet for QA. Replace with real
;; hydrology or inflow hydrographs before using results.
Node_1           FLOW         ""               FLOW     1.0      1.0      1.00
Node_5           FLOW         ""               FLOW     1.0      1.0      1.00
Node_6           FLOW         ""               FLOW     1.0      1.0      1.00

[COORDINATES]
;;Node           X-Coord            Y-Coord
;;-------------- ------------------ ------------------
Node_1           -1961.58           -5.83             
Node_2           -1961.58           1233.39           
Node_5           -731.58            -231.58           
Node_3           -735.85            1238.32           
Node_6           498.42             -5.83             
Node_4           498.42             1224.17           
Node_21          -1360.62           1361.91           
Node_31          -143.42            1356.97           
Node_out         928.66             1222.04           

[MAP]
DIMENSIONS -1961.58 -231.58 928.66 1361.91
Units      None

[REPORT]
SUBCATCHMENTS ALL
NODES ALL
LINKS ALL
