;; SWMM5 .inp converted from XPSWMM .xp file
;; Generated by XPSWMM Card Reader
;; Source format: XP_CARD | Original title: Test of Extran
;; Links parsed from source: 13 | Routable in this .inp: 13

[TITLE]
;;Project Title/Notes
Test of Extran

[OPTIONS]
FLOW_UNITS           CFS
INFILTRATION         HORTON
FLOW_ROUTING         DYNWAVE
LINK_OFFSETS         DEPTH
MIN_SLOPE            0.0
ALLOW_PONDING        NO
SKIP_STEADY_STATE    NO
ROUTING_STEP         00:00:30
VARIABLE_STEP        0.75
INERTIAL_DAMPING     PARTIAL
NORMAL_FLOW_LIMITED  BOTH
HEAD_TOLERANCE       0.0033
START_DATE           01/01/2001
START_TIME           00:00:00
REPORT_START_DATE    01/01/2001
REPORT_START_TIME    00:00:00
END_DATE             01/02/2001
END_TIME             00:00:00
SWEEP_START          01/01
SWEEP_END            12/31
DRY_DAYS             0
REPORT_STEP          00:15:00
WET_STEP             00:05:00
DRY_STEP             01:00:00

[JUNCTIONS]
;;Name           Elev       MaxDepth   InitDepth  SurDepth   Aponded
;;-------------- ---------- ---------- ---------- ---------- ----------
210              10.00      0          0          0          0
212              10.00      0          0          0          0
214              10.00      0          0          0          0
216              10.00      0          0          0          0
218              10.00      0          0          0          0
220              10.00      0          0          0          0
222              10.00      0          0          0          0
224              10.00      0          0          0          0
226              10.00      0          0          0          0
228              10.00      0          0          0          0
230              10.00      0          0          0          0
232              10.00      0          0          0          0
234              10.00      0          0          0          0
HW_209           0          0          0          0          0
HW_210           0          0          0          0          0
HW_212           0          0          0          0          0
HW_214           0          0          0          0          0
HW_216           0          0          0          0          0
HW_218           0          0          0          0          0
HW_220           0          0          0          0          0
HW_222           0          0          0          0          0
HW_224           0          0          0          0          0
HW_226           0          0          0          0          0
HW_228           0          0          0          0          0
HW_230           0          0          0          0          0
HW_232           0          0          0          0          0

[OUTFALLS]
;;Name           Elev       Type       Stage      Gated
;;-------------- ---------- ---------- ---------- -----
209              10.00      FREE                  NO

[CONDUITS]
;;Name           From             To               Length     Roughness  InOffset   OutOffset  InitFlow   MaxFlow
;;-------------- ---------------- ---------------- ---------- ---------- ---------- ---------- ---------- ----------
209              HW_209           209              50.00      0.0140     0          0          0          0
210              HW_210           210              50.00      0.0140     0          0          0          0
212              HW_212           212              50.00      0.0140     0          0          0          0
214              HW_214           214              50.00      0.0140     0          0          0          0
216              HW_216           216              50.00      0.0140     0          0          0          0
218              HW_218           218              50.00      0.0140     0          0          0          0
220              HW_220           220              50.00      0.0140     0          0          0          0
222              HW_222           222              50.00      0.0140     0          0          0          0
224              HW_224           224              50.00      0.0140     0          0          0          0
226              HW_226           226              50.00      0.0140     0          0          0          0
228              HW_228           228              50.00      0.0140     0          0          0          0
230              HW_230           230              50.00      0.0140     0          0          0          0
232              HW_232           232              50.00      0.0140     0          0          0          0

[XSECTIONS]
;;Link           Shape        Geom1      Geom2      Geom3      Geom4      Barrels
;;-------------- ------------ ---------- ---------- ---------- ---------- ----------
209              CIRCULAR     2.00       0          0          0          1
210              CIRCULAR     2.00       0          0          0          1
212              CIRCULAR     2.00       0          0          0          1
214              CIRCULAR     2.00       0          0          0          1
216              CIRCULAR     2.00       0          0          0          1
218              CIRCULAR     2.00       0          0          0          1
220              CIRCULAR     2.00       0          0          0          1
222              CIRCULAR     2.00       0          0          0          1
224              CIRCULAR     2.00       0          0          0          1
226              CIRCULAR     2.00       0          0          0          1
228              CIRCULAR     2.00       0          0          0          1
230              CIRCULAR     2.00       0          0          0          1
232              CIRCULAR     2.00       0          0          0          1

[LOSSES]
;;Link           Inlet      Outlet     Average    Flap Gate
;;-------------- ---------- ---------- ---------- ----------
209              0          0          0          NO
210              0          0          0          NO
212              0          0          0          NO
214              0          0          0          NO
216              0          0          0          NO
218              0          0          0          NO
220              0          0          0          NO
222              0          0          0          NO
224              0          0          0          NO
226              0          0          0          NO
228              0          0          0          NO
230              0          0          0          NO
232              0          0          0          NO

[INFLOWS]
;;Node           Constituent  Time Series      Type     Mfactor  Sfactor  Baseline Pattern
;;-------------- ------------ ---------------- -------- -------- -------- -------- --------
;; SYNTHETIC TEST INFLOWS — the source .xp carried no constant inflows
;; and RUNF hydrology is not converted; 1.00 CFS is applied at each
;; headwater node so the network runs wet for QA. Replace with real
;; hydrology or inflow hydrographs before using results.
HW_209           FLOW         ""               FLOW     1.0      1.0      1.00
HW_210           FLOW         ""               FLOW     1.0      1.0      1.00
HW_212           FLOW         ""               FLOW     1.0      1.0      1.00
HW_214           FLOW         ""               FLOW     1.0      1.0      1.00
HW_216           FLOW         ""               FLOW     1.0      1.0      1.00
HW_218           FLOW         ""               FLOW     1.0      1.0      1.00
HW_220           FLOW         ""               FLOW     1.0      1.0      1.00
HW_222           FLOW         ""               FLOW     1.0      1.0      1.00
HW_224           FLOW         ""               FLOW     1.0      1.0      1.00
HW_226           FLOW         ""               FLOW     1.0      1.0      1.00
HW_228           FLOW         ""               FLOW     1.0      1.0      1.00
HW_230           FLOW         ""               FLOW     1.0      1.0      1.00
HW_232           FLOW         ""               FLOW     1.0      1.0      1.00

[COORDINATES]
;;Node           X-Coord            Y-Coord
;;-------------- ------------------ ------------------
209              14.06              50.71             
210              14.21              51.99             
212              14.28              53.63             
214              14.41              55.10             
216              14.61              56.56             
218              15.47              56.83             
220              16.21              57.00             
222              16.46              55.05             
224              16.50              53.83             
226              16.57              52.64             
228              17.42              52.51             
230              18.43              52.59             
232              18.39              53.53             
234              18.30              54.88             

[MAP]
DIMENSIONS 14.06 50.71 18.43 57.00
Units      None

[REPORT]
SUBCATCHMENTS ALL
NODES ALL
LINKS ALL
