;; SWMM5 .inp converted from XPSWMM .xp file
;; Generated by XPSWMM Card Reader
;; Source format: XP_CARD | Original title: SWMM RUNOFF-EXTRAN SIMULATIE VAN RIOOLSTELSELS, MAARTENSDIJK
;; NOTE: 22 link(s) dropped (missing endpoint): 0001420, 0021421, 0041422, 10061423, 10081424, 10101425, 10121426, 10151428, 10171429, 0171430, 10201431, 10221432, 10241433, 10261434, 10281435, 10301436, 10301437, 10321438, 0321439, 10371440, 10391441, 64

[TITLE]
;;Project Title/Notes
SWMM RUNOFF-EXTRAN SIMULATIE VAN RIOOLSTELSELS, MAARTENSDIJK

[OPTIONS]
FLOW_UNITS           CMS
INFILTRATION         HORTON
FLOW_ROUTING         DYNWAVE
LINK_OFFSETS         DEPTH
MIN_SLOPE            0.0
ALLOW_PONDING        NO
SKIP_STEADY_STATE    NO
ROUTING_STEP         00:00:01
VARIABLE_STEP        0.75
INERTIAL_DAMPING     NONE
NORMAL_FLOW_LIMITED  BOTH
MAX_TRIALS           30
START_DATE           01/01/2001
START_TIME           00:00:00
REPORT_START_DATE    01/01/2001
REPORT_START_TIME    00:00:00
END_DATE             01/02/2001
END_TIME             00:00:00
SWEEP_START          01/01
SWEEP_END            12/31
DRY_DAYS             0
REPORT_STEP          00:15:00
WET_STEP             00:05:00
DRY_STEP             01:00:00

[JUNCTIONS]
;;Name           Elev       MaxDepth   InitDepth  SurDepth   Aponded
;;-------------- ---------- ---------- ---------- ---------- ----------
220550           1.97       0          0          0          0
220552           2.00       0          0          0          0
220553           1.98       0          0          0          0
220969           2.01       0          0          0          0
220554           1.92       0          0          0          0
220555           1.87       0          0          0          0
220556           1.98       0          0          0          0
220557           1.94       0          0          0          0
220558           2.10       0          0          0          0
220559           2.04       0          0          0          0
220560           2.22       0          0          0          0
220562           2.12       0          0          0          0
220831           2.02       0          0          0          0
220563           2.19       0          0          0          0
220564           2.37       0          0          0          0
220565           2.60       0          0          0          0
220826           1.91       0          0          0          0
220566           2.86       0          0          0          0
220567           2.75       0          0          0          0
220568           2.51       0          0          0          0
220825           2.32       0          0          0          0
220569           2.24       0          0          0          0
220570           2.02       0          0          0          0
220723           1.94       0          0          0          0
220571           2.05       0          0          0          0
220572           2.09       0          0          0          0
220574           2.18       0          0          0          0
220603           2.00       0          0          0          0
220575           2.31       0          0          0          0
220600           1.97       0          0          0          0
220576           2.33       0          0          0          0
220577           2.28       0          0          0          0
220578           2.13       0          0          0          0
220579           2.20       0          0          0          0
220580           2.21       0          0          0          0
220581           2.25       0          0          0          0
220582           2.21       0          0          0          0
220583           2.27       0          0          0          0
220584           2.23       0          0          0          0
220585           2.50       0          0          0          0
220586           2.31       0          0          0          0
220593           2.48       0          0          0          0
220587           2.47       0          0          0          0
220588           2.49       0          0          0          0
220589           2.20       0          0          0          0
220590           2.34       0          0          0          0
220591           2.33       0          0          0          0
220592           2.26       0          0          0          0
220594           2.19       0          0          0          0
220595           2.15       0          0          0          0
220596           2.17       0          0          0          0
220597           2.17       0          0          0          0
220598           2.12       0          0          0          0
220599           2.12       0          0          0          0
220601           1.99       0          0          0          0
220602           1.96       0          0          0          0
220604           2.05       0          0          0          0
220605           2.02       0          0          0          0
220606           2.07       0          0          0          0
220607           2.02       0          0          0          0
220608           2.06       0          0          0          0
220609           2.07       0          0          0          0
220732           2.11       0          0          0          0
220610           1.99       0          0          0          0
220611           2.01       0          0          0          0
220735           2.00       0          0          0          0
220612           1.98       0          0          0          0
220613           2.03       0          0          0          0
220738           2.12       0          0          0          0
220614           2.01       0          0          0          0
220615           1.99       0          0          0          0
220742           1.97       0          0          0          0
220616           2.19       0          0          0          0
220618           2.09       0          0          0          0
220619           2.20       0          0          0          0
220620           2.22       0          0          0          0
220632           2.01       0          0          0          0
220631           1.99       0          0          0          0
220652           2.09       0          0          0          0
220633           2.00       0          0          0          0
220634           2.00       0          0          0          0
220635           1.99       0          0          0          0
220639           2.32       0          0          0          0
220636           1.98       0          0          0          0
220637           1.99       0          0          0          0
220638           1.99       0          0          0          0
220640           1.99       0          0          0          0
220641           2.04       0          0          0          0
220642           2.02       0          0          0          0
220654           2.06       0          0          0          0
220643           2.06       0          0          0          0
220644           2.01       0          0          0          0
220657           2.04       0          0          0          0
220784           2.03       0          0          0          0
220645           1.99       0          0          0          0
220670           2.03       0          0          0          0
220646           2.00       0          0          0          0
220671           2.02       0          0          0          0
220647           2.04       0          0          0          0
220648           2.05       0          0          0          0
220668           2.03       0          0          0          0
220649           2.09       0          0          0          0
220667           2.01       0          0          0          0
220650           2.07       0          0          0          0
220690           1.92       0          0          0          0
220651           1.99       0          0          0          0
220666           2.01       0          0          0          0
220653           1.98       0          0          0          0
220698           1.87       0          0          0          0
220656           1.98       0          0          0          0
220655           2.02       0          0          0          0
220678           2.00       0          0          0          0
220658           2.01       0          0          0          0
220659           2.00       0          0          0          0
220660           2.01       0          0          0          0
220661           2.01       0          0          0          0
220662           2.00       0          0          0          0
220663           2.00       0          0          0          0
220664           1.98       0          0          0          0
220665           2.02       0          0          0          0
220669           1.99       0          0          0          0
220672           1.99       0          0          0          0
220701           1.98       0          0          0          0
220673           1.91       0          0          0          0
220677           1.93       0          0          0          0
220674           1.97       0          0          0          0
220675           1.91       0          0          0          0
220676           1.96       0          0          0          0
220685           1.95       0          0          0          0
220679           2.00       0          0          0          0
220680           1.96       0          0          0          0
220681           2.00       0          0          0          0
220682           1.94       0          0          0          0
220695           1.94       0          0          0          0
220696           1.91       0          0          0          0
220683           1.97       0          0          0          0
220684           1.95       0          0          0          0
220703           1.97       0          0          0          0
220688           1.94       0          0          0          0
220686           1.96       0          0          0          0
220687           2.00       0          0          0          0
220689           1.99       0          0          0          0
220700           2.00       0          0          0          0
220691           1.91       0          0          0          0
220692           1.87       0          0          0          0
220693           1.86       0          0          0          0
220694           1.95       0          0          0          0
220709           2.01       0          0          0          0
220697           2.01       0          0          0          0
220699           1.87       0          0          0          0
220702           2.02       0          0          0          0
220704           2.02       0          0          0          0
220707           2.03       0          0          0          0
220708           1.99       0          0          0          0
220751           2.07       0          0          0          0
220710           2.02       0          0          0          0
220767           2.00       0          0          0          0
220711           2.01       0          0          0          0
220712           2.03       0          0          0          0
220817           2.01       0          0          0          0
220713           1.98       0          0          0          0
220814           1.97       0          0          0          0
220714           1.96       0          0          0          0
220745           2.03       0          0          0          0
220796           2.14       0          0          0          0
220715           2.10       0          0          0          0
220716           2.05       0          0          0          0
220741           2.10       0          0          0          0
220717           2.00       0          0          0          0
220718           1.94       0          0          0          0
220737           2.02       0          0          0          0
220719           2.16       0          0          0          0
220720           2.11       0          0          0          0
220721           1.95       0          0          0          0
220734           2.07       0          0          0          0
220722           1.94       0          0          0          0
220731           2.06       0          0          0          0
220725           2.06       0          0          0          0
220726           2.08       0          0          0          0
220727           2.07       0          0          0          0
220728           2.08       0          0          0          0
220730           2.08       0          0          0          0
220729           2.07       0          0          0          0
220733           2.06       0          0          0          0
220736           2.02       0          0          0          0
220739           1.98       0          0          0          0
220747           2.02       0          0          0          0
220740           2.10       0          0          0          0
220746           2.04       0          0          0          0
220743           1.99       0          0          0          0
220744           1.97       0          0          0          0
220754           2.31       0          0          0          0
220752           2.05       0          0          0          0
220753           2.00       0          0          0          0
220755           2.27       0          0          0          0
220768           2.01       0          0          0          0
220769           2.00       0          0          0          0
220770           1.99       0          0          0          0
220813           2.03       0          0          0          0
220771           1.98       0          0          0          0
220772           2.00       0          0          0          0
220808           1.97       0          0          0          0
220773           1.99       0          0          0          0
220774           1.98       0          0          0          0
220788           2.00       0          0          0          0
220789           1.99       0          0          0          0
220775           1.98       0          0          0          0
220779           1.96       0          0          0          0
220780           1.96       0          0          0          0
220912           1.97       0          0          0          0
220776           1.99       0          0          0          0
220777           1.96       0          0          0          0
220778           1.96       0          0          0          0
220795           1.94       0          0          0          0
220781           1.94       0          0          0          0
220782           1.96       0          0          0          0
220783           2.08       0          0          0          0
220787           2.12       0          0          0          0
220785           2.03       0          0          0          0
220786           2.07       0          0          0          0
220928           1.90       0          0          0          0
220790           1.98       0          0          0          0
220791           2.00       0          0          0          0
220792           2.06       0          0          0          0
220793           1.99       0          0          0          0
220802           2.02       0          0          0          0
220840           2.03       0          0          0          0
220794           1.99       0          0          0          0
220797           2.22       0          0          0          0
220798           2.09       0          0          0          0
220819           2.22       0          0          0          0
220799           2.02       0          0          0          0
220800           2.01       0          0          0          0
220809           1.99       0          0          0          0
220801           2.03       0          0          0          0
220806           2.01       0          0          0          0
220803           2.15       0          0          0          0
220804           2.01       0          0          0          0
220839           2.06       0          0          0          0
220849           2.03       0          0          0          0
220807           2.01       0          0          0          0
220810           2.02       0          0          0          0
220811           2.03       0          0          0          0
220816           1.99       0          0          0          0
220812           2.03       0          0          0          0
220818           2.01       0          0          0          0
220815           1.96       0          0          0          0
220820           2.16       0          0          0          0
220821           2.12       0          0          0          0
220822           2.21       0          0          0          0
220823           2.21       0          0          0          0
220830           1.89       0          0          0          0
220824           2.26       0          0          0          0
220827           1.89       0          0          0          0
220828           1.84       0          0          0          0
220829           1.84       0          0          0          0
220832           1.99       0          0          0          0
220833           2.00       0          0          0          0
220844           1.99       0          0          0          0
220834           1.99       0          0          0          0
220861           1.99       0          0          0          0
220835           1.98       0          0          0          0
220836           1.99       0          0          0          0
220837           1.99       0          0          0          0
220838           1.99       0          0          0          0
220842           1.99       0          0          0          0
220843           1.99       0          0          0          0
220845           2.00       0          0          0          0
220846           2.01       0          0          0          0
220847           2.01       0          0          0          0
220848           2.01       0          0          0          0
220850           1.99       0          0          0          0
220851           1.99       0          0          0          0
220852           1.99       0          0          0          0
220853           2.01       0          0          0          0
220854           2.06       0          0          0          0
220876           2.02       0          0          0          0
220855           2.14       0          0          0          0
220858           1.99       0          0          0          0
220856           2.19       0          0          0          0
220857           2.18       0          0          0          0
220859           2.01       0          0          0          0
220866           2.02       0          0          0          0
220860           1.99       0          0          0          0
220865           2.07       0          0          0          0
220862           1.98       0          0          0          0
220868           2.06       0          0          0          0
220870           2.08       0          0          0          0
220863           1.98       0          0          0          0
220864           2.08       0          0          0          0
220867           2.03       0          0          0          0
220869           2.09       0          0          0          0
220871           2.08       0          0          0          0
220872           1.99       0          0          0          0
220873           2.02       0          0          0          0
220874           2.05       0          0          0          0
220875           2.04       0          0          0          0
220878           2.08       0          0          0          0
220879           2.02       0          0          0          0
220880           2.07       0          0          0          0
220881           2.07       0          0          0          0
220893           2.02       0          0          0          0
220882           2.10       0          0          0          0
220883           2.04       0          0          0          0
220884           2.14       0          0          0          0
220885           2.01       0          0          0          0
220886           1.98       0          0          0          0
220887           2.00       0          0          0          0
220890           2.02       0          0          0          0
220888           2.02       0          0          0          0
220889           2.04       0          0          0          0
220891           2.03       0          0          0          0
220892           2.03       0          0          0          0
220958           2.06       0          0          0          0
220894           2.09       0          0          0          0
220896           2.00       0          0          0          0
220897           1.99       0          0          0          0
220898           1.86       0          0          0          0
220899           1.85       0          0          0          0
220900           2.04       0          0          0          0
220902           1.87       0          0          0          0
220901           1.98       0          0          0          0
220903           2.05       0          0          0          0
220907           1.98       0          0          0          0
220904           2.02       0          0          0          0
220905           1.98       0          0          0          0
220906           1.99       0          0          0          0
220908           1.99       0          0          0          0
220909           2.03       0          0          0          0
220913           2.01       0          0          0          0
220910           2.07       0          0          0          0
220911           1.99       0          0          0          0
220914           1.97       0          0          0          0
220916           2.00       0          0          0          0
220915           1.92       0          0          0          0
220917           2.04       0          0          0          0
220919           2.00       0          0          0          0
220918           1.98       0          0          0          0
220923           1.97       0          0          0          0
220920           2.00       0          0          0          0
220925           1.97       0          0          0          0
220922           1.96       0          0          0          0
220921           1.94       0          0          0          0
220929           2.02       0          0          0          0
220943           2.13       0          0          0          0
220924           2.10       0          0          0          0
220926           2.09       0          0          0          0
220927           2.07       0          0          0          0
220930           2.03       0          0          0          0
220939           2.00       0          0          0          0
220931           2.05       0          0          0          0
220932           1.99       0          0          0          0
220933           2.03       0          0          0          0
220934           2.01       0          0          0          0
220935           2.02       0          0          0          0
220936           2.01       0          0          0          0
220938           2.06       0          0          0          0
220937           1.98       0          0          0          0
220942           1.98       0          0          0          0
220940           2.02       0          0          0          0
220941           2.00       0          0          0          0
220944           2.02       0          0          0          0
220945           2.02       0          0          0          0
220946           2.02       0          0          0          0
220948           2.03       0          0          0          0
220947           2.00       0          0          0          0
220954           2.02       0          0          0          0
220949           2.04       0          0          0          0
220951           2.20       0          0          0          0
220950           2.04       0          0          0          0
220952           2.06       0          0          0          0
220953           2.06       0          0          0          0
220955           2.08       0          0          0          0
220956           2.04       0          0          0          0
220957           2.02       0          0          0          0
220959           1.99       0          0          0          0
220960           1.92       0          0          0          0
220962           2.00       0          0          0          0
220961           2.12       0          0          0          0
220963           1.99       0          0          0          0
220964           2.01       0          0          0          0
220965           2.03       0          0          0          0
220966           1.95       0          0          0          0
220967           2.13       0          0          0          0
220968           2.13       0          0          0          0
220973           2.78       0          0          0          0
220974           2.63       0          0          0          0
999623           1.00       0          0          0          0
OW0              1.00       0          0          0          0
OW1              1.00       0          0          0          0
OW2              1.00       0          0          0          0

[OUTFALLS]
;;Name           Elev       Type       Stage      Gated
;;-------------- ---------- ---------- ---------- -----
220551           1.64       FREE                  NO

[STORAGE]
;;Name           Elev       MaxDepth   InitDepth  Shape      Curve/Params
;;-------------- ---------- ---------- ---------- ---------- ----------
220561           2.18       10.00      0          FUNCTIONAL 2.00 0          0
220573           2.27       10.00      0          FUNCTIONAL 2.00 0          0
220617           2.25       10.00      0          FUNCTIONAL 2.00 0          0
220621           2.10       10.00      0          FUNCTIONAL 2.00 0          0
220748           2.15       10.00      0          FUNCTIONAL 2.00 0          0
220622           2.03       10.00      0          FUNCTIONAL 2.00 0          0
220975           1.64       10.00      0          FUNCTIONAL 2.00 0          0
220623           1.65       10.00      0          FUNCTIONAL 7.00 0          0
220628           2.03       10.00      0          FUNCTIONAL 3.00 0          0
220624           1.98       10.00      0          FUNCTIONAL 3.00 0          0
220625           1.97       10.00      0          FUNCTIONAL 3.00 0          0
220626           1.87       10.00      0          FUNCTIONAL 3.00 0          0
220627           1.87       10.00      0          FUNCTIONAL 3.00 0          0
220749           2.03       10.00      0          FUNCTIONAL 2.00 0          0
220750           2.05       10.00      0          FUNCTIONAL 2.00 0          0

[CONDUITS]
;;Name           From             To               Length     Roughness  InOffset   OutOffset  InitFlow   MaxFlow
;;-------------- ---------------- ---------------- ---------- ---------- ---------- ---------- ---------- ----------
201              220550           220551           56.60      0.0130     0.25       0.22       0          0
202              220949           220552           39.20      0.0130     0.22       0.19       0          0
204              220552           220553           14.30      0.0130     0.19       0.15       0          0
208              220951           220552           40.20      0.0130     0.35       0.19       0          0
206              220553           220554           52.30      0.0130     0.15       0.06       0          0
210              220950           220555           55.90      0.0130     0.06       0.01       0          0
212              220555           220556           56.60      0.0130     0.01       0          0          0
214              220952           220557           55.10      0.0130     0          0          0          0
216              220557           220558           56.80      0.0130     0          0          0          0
220              220953           220558           32.80      0.0130     0          0          0          0
220_2            220559           220560           50.40      0.0130     0          0          0          0
224              220955           220560           51.00      0.0130     0          0          0          0
226              220562           220561           72.70      0.0130     0.77       0.55       0          0
224_2            220561           220831           43.10      0.0130     0          0          0          0
230              220956           220562           55.00      0.0130     0.91       0.77       0          0
230_2            220563           220564           55.90      0.0130     0.63       0.49       0          0
232              220957           220565           39.20      0.0130     0.49       0.39       0          0
236              220826           220564           47.10      0.0130     0.65       0.58       0          0
234              220565           220566           37.90      0.0130     0.39       0.28       0          0
238              220959           220567           41.10      0.0130     0.28       0.11       0          0
242              220568           220567           36.30      0.0130     0.15       0.11       0          0
244              220960           220567           45.90      0.0130     1.17       1.10       0          0
242_2            220568           220569           37.80      0.0130     0.15       0          0          0
246              220962           220570           46.20      0.0130     0          0          0          0
250              220723           220569           50.40      0.0130     0.07       0.05       0          0
248              220961           220571           45.60      0.0130     0          0          0          0
252              220571           220572           40.80      0.0130     0          0          0          0
254              220963           220573           38.40      0.0130     0          0          0          0
258              220574           220573           44.80      0.0130     0          0          0          0
260              220964           220573           36.40      0.0130     0          0          0          0
262              220575           220574           28.70      0.0130     0          0          0          0
264              220965           220574           58.80      0.0130     0.70       0.53       0          0
266              220576           220575           43.20      0.0130     0.01       0          0          0
268              220966           220576           42.70      0.0130     0.06       0.01       0          0
270              220578           220577           36.80      0.0130     0.08       0.06       0          0
270_2            220578           220579           20.30      0.0130     0.08       0.08       0          0
272              220967           220580           25.80      0.0130     0.08       0.05       0          0
276              220581           220580           36.10      0.0130     0.07       0.05       0          0
278              220968           220581           35.50      0.0130     0.12       0.07       0          0
280              220583           220582           31.30      0.0130     0.16       0.12       0          0
282              220973           220583           36.00      0.0130     0.18       0.16       0          0
284              220585           220584           9.80       0.0130     0.22       0.18       0          0
286              220974           220584           39.00      0.0130     0.43       0.37       0          0
288              220593           220585           9.30       0.0130     0          0          0          0
286_2            999623           220587           38.00      0.0130     0.43       0.41       0          0
292              220588           220587           33.50      0.0130     0.47       0.41       0          0
294              OW0              220587           48.40      0.0130     0.48       0.41       0          0
296              220590           220589           48.40      0.0130     0.53       0.48       0          0
298              OW1              220590           42.00      0.0130     0.70       0.53       0          0
300              220592           220591           47.50      0.0130     0.79       0.70       0          0
302              OW2              220593           32.50      0.0130     0.34       0.22       0          0
304              220595           220594           43.70      0.0130     0.41       0.34       0          0
306              220596           220595           41.80      0.0130     0.47       0.41       0          0
308              220597           220596           42.50      0.0130     0.60       0.47       0          0
310              220598           220597           18.60      0.0130     1.13       0.97       0          0
312              220599           220598           13.90      0.0130     1.15       1.13       0          0
314              220601           220600           27.90      0.0130     0.72       0.70       0          0
316              220602           220601           35.40      0.0130     0.80       0.72       0          0
260_2            220603           220604           33.20      0.0130     0          0          0          0
318              220604           220605           22.50      0.0130     0          0          0          0
320              220605           220606           31.10      0.0130     0          0          0          0
322              220606           220607           33.80      0.0130     0          0          0          0
326              220608           220607           55.50      0.0130     0          0          0          0
326_2            220608           220609           37.90      0.0130     0          0          0          0
330              220732           220608           46.30      0.0130     0.47       0.39       0          0
332              220610           220609           36.80      0.0130     0          0          0          0
332_2            220610           220611           33.60      0.0130     0          0          0          0
336              220735           220610           43.40      0.0130     0.51       0.43       0          0
334              220611           220612           33.00      0.0130     0          0          0          0
338              220612           220613           44.50      0.0130     0          0          0          0
342              220738           220612           48.10      0.0130     0.54       0.47       0          0
340              220613           220614           42.80      0.0130     0          0          0          0
344              220614           220615           52.30      0.0130     0          0          0          0
348              220742           220614           51.90      0.0130     0.46       0.45       0          0
346              220615           220616           42.90      0.0130     0          0          0          0
350              220616           220617           41.50      0.0130     0          0          0          0
354              220618           220617           10.00      0.0130     0.47       0          0          0
356              220621           220617           12.60      0.0130     0          0          0          0
358              220748           220617           63.40      0.0130     0          0          0          0
360              220619           220618           41.90      0.0130     0.58       0.47       0          0
362              220620           220619           32.10      0.0130     0.74       0.58       0          0
364              220622           220621           13.40      0.0130     0          0          0          0
356_2            220621           220975           5.40       0.0130     0          0          0          0
366              220975           220623           5.40       0.0130     0          0          0          0
370              220628           220624           79.40      0.0140     0          0          0          0
371              220624           220625           68.10      0.0140     0          0          0          0
373              220625           220626           49.10      0.0140     0          0          0          0
375              220626           220627           27.10      0.0140     0          0          0          0
379              220632           220631           38.00      0.0130     0.35       0.28       0          0
380              220631           220652           50.30      0.0130     0.28       0.13       0          0
384              220633           220632           41.00      0.0130     0.41       0.35       0          0
386              220634           220633           38.90      0.0130     0.51       0.41       0          0
388              220635           220634           48.70      0.0130     0.63       0.51       0          0
386_2            220634           220639           37.70      0.0130     0.56       0.52       0          0
392              220636           220635           10.00      0.0110     0.73       0.63       0          0
394              220637           220636           10.30      0.0110     0.76       0.73       0          0
396              220638           220636           44.80      0.0110     0.81       0.73       0          0
390              220639           220640           42.20      0.0130     0.52       0.44       0          0
398              220640           220641           39.00      0.0130     0.44       0.35       0          0
400              220641           220642           39.30      0.0130     0.35       0.27       0          0
402              220642           220654           22.60      0.0130     0.27       0.17       0          0
406              220643           220644           44.60      0.0130     0          0          0          0
409              220657           220643           45.60      0.0130     0.05       0          0          0
406_2            220643           220784           45.00      0.0130     0          0          0          0
407              220644           220645           17.70      0.0130     0          0          0          0
415              220670           220644           39.90      0.0130     0.55       0.37       0          0
413              220645           220646           11.50      0.0130     0          0          0          0
419              220671           220645           24.00      0.0130     0.43       0.38       0          0
417              220646           220647           39.10      0.0130     0          0          0          0
421              220647           220648           31.80      0.0130     0          0          0          0
425              220668           220647           44.20      0.0130     0.57       0.41       0          0
423              220648           220649           10.20      0.0130     0          0          0          0
429              220667           220648           48.90      0.0130     0.49       0.38       0          0
427              220649           220650           30.70      0.0130     0          0          0          0
433              220690           220649           36.50      0.0130     0.52       0.40       0          0
431              220650           220651           31.60      0.0130     0          0          0          0
382              220652           220651           48.10      0.0130     0          0          0          0
438              220666           220651           41.80      0.0130     0.10       0          0          0
382_2            220652           220653           49.00      0.0130     0          0          0          0
442              220698           220652           17.20      0.0130     0.52       0.46       0          0
440              220653           220654           52.60      0.0130     0          0          0          0
445              220656           220653           12.80      0.0110     0.75       0.70       0          0
404              220654           220655           50.30      0.0130     0          0          0          0
449              220678           220654           13.40      0.0130     0.35       0.34       0          0
409_2            220657           220658           42.80      0.0130     0.05       0.04       0          0
453              220659           220658           43.50      0.0130     0.09       0.04       0          0
453_2            220659           220660           34.50      0.0130     0.54       0.47       0          0
455              220660           220661           37.10      0.0130     0.47       0.41       0          0
457              220661           220662           53.70      0.0130     0.41       0.32       0          0
459              220662           220663           58.10      0.0130     0.32       0.22       0          0
461              220663           220664           30.70      0.0130     0.22       0.09       0          0
465              220665           220664           36.30      0.0130     0.13       0.09       0          0
465_2            220665           220666           36.10      0.0130     0.13       0.10       0          0
438_2            220666           220667           33.70      0.0130     0.62       0.49       0          0
469              220669           220668           23.10      0.0130     0.62       0.57       0          0
425_2            220668           220670           39.30      0.0130     0.59       0.55       0          0
472              220672           220671           32.50      0.0130     0.48       0.43       0          0
474              220701           220671           33.50      0.0130     0.64       0.57       0          0
476              220673           220672           37.90      0.0130     0.52       0.48       0          0
478              220677           220672           20.20      0.0130     0.51       0.48       0          0
480              220674           220673           26.70      0.0130     0.60       0.52       0          0
482              220675           220674           31.20      0.0130     0.65       0.60       0          0
484              220676           220675           9.60       0.0130     0.68       0.65       0          0
486              220685           220677           37.00      0.0130     0.57       0.51       0          0
488              220679           220678           14.90      0.0110     0.79       0.70       0          0
490              220680           220678           31.10      0.0130     0.39       0.35       0          0
492              220681           220680           28.40      0.0130     0.42       0.39       0          0
494              220682           220681           47.40      0.0130     0.52       0.42       0          0
496              220695           220681           30.60      0.0130     0.65       0.54       0          0
498              220696           220681           30.90      0.0130     0.62       0.54       0          0
500              220683           220682           45.60      0.0130     0.66       0.52       0          0
500_2            220683           220684           20.40      0.0130     0.66       0.62       0          0
504              220703           220683           17.10      0.0110     0.79       0.74       0          0
502              220684           220685           29.40      0.0130     0.62       0.57       0          0
502_2            220684           220688           45.40      0.0130     0.62       0.60       0          0
509              220686           220685           38.00      0.0130     0.61       0.57       0          0
511              220687           220686           26.80      0.0130     0.84       0.74       0          0
507              220688           220689           21.00      0.0130     0.60       0.54       0          0
513              220689           220690           23.80      0.0130     0.54       0.52       0          0
516              220700           220690           50.20      0.0110     0.66       0.62       0          0
518              220691           220692           16.80      0.0110     0.87       0.77       0          0
519              220692           220693           17.30      0.0110     0.77       0.51       0          0
523              220694           220693           17.20      0.0130     0.59       0.51       0          0
521              220693           220709           55.90      0.0130     0.51       0.44       0          0
496_2            220695           220694           30.40      0.0130     0.65       0.59       0          0
498_2            220696           220697           32.00      0.0130     0.61       0.57       0          0
442_2            220698           220697           31.70      0.0130     0.65       0.56       0          0
516_2            220700           220697           7.90       0.0110     0.66       0.65       0          0
532              220699           220698           33.50      0.0110     0.79       0.65       0          0
534              220702           220701           29.60      0.0130     0.68       0.64       0          0
536              220704           220703           16.20      0.0110     0.88       0.79       0          0
538              220707           220655           50.20      0.0130     0          0          0          0
538_2            220707           220708           49.70      0.0130     0          0          0          0
540              220708           220751           50.10      0.0130     0          0          0          0
525              220709           220710           33.70      0.0130     0.44       0.41       0          0
546              220767           220709           50.90      0.0130     0.57       0.44       0          0
544              220710           220711           38.00      0.0130     0.41       0.35       0          0
550              220712           220711           72.40      0.0130     0.81       0.64       0          0
548              220711           220751           25.10      0.0130     0          0          0          0
553              220817           220711           47.70      0.0130     0          0          0          0
550_2            220712           220713           71.70      0.0130     0.81       0.72       0          0
550_3            220712           220814           52.00      0.0130     0.81       0.70       0          0
555              220713           220714           44.20      0.0130     0.72       0.61       0          0
555_2            220713           220745           37.90      0.0130     0.72       0.61       0          0
563              220796           220713           40.40      0.0130     0.76       0.72       0          0
559              220714           220715           42.80      0.0130     0.61       0.49       0          0
565              220715           220716           36.30      0.0130     0.49       0.45       0          0
569              220741           220715           33.90      0.0130     0.68       0.64       0          0
567              220716           220717           31.90      0.0130     0.45       0.34       0          0
571              220717           220718           37.10      0.0130     0.34       0.30       0          0
575              220737           220717           47.40      0.0130     0.64       0.54       0          0
573              220718           220719           38.80      0.0130     0.30       0.23       0          0
579              220720           220719           30.50      0.0110     0.68       0.55       0          0
577              220719           220721           39.10      0.0130     0.23       0.14       0          0
583              220734           220719           46.90      0.0130     0.65       0.55       0          0
581              220721           220722           45.40      0.0110     0.14       0.09       0          0
585              220722           220723           28.90      0.0130     0.09       0.07       0          0
588              220731           220723           29.50      0.0130     0.55       0.43       0          0
590              220725           220726           27.50      0.0130     0.82       0.72       0          0
591              220726           220727           28.90      0.0130     0.72       0.69       0          0
595              220728           220727           41.50      0.0130     0.79       0.69       0          0
593              220727           220730           35.50      0.0130     0.69       0.62       0          0
595_2            220728           220729           36.00      0.0130     0.79       0.70       0          0
599              220729           220730           41.20      0.0130     0.70       0.62       0          0
597              220730           220731           32.10      0.0130     0.62       0.55       0          0
603              220733           220732           47.80      0.0130     0.55       0.47       0          0
583_2            220734           220733           50.00      0.0130     0.65       0.55       0          0
606              220736           220735           49.80      0.0130     0.57       0.51       0          0
575_2            220737           220736           49.20      0.0130     0.64       0.57       0          0
342_2            220738           220739           32.90      0.0130     0.54       0.49       0          0
611              220747           220738           42.70      0.0130     0.67       0.60       0          0
613              220740           220739           38.40      0.0130     0.59       0.49       0          0
569_2            220741           220740           35.60      0.0130     0.68       0.59       0          0
616              220746           220740           42.60      0.0130     0.66       0.59       0          0
618              220743           220742           30.60      0.0130     0.51       0.46       0          0
611_2            220747           220742           44.20      0.0130     0.67       0.57       0          0
621              220744           220743           36.50      0.0130     0.56       0.51       0          0
561              220745           220744           37.10      0.0130     0.61       0.56       0          0
616_2            220746           220744           43.80      0.0130     0.66       0.62       0          0
625              220749           220748           57.30      0.0130     0          0          0          0
358_2            220748           220754           7.20       0.0130     0          0          0          0
629              220750           220749           51.70      0.0130     0          0          0          0
629_2            220750           220751           7.30       0.0130     0          0          0          0
542              220751           220752           26.40      0.0130     0          0          0          0
632              220752           220753           46.90      0.0130     0          0          0          0
634              220753           220754           34.90      0.0130     0          0          0          0
637              220755           220754           7.70       0.0130     0          0          0          0
639              220768           220767           47.60      0.0130     0.68       0.57       0          0
639_2            220768           220769           48.50      0.0130     0.68       0.56       0          0
643              220770           220769           37.50      0.0130     0.08       0.01       0          0
641              220769           220813           36.10      0.0130     0.01       0          0          0
647              220771           220770           39.30      0.0130     0.16       0.08       0          0
649              220772           220771           35.80      0.0130     0.20       0.16       0          0
651              220808           220771           42.10      0.0130     0.55       0.43       0          0
653              220773           220772           34.30      0.0130     0.26       0.20       0          0
655              220774           220773           48.70      0.0130     0.36       0.26       0          0
657              220788           220773           30.60      0.0130     0.35       0.26       0          0
659              220789           220773           34.90      0.0130     0.44       0.34       0          0
661              220775           220774           15.30      0.0130     0.44       0.36       0          0
663              220779           220775           32.10      0.0130     0.53       0.46       0          0
665              220780           220775           34.60      0.0130     0.57       0.49       0          0
667              220912           220775           47.00      0.0130     0.47       0.44       0          0
669              220776           220777           26.80      0.0130     0.70       0.64       0          0
670              220777           220778           36.80      0.0130     0.64       0.59       0          0
672              220778           220779           29.10      0.0130     0.59       0.53       0          0
672_2            220778           220795           33.10      0.0130     0.59       0.47       0          0
677              220781           220780           32.20      0.0130     0.58       0.57       0          0
677_2            220781           220782           31.20      0.0130     0.58       0.46       0          0
679              220782           220783           31.70      0.0130     0.46       0.45       0          0
683              220787           220783           50.60      0.0130     0.50       0.45       0          0
681              220783           220788           32.60      0.0130     0.45       0.35       0          0
411              220784           220785           6.60       0.0130     0          0          0          0
688              220786           220785           44.60      0.0130     0          0          0          0
683_2            220787           220785           18.00      0.0130     0.50       0.45       0          0
691              220928           220786           40.40      0.0130     0          0          0          0
693              220790           220789           37.80      0.0130     0.53       0.44       0          0
693_2            220790           220791           42.80      0.0130     0.45       0.35       0          0
675              220795           220790           34.00      0.0130     0.47       0.45       0          0
695              220791           220792           38.10      0.0130     0.35       0.26       0          0
700              220793           220792           46.60      0.0130     0          0          0          0
702              220802           220792           30.30      0.0130     0          0          0          0
698              220792           220840           30.90      0.0130     0          0          0          0
706              220794           220793           13.70      0.0130     0          0          0          0
563_2            220796           220797           43.80      0.0130     0.76       0.61       0          0
708              220797           220798           50.20      0.0130     0.61       0.53       0          0
712              220819           220797           50.70      0.0130     0.70       0.61       0          0
710              220798           220799           47.90      0.0130     0.53       0.37       0          0
716              220800           220799           36.80      0.0130     0          0          0          0
718              220809           220799           36.40      0.0130     0          0          0          0
720              220801           220800           40.20      0.0130     0          0          0          0
702_2            220802           220801           38.10      0.0130     0          0          0          0
723              220806           220801           48.40      0.0130     0.55       0.45       0          0
725              220803           220802           31.10      0.0130     0.59       0.54       0          0
727              220804           220803           32.90      0.0130     0.61       0.59       0          0
727_2            220804           220839           27.90      0.0130     0.18       0.06       0          0
731              220849           220804           45.60      0.0130     0.31       0.18       0          0
733              220807           220806           43.40      0.0130     0.62       0.55       0          0
733_2            220807           220808           44.50      0.0130     0.62       0.55       0          0
718_2            220809           220810           32.10      0.0130     0          0          0          0
736              220810           220811           31.90      0.0130     0          0          0          0
740              220816           220810           26.50      0.0130     0.53       0.45       0          0
738              220811           220812           37.80      0.0130     0          0          0          0
645              220813           220812           33.80      0.0130     0          0          0          0
742              220812           220818           49.20      0.0130     0          0          0          0
557              220814           220815           31.20      0.0130     0.70       0.64       0          0
747              220815           220816           42.90      0.0130     0.64       0.53       0          0
745              220818           220817           48.90      0.0130     0          0          0          0
751              220820           220819           50.50      0.0130     0.81       0.70       0          0
753              220821           220820           36.60      0.0130     0.91       0.81       0          0
755              220822           220821           37.90      0.0130     1.03       0.91       0          0
755_2            220822           220823           58.20      0.0130     1.03       0.96       0          0
755_3            220822           220830           46.60      0.0130     1.03       0.94       0          0
761              220824           220823           53.00      0.0130     1.31       0.96       0          0
761_2            220824           220825           47.30      0.0130     1.31       1.17       0          0
764              220827           220826           51.00      0.0130     0.71       0.65       0          0
766              220828           220827           50.70      0.0130     0.82       0.71       0          0
768              220829           220828           34.40      0.0130     0.86       0.82       0          0
759              220830           220829           41.00      0.0130     0.94       0.86       0          0
228              220831           220832           47.20      0.0130     0          0          0          0
771              220832           220833           19.80      0.0130     0          0          0          0
775              220844           220832           39.40      0.0130     0.54       0.43       0          0
777              220834           220833           20.90      0.0130     0          0          0          0
779              220861           220833           24.20      0.0130     0          0          0          0
777_2            220834           220835           21.80      0.0130     0          0          0          0
781              220835           220836           36.40      0.0130     0          0          0          0
785              220837           220836           33.70      0.0130     0          0          0          0
785_2            220837           220838           29.70      0.0130     0          0          0          0
787              220838           220839           36.00      0.0130     0          0          0          0
704              220840           220839           33.40      0.0130     0          0          0          0
791              220842           220839           39.10      0.0130     0.30       0.15       0          0
791_2            220842           220843           7.00       0.0110     0.66       0.66       0          0
795              220845           220844           38.80      0.0130     0.63       0.54       0          0
795_2            220845           220846           45.20      0.0130     0.63       0.58       0          0
797              220846           220847           44.90      0.0130     0.58       0.48       0          0
799              220847           220848           40.10      0.0130     0.48       0.37       0          0
801              220848           220849           43.60      0.0130     0.37       0.31       0          0
804              220850           220851           5.30       0.0130     0.50       0.46       0          0
805              220851           220852           35.20      0.0130     0.46       0.42       0          0
807              220852           220853           10.20      0.0130     0.42       0.36       0          0
809              220853           220854           52.40      0.0130     0          0          0          0
813              220876           220853           54.50      0.0130     0.01       0          0          0
815              220855           220854           10.30      0.0110     0.62       0.58       0          0
811              220854           220858           59.00      0.0130     0          0          0          0
819              220856           220855           25.20      0.0110     0.69       0.62       0          0
821              220857           220856           43.10      0.0110     0.78       0.69       0          0
817              220858           220859           28.10      0.0130     0          0          0          0
817_2            220858           220866           16.40      0.0110     0.68       0.63       0          0
823              220859           220860           19.70      0.0130     0          0          0          0
829              220865           220859           29.10      0.0110     0.75       0.58       0          0
827              220860           220861           52.80      0.0130     0          0          0          0
832              220862           220860           5.60       0.0110     0.61       0.56       0          0
834              220868           220860           12.70      0.0110     0.69       0.60       0          0
836              220870           220861           13.00      0.0110     0.82       0.73       0          0
838              220863           220862           15.60      0.0110     0.67       0.61       0          0
840              220864           220863           23.30      0.0110     0.76       0.67       0          0
842              220867           220866           28.90      0.0110     0.82       0.63       0          0
844              220869           220868           24.20      0.0110     0.86       0.69       0          0
844_2            220869           220870           28.50      0.0110     0.86       0.82       0          0
836_2            220870           220871           5.20       0.0110     0.82       0.82       0          0
849              220872           220873           19.90      0.0130     0.48       0.46       0          0
850              220873           220874           22.60      0.0130     0.46       0.43       0          0
854              220875           220874           10.30      0.0130     0.53       0.43       0          0
852              220874           220876           42.60      0.0130     0.43       0.32       0          0
857              220878           220876           11.50      0.0130     0.02       0.01       0          0
859              220879           220878           32.20      0.0130     0.08       0.02       0          0
859_2            220879           220880           37.90      0.0130     0.08       0.07       0          0
861              220880           220881           8.80       0.0130     0.46       0.45       0          0
865              220893           220880           49.40      0.0130     0.15       0.07       0          0
867              220882           220881           40.80      0.0130     0.59       0.45       0          0
869              220883           220882           37.00      0.0130     0.62       0.59       0          0
871              220884           220883           10.10      0.0130     0.70       0.61       0          0
869_2            220883           220885           33.50      0.0130     0.62       0.56       0          0
873              220885           220886           21.70      0.0130     0.56       0.50       0          0
877              220887           220886           10.80      0.0130     0.60       0.56       0          0
875              220886           220890           10.60      0.0130     0.50       0.44       0          0
881              220888           220887           11.60      0.0130     0.65       0.60       0          0
883              220889           220887           17.00      0.0130     0.63       0.60       0          0
885              220891           220890           35.30      0.0130     0.26       0.20       0          0
879              220890           220892           38.10      0.0130     0.20       0.17       0          0
889              220958           220891           22.40      0.0130     0.28       0.26       0          0
887              220892           220893           34.20      0.0130     0.17       0.15       0          0
892              220894           220893           13.70      0.0130     0.72       0.65       0          0
894              220896           220897           11.50      0.0130     0.75       0.71       0          0
895              220897           220898           10.60      0.0130     0.71       0.67       0          0
899              220899           220898           12.90      0.0130     0.32       0.31       0          0
901              220900           220899           20.70      0.0130     0.57       0.53       0          0
903              220902           220899           23.20      0.0130     0.39       0.32       0          0
901_2            220900           220901           22.90      0.0130     0.57       0.56       0          0
905              220901           220902           17.80      0.0130     0.45       0.39       0          0
908              220903           220901           23.20      0.0130     0.49       0.45       0          0
910              220907           220902           32.60      0.0130     0.48       0.39       0          0
912              220904           220903           37.30      0.0130     0.55       0.49       0          0
914              220905           220904           30.40      0.0130     0.60       0.55       0          0
914_2            220905           220906           38.30      0.0130     0.60       0.56       0          0
916              220906           220907           38.20      0.0130     0.56       0.48       0          0
919              220908           220907           33.60      0.0130     0.51       0.48       0          0
921              220909           220907           32.80      0.0130     0.55       0.48       0          0
919_2            220908           220913           38.40      0.0130     0.51       0.44       0          0
925              220910           220909           32.70      0.0130     0.63       0.55       0          0
927              220911           220910           25.40      0.0130     0.70       0.63       0          0
667_2            220912           220913           51.90      0.0130     0.47       0.44       0          0
930              220914           220912           12.50      0.0110     0.64       0.47       0          0
667_3            220912           220916           34.80      0.0130     0.39       0.35       0          0
934              220915           220914           19.80      0.0110     0.66       0.64       0          0
932              220916           220917           5.90       0.0130     0.35       0.34       0          0
938              220919           220916           36.30      0.0110     1.10       0.90       0          0
936              220917           220918           15.40      0.0130     0.34       0.30       0          0
940              220918           220923           20.90      0.0130     0.30       0.24       0          0
944              220920           220919           17.80      0.0110     1.15       1.10       0          0
938_2            220919           220925           43.10      0.0110     1.10       0.91       0          0
948              220922           220921           56.40      0.0130     0.18       0.11       0          0
949              220921           220928           34.80      0.0130     0          0          0          0
952              220929           220921           48.90      0.0130     0.26       0.12       0          0
954              220943           220921           52.50      0.0130     0          0          0          0
942              220923           220922           10.50      0.0130     0.24       0.18       0          0
946              220925           220922           20.00      0.0130     0.54       0.46       0          0
958              220924           220923           17.20      0.0130     0.28       0.24       0          0
960              220926           220925           21.30      0.0130     0.60       0.54       0          0
962              220927           220926           15.80      0.0130     0.63       0.60       0          0
964              220930           220929           10.60      0.0130     0.30       0.26       0          0
966              220939           220929           48.80      0.0130     0.33       0.26       0          0
968              220931           220930           29.90      0.0130     0.34       0.30       0          0
970              220932           220931           12.70      0.0130     0.38       0.34       0          0
972              220933           220932           29.70      0.0130     0.44       0.38       0          0
974              220934           220933           30.50      0.0130     0.50       0.44       0          0
976              220935           220934           27.90      0.0130     0.56       0.50       0          0
978              220936           220935           26.70      0.0130     0.60       0.56       0          0
980              220938           220937           30.10      0.0130     0.64       0.58       0          0
981              220937           220942           10.30      0.0130     0.58       0.57       0          0
985              220940           220939           26.60      0.0130     0.42       0.33       0          0
987              220941           220940           27.30      0.0130     0.45       0.42       0          0
983              220942           220941           47.40      0.0130     0.57       0.45       0          0
990              220944           220943           50.40      0.0130     0          0          0          0
992              220945           220944           46.00      0.0130     0.08       0          0          0
994              220946           220945           46.50      0.0130     0.16       0.08       0          0
996              220948           220945           43.10      0.0130     0.61       0.53       0          0
998              220947           220946           43.10      0.0130     0.18       0.16       0          0
897              220898           220954           28.50      0.0130     0.31       0.27       0          0
240              220567           220973           9.70       0.0110     1.58       1.58       0          0
290              220587           220974           10.20      0.0110     1.27       1.27       0          0

[WEIRS]
;;Name           From             To               Type       CrestHt    Qcoeff     Gated    EndCon   EndCoeff   Surcharge
;;-------------- ---------------- ---------------- ---------- ---------- ---------- -------- -------- ---------- ----------
224_3            220561           OW0              TRANSVERSE 1.22       1.840      NO       0        0          YES
256              220573           OW1              TRANSVERSE 1.44       1.840      NO       0        0          YES
377              220627           OW2              TRANSVERSE 1.00       1.840      NO       0        0          YES

[PUMPS]
;;Name           From             To               PumpCurve  Status   Startup    Shutoff
;;-------------- ---------------- ---------------- ---------- -------- ---------- ----------
368              220623           999623           PC_368     ON       1.00       0         

[CURVES]
;;Name           Type       X-Value    Y-Value
;;-------------- ---------- ---------- ----------
;; Synthesized generic pump curves — replace with actual pump data
PC_368           Pump1      0          5
PC_368                      10         10

[XSECTIONS]
;;Link           Shape        Geom1      Geom2      Geom3      Geom4      Barrels
;;-------------- ------------ ---------- ---------- ---------- ---------- ----------
201              CIRCULAR     0.40       0          0          0          1
202              CIRCULAR     0.40       0          0          0          1
204              CIRCULAR     0.40       0          0          0          1
208              CIRCULAR     0.40       0          0          0          1
206              CIRCULAR     0.40       0          0          0          1
210              CIRCULAR     0.40       0          0          0          1
212              CIRCULAR     0.40       0          0          0          1
214              CIRCULAR     0.40       0          0          0          1
216              CIRCULAR     0.40       0          0          0          1
220              CIRCULAR     0.40       0          0          0          1
220_2            CIRCULAR     0.40       0          0          0          1
224              CIRCULAR     0.40       0          0          0          1
226              CIRCULAR     0.30       0          0          0          1
224_2            CIRCULAR     0.70       0          0          0          1
230              CIRCULAR     0.30       0          0          0          1
230_2            CIRCULAR     0.30       0          0          0          1
232              CIRCULAR     0.40       0          0          0          1
236              CIRCULAR     0.30       0          0          0          1
234              CIRCULAR     0.40       0          0          0          1
238              CIRCULAR     0.40       0          0          0          1
242              CIRCULAR     0.40       0          0          0          1
244              CIRCULAR     0.30       0          0          0          1
242_2            CIRCULAR     0.40       0          0          0          1
246              HORSESHOE    0.60       0.40       0          0          1
250              HORSESHOE    0.45       0.30       0          0          1
248              HORSESHOE    0.60       0.40       0          0          1
252              HORSESHOE    0.60       0.40       0          0          1
254              HORSESHOE    0.60       0.40       0          0          1
258              CIRCULAR     0.40       0          0          0          1
260              HORSESHOE    0.60       0.40       0          0          1
262              CIRCULAR     0.40       0          0          0          1
264              CIRCULAR     0.30       0          0          0          1
266              CIRCULAR     0.40       0          0          0          1
268              CIRCULAR     0.40       0          0          0          1
270              CIRCULAR     0.40       0          0          0          1
270_2            CIRCULAR     0.40       0          0          0          1
272              CIRCULAR     0.40       0          0          0          1
276              CIRCULAR     0.40       0          0          0          1
278              CIRCULAR     0.40       0          0          0          1
280              CIRCULAR     0.40       0          0          0          1
282              CIRCULAR     0.40       0          0          0          1
284              CIRCULAR     0.30       0          0          0          1
286              CIRCULAR     0.30       0          0          0          1
288              CIRCULAR     0.30       0          0          0          1
286_2            CIRCULAR     0.30       0          0          0          1
292              CIRCULAR     0.30       0          0          0          1
294              CIRCULAR     0.30       0          0          0          1
296              CIRCULAR     0.30       0          0          0          1
298              CIRCULAR     0.30       0          0          0          1
300              CIRCULAR     0.30       0          0          0          1
302              CIRCULAR     0.30       0          0          0          1
304              CIRCULAR     0.30       0          0          0          1
306              CIRCULAR     0.30       0          0          0          1
308              CIRCULAR     0.30       0          0          0          1
310              CIRCULAR     0.16       0          0          0          1
312              CIRCULAR     0.16       0          0          0          1
314              CIRCULAR     0.30       0          0          0          1
316              CIRCULAR     0.30       0          0          0          1
260_2            HORSESHOE    0.60       0.40       0          0          1
318              HORSESHOE    0.60       0.40       0          0          1
320              HORSESHOE    0.60       0.40       0          0          1
322              HORSESHOE    0.60       0.40       0          0          1
326              HORSESHOE    0.60       0.40       0          0          1
326_2            HORSESHOE    0.60       0.40       0          0          1
330              CIRCULAR     0.30       0          0          0          1
332              HORSESHOE    0.60       0.40       0          0          1
332_2            HORSESHOE    0.60       0.40       0          0          1
336              CIRCULAR     0.30       0          0          0          1
334              HORSESHOE    0.60       0.40       0          0          1
338              HORSESHOE    0.60       0.40       0          0          1
342              CIRCULAR     0.30       0          0          0          1
340              HORSESHOE    0.60       0.40       0          0          1
344              HORSESHOE    0.60       0.40       0          0          1
348              CIRCULAR     0.30       0          0          0          1
346              HORSESHOE    0.60       0.40       0          0          1
350              HORSESHOE    0.60       0.40       0          0          1
354              CIRCULAR     0.30       0          0          0          1
356              CIRCULAR     1.00       0          0          0          1
358              CIRCULAR     1.25       0          0          0          1
360              CIRCULAR     0.30       0          0          0          1
362              CIRCULAR     0.30       0          0          0          1
364              CIRCULAR     1.00       0          0          0          1
356_2            CIRCULAR     1.00       0          0          0          1
366              CIRCULAR     1.00       0          0          0          1
370              CIRCULAR     1.50       0          0          0          1
371              CIRCULAR     1.50       0          0          0          1
373              CIRCULAR     1.50       0          0          0          1
375              CIRCULAR     1.50       0          0          0          1
379              CIRCULAR     0.30       0          0          0          1
380              CIRCULAR     0.30       0          0          0          1
384              CIRCULAR     0.30       0          0          0          1
386              CIRCULAR     0.30       0          0          0          1
388              CIRCULAR     0.30       0          0          0          1
386_2            CIRCULAR     0.30       0          0          0          1
392              CIRCULAR     0.20       0          0          0          1
394              CIRCULAR     0.20       0          0          0          1
396              CIRCULAR     0.20       0          0          0          1
390              CIRCULAR     0.30       0          0          0          1
398              CIRCULAR     0.30       0          0          0          1
400              CIRCULAR     0.30       0          0          0          1
402              CIRCULAR     0.30       0          0          0          1
406              CIRCULAR     0.90       0          0          0          1
409              CIRCULAR     0.40       0          0          0          1
406_2            CIRCULAR     0.90       0          0          0          1
407              CIRCULAR     0.90       0          0          0          1
415              CIRCULAR     0.30       0          0          0          1
413              CIRCULAR     0.90       0          0          0          1
419              CIRCULAR     0.30       0          0          0          1
417              CIRCULAR     0.90       0          0          0          1
421              CIRCULAR     0.90       0          0          0          1
425              CIRCULAR     0.30       0          0          0          1
423              CIRCULAR     0.90       0          0          0          1
429              CIRCULAR     0.30       0          0          0          1
427              CIRCULAR     0.90       0          0          0          1
433              CIRCULAR     0.30       0          0          0          1
431              CIRCULAR     0.90       0          0          0          1
382              CIRCULAR     0.90       0          0          0          1
438              CIRCULAR     0.30       0          0          0          1
382_2            CIRCULAR     0.90       0          0          0          1
442              CIRCULAR     0.30       0          0          0          1
440              CIRCULAR     0.90       0          0          0          1
445              CIRCULAR     0.20       0          0          0          1
404              CIRCULAR     0.90       0          0          0          1
449              CIRCULAR     0.30       0          0          0          1
409_2            CIRCULAR     0.40       0          0          0          1
453              CIRCULAR     0.40       0          0          0          1
453_2            CIRCULAR     0.30       0          0          0          1
455              CIRCULAR     0.30       0          0          0          1
457              CIRCULAR     0.30       0          0          0          1
459              CIRCULAR     0.30       0          0          0          1
461              CIRCULAR     0.30       0          0          0          1
465              CIRCULAR     0.30       0          0          0          1
465_2            CIRCULAR     0.30       0          0          0          1
438_2            CIRCULAR     0.30       0          0          0          1
469              CIRCULAR     0.30       0          0          0          1
425_2            CIRCULAR     0.30       0          0          0          1
472              CIRCULAR     0.30       0          0          0          1
474              CIRCULAR     0.30       0          0          0          1
476              CIRCULAR     0.30       0          0          0          1
478              CIRCULAR     0.30       0          0          0          1
480              CIRCULAR     0.30       0          0          0          1
482              CIRCULAR     0.30       0          0          0          1
484              CIRCULAR     0.30       0          0          0          1
486              CIRCULAR     0.30       0          0          0          1
488              CIRCULAR     0.20       0          0          0          1
490              CIRCULAR     0.30       0          0          0          1
492              CIRCULAR     0.30       0          0          0          1
494              CIRCULAR     0.30       0          0          0          1
496              CIRCULAR     0.30       0          0          0          1
498              CIRCULAR     0.30       0          0          0          1
500              CIRCULAR     0.30       0          0          0          1
500_2            CIRCULAR     0.30       0          0          0          1
504              CIRCULAR     0.20       0          0          0          1
502              CIRCULAR     0.30       0          0          0          1
502_2            CIRCULAR     0.30       0          0          0          1
509              CIRCULAR     0.30       0          0          0          1
511              CIRCULAR     0.30       0          0          0          1
507              CIRCULAR     0.30       0          0          0          1
513              CIRCULAR     0.30       0          0          0          1
516              CIRCULAR     0.20       0          0          0          1
518              CIRCULAR     0.20       0          0          0          1
519              CIRCULAR     0.20       0          0          0          1
523              CIRCULAR     0.30       0          0          0          1
521              CIRCULAR     0.30       0          0          0          1
496_2            CIRCULAR     0.30       0          0          0          1
498_2            CIRCULAR     0.30       0          0          0          1
442_2            CIRCULAR     0.30       0          0          0          1
516_2            CIRCULAR     0.20       0          0          0          1
532              CIRCULAR     0.20       0          0          0          1
534              CIRCULAR     0.30       0          0          0          1
536              CIRCULAR     0.20       0          0          0          1
538              CIRCULAR     0.90       0          0          0          1
538_2            CIRCULAR     0.90       0          0          0          1
540              CIRCULAR     0.90       0          0          0          1
525              CIRCULAR     0.40       0          0          0          1
546              CIRCULAR     0.30       0          0          0          1
544              CIRCULAR     0.40       0          0          0          1
550              CIRCULAR     0.30       0          0          0          1
548              CIRCULAR     0.50       0          0          0          1
553              CIRCULAR     0.50       0          0          0          1
550_2            CIRCULAR     0.30       0          0          0          1
550_3            CIRCULAR     0.30       0          0          0          1
555              CIRCULAR     0.30       0          0          0          1
555_2            CIRCULAR     0.30       0          0          0          1
563              CIRCULAR     0.30       0          0          0          1
559              CIRCULAR     0.30       0          0          0          1
565              CIRCULAR     0.30       0          0          0          1
569              CIRCULAR     0.30       0          0          0          1
567              CIRCULAR     0.30       0          0          0          1
571              CIRCULAR     0.30       0          0          0          1
575              CIRCULAR     0.30       0          0          0          1
573              CIRCULAR     0.30       0          0          0          1
579              CIRCULAR     0.20       0          0          0          1
577              HORSESHOE    0.45       0.30       0          0          1
583              CIRCULAR     0.30       0          0          0          1
581              HORSESHOE    0.45       0.30       0          0          1
585              HORSESHOE    0.45       0.30       0          0          1
588              CIRCULAR     0.30       0          0          0          1
590              CIRCULAR     0.30       0          0          0          1
591              CIRCULAR     0.30       0          0          0          1
595              CIRCULAR     0.30       0          0          0          1
593              CIRCULAR     0.30       0          0          0          1
595_2            CIRCULAR     0.30       0          0          0          1
599              CIRCULAR     0.30       0          0          0          1
597              CIRCULAR     0.30       0          0          0          1
603              CIRCULAR     0.30       0          0          0          1
583_2            CIRCULAR     0.30       0          0          0          1
606              CIRCULAR     0.30       0          0          0          1
575_2            CIRCULAR     0.30       0          0          0          1
342_2            CIRCULAR     0.30       0          0          0          1
611              CIRCULAR     0.20       0          0          0          1
613              CIRCULAR     0.30       0          0          0          1
569_2            CIRCULAR     0.30       0          0          0          1
616              CIRCULAR     0.20       0          0          0          1
618              CIRCULAR     0.30       0          0          0          1
611_2            CIRCULAR     0.20       0          0          0          1
621              CIRCULAR     0.30       0          0          0          1
561              CIRCULAR     0.30       0          0          0          1
616_2            CIRCULAR     0.20       0          0          0          1
625              CIRCULAR     1.25       0          0          0          1
358_2            CIRCULAR     0.50       0          0          0          1
629              CIRCULAR     1.25       0          0          0          1
629_2            CIRCULAR     0.90       0          0          0          1
542              CIRCULAR     0.50       0          0          0          1
632              CIRCULAR     0.50       0          0          0          1
634              CIRCULAR     0.50       0          0          0          1
637              CIRCULAR     0.60       0          0          0          1
639              CIRCULAR     0.30       0          0          0          1
639_2            CIRCULAR     0.30       0          0          0          1
643              CIRCULAR     0.30       0          0          0          1
641              CIRCULAR     0.30       0          0          0          1
647              CIRCULAR     0.30       0          0          0          1
649              CIRCULAR     0.30       0          0          0          1
651              CIRCULAR     0.30       0          0          0          1
653              CIRCULAR     0.30       0          0          0          1
655              CIRCULAR     0.30       0          0          0          1
657              CIRCULAR     0.30       0          0          0          1
659              CIRCULAR     0.40       0          0          0          1
661              CIRCULAR     0.30       0          0          0          1
663              CIRCULAR     0.30       0          0          0          1
665              CIRCULAR     0.30       0          0          0          1
667              CIRCULAR     0.30       0          0          0          1
669              CIRCULAR     0.30       0          0          0          1
670              CIRCULAR     0.30       0          0          0          1
672              CIRCULAR     0.30       0          0          0          1
672_2            CIRCULAR     0.30       0          0          0          1
677              CIRCULAR     0.30       0          0          0          1
677_2            CIRCULAR     0.30       0          0          0          1
679              CIRCULAR     0.30       0          0          0          1
683              CIRCULAR     0.30       0          0          0          1
681              CIRCULAR     0.30       0          0          0          1
411              CIRCULAR     0.90       0          0          0          1
688              CIRCULAR     0.80       0          0          0          1
683_2            CIRCULAR     0.30       0          0          0          1
691              CIRCULAR     0.80       0          0          0          1
693              CIRCULAR     0.40       0          0          0          1
693_2            CIRCULAR     0.40       0          0          0          1
675              CIRCULAR     0.30       0          0          0          1
695              CIRCULAR     0.40       0          0          0          1
700              CIRCULAR     0.50       0          0          0          1
702              CIRCULAR     0.50       0          0          0          1
698              CIRCULAR     0.70       0          0          0          1
706              CIRCULAR     0.50       0          0          0          1
563_2            CIRCULAR     0.30       0          0          0          1
708              CIRCULAR     0.30       0          0          0          1
712              CIRCULAR     0.30       0          0          0          1
710              CIRCULAR     0.30       0          0          0          1
716              CIRCULAR     0.50       0          0          0          1
718              CIRCULAR     0.50       0          0          0          1
720              CIRCULAR     0.50       0          0          0          1
702_2            CIRCULAR     0.50       0          0          0          1
723              CIRCULAR     0.30       0          0          0          1
725              CIRCULAR     0.30       0          0          0          1
727              CIRCULAR     0.30       0          0          0          1
727_2            CIRCULAR     0.30       0          0          0          1
731              CIRCULAR     0.30       0          0          0          1
733              CIRCULAR     0.30       0          0          0          1
733_2            CIRCULAR     0.30       0          0          0          1
718_2            CIRCULAR     0.50       0          0          0          1
736              CIRCULAR     0.50       0          0          0          1
740              CIRCULAR     0.40       0          0          0          1
738              CIRCULAR     0.50       0          0          0          1
645              CIRCULAR     0.30       0          0          0          1
742              CIRCULAR     0.50       0          0          0          1
557              CIRCULAR     0.30       0          0          0          1
747              CIRCULAR     0.40       0          0          0          1
745              CIRCULAR     0.50       0          0          0          1
751              CIRCULAR     0.30       0          0          0          1
753              CIRCULAR     0.30       0          0          0          1
755              CIRCULAR     0.30       0          0          0          1
755_2            CIRCULAR     0.30       0          0          0          1
755_3            CIRCULAR     0.30       0          0          0          1
761              CIRCULAR     0.30       0          0          0          1
761_2            CIRCULAR     0.30       0          0          0          1
764              CIRCULAR     0.30       0          0          0          1
766              CIRCULAR     0.30       0          0          0          1
768              CIRCULAR     0.30       0          0          0          1
759              CIRCULAR     0.30       0          0          0          1
228              CIRCULAR     0.70       0          0          0          1
771              CIRCULAR     0.70       0          0          0          1
775              CIRCULAR     0.30       0          0          0          1
777              CIRCULAR     0.70       0          0          0          1
779              CIRCULAR     0.50       0          0          0          1
777_2            CIRCULAR     0.70       0          0          0          1
781              CIRCULAR     0.70       0          0          0          1
785              CIRCULAR     0.70       0          0          0          1
785_2            CIRCULAR     0.70       0          0          0          1
787              CIRCULAR     0.70       0          0          0          1
704              CIRCULAR     0.70       0          0          0          1
791              CIRCULAR     0.30       0          0          0          1
791_2            CIRCULAR     0.20       0          0          0          1
795              CIRCULAR     0.30       0          0          0          1
795_2            CIRCULAR     0.30       0          0          0          1
797              CIRCULAR     0.30       0          0          0          1
799              CIRCULAR     0.30       0          0          0          1
801              CIRCULAR     0.30       0          0          0          1
804              CIRCULAR     0.30       0          0          0          1
805              CIRCULAR     0.30       0          0          0          1
807              CIRCULAR     0.30       0          0          0          1
809              CIRCULAR     0.50       0          0          0          1
813              CIRCULAR     0.50       0          0          0          1
815              CIRCULAR     0.20       0          0          0          1
811              CIRCULAR     0.50       0          0          0          1
819              CIRCULAR     0.20       0          0          0          1
821              CIRCULAR     0.20       0          0          0          1
817              CIRCULAR     0.50       0          0          0          1
817_2            CIRCULAR     0.20       0          0          0          1
823              CIRCULAR     0.50       0          0          0          1
829              CIRCULAR     0.20       0          0          0          1
827              CIRCULAR     0.50       0          0          0          1
832              CIRCULAR     0.20       0          0          0          1
834              CIRCULAR     0.20       0          0          0          1
836              CIRCULAR     0.20       0          0          0          1
838              CIRCULAR     0.20       0          0          0          1
840              CIRCULAR     0.20       0          0          0          1
842              CIRCULAR     0.20       0          0          0          1
844              CIRCULAR     0.20       0          0          0          1
844_2            CIRCULAR     0.20       0          0          0          1
836_2            CIRCULAR     0.20       0          0          0          1
849              CIRCULAR     0.30       0          0          0          1
850              CIRCULAR     0.30       0          0          0          1
854              CIRCULAR     0.30       0          0          0          1
852              CIRCULAR     0.30       0          0          0          1
857              CIRCULAR     0.40       0          0          0          1
859              CIRCULAR     0.40       0          0          0          1
859_2            CIRCULAR     0.40       0          0          0          1
861              CIRCULAR     0.30       0          0          0          1
865              CIRCULAR     0.40       0          0          0          1
867              CIRCULAR     0.30       0          0          0          1
869              CIRCULAR     0.30       0          0          0          1
871              CIRCULAR     0.30       0          0          0          1
869_2            CIRCULAR     0.30       0          0          0          1
873              CIRCULAR     0.30       0          0          0          1
877              CIRCULAR     0.30       0          0          0          1
875              CIRCULAR     0.30       0          0          0          1
881              CIRCULAR     0.30       0          0          0          1
883              CIRCULAR     0.30       0          0          0          1
885              CIRCULAR     0.40       0          0          0          1
879              CIRCULAR     0.40       0          0          0          1
889              CIRCULAR     0.40       0          0          0          1
887              CIRCULAR     0.40       0          0          0          1
892              CIRCULAR     0.30       0          0          0          1
894              CIRCULAR     0.30       0          0          0          1
895              CIRCULAR     0.30       0          0          0          1
899              CIRCULAR     0.30       0          0          0          1
901              CIRCULAR     0.30       0          0          0          1
903              CIRCULAR     0.30       0          0          0          1
901_2            CIRCULAR     0.30       0          0          0          1
905              CIRCULAR     0.30       0          0          0          1
908              CIRCULAR     0.30       0          0          0          1
910              CIRCULAR     0.30       0          0          0          1
912              CIRCULAR     0.30       0          0          0          1
914              CIRCULAR     0.30       0          0          0          1
914_2            CIRCULAR     0.30       0          0          0          1
916              CIRCULAR     0.30       0          0          0          1
919              CIRCULAR     0.30       0          0          0          1
921              CIRCULAR     0.30       0          0          0          1
919_2            CIRCULAR     0.30       0          0          0          1
925              CIRCULAR     0.30       0          0          0          1
927              CIRCULAR     0.30       0          0          0          1
667_2            CIRCULAR     0.30       0          0          0          1
930              CIRCULAR     0.20       0          0          0          1
667_3            CIRCULAR     0.30       0          0          0          1
934              CIRCULAR     0.20       0          0          0          1
932              CIRCULAR     0.30       0          0          0          1
938              CIRCULAR     0.16       0          0          0          1
936              CIRCULAR     0.30       0          0          0          1
940              CIRCULAR     0.30       0          0          0          1
944              CIRCULAR     0.16       0          0          0          1
938_2            CIRCULAR     0.20       0          0          0          1
948              CIRCULAR     0.30       0          0          0          1
949              CIRCULAR     0.80       0          0          0          1
952              CIRCULAR     0.30       0          0          0          1
954              CIRCULAR     0.60       0          0          0          1
942              CIRCULAR     0.30       0          0          0          1
946              CIRCULAR     0.30       0          0          0          1
958              CIRCULAR     0.30       0          0          0          1
960              CIRCULAR     0.30       0          0          0          1
962              CIRCULAR     0.30       0          0          0          1
964              CIRCULAR     0.30       0          0          0          1
966              CIRCULAR     0.30       0          0          0          1
968              CIRCULAR     0.30       0          0          0          1
970              CIRCULAR     0.30       0          0          0          1
972              CIRCULAR     0.30       0          0          0          1
974              CIRCULAR     0.30       0          0          0          1
976              CIRCULAR     0.30       0          0          0          1
978              CIRCULAR     0.30       0          0          0          1
980              CIRCULAR     0.30       0          0          0          1
981              CIRCULAR     0.30       0          0          0          1
985              CIRCULAR     0.30       0          0          0          1
987              CIRCULAR     0.30       0          0          0          1
983              CIRCULAR     0.30       0          0          0          1
990              CIRCULAR     0.60       0          0          0          1
992              CIRCULAR     0.60       0          0          0          1
994              CIRCULAR     0.60       0          0          0          1
996              CIRCULAR     0.30       0          0          0          1
998              CIRCULAR     0.60       0          0          0          1
897              CIRCULAR     0.30       0          0          0          1
240              CIRCULAR     0.16       0          0          0          1
290              CIRCULAR     0.16       0          0          0          1
224_3            RECT_OPEN    1.00       3.00       0          0
256              RECT_OPEN    1.00       3.00       0          0
377              RECT_OPEN    1.00       1.36       0          0

[LOSSES]
;;Link           Inlet      Outlet     Average    Flap Gate
;;-------------- ---------- ---------- ---------- ----------
201              0          0          0          NO
202              0          0          0          NO
204              0          0          0          NO
208              0          0          0          NO
206              0          0          0          NO
210              0          0          0          NO
212              0          0          0          NO
214              0          0          0          NO
216              0          0          0          NO
220              0          0          0          NO
220_2            0          0          0          NO
224              0          0          0          NO
226              0          0          0          NO
224_2            0          0          0          NO
230              0          0          0          NO
230_2            0          0          0          NO
232              0          0          0          NO
236              0          0          0          NO
234              0          0          0          NO
238              0          0          0          NO
242              0          0          0          NO
244              0          0          0          NO
242_2            0          0          0          NO
246              0          0          0          NO
250              0          0          0          NO
248              0          0          0          NO
252              0          0          0          NO
254              0          0          0          NO
258              0          0          0          NO
260              0          0          0          NO
262              0          0          0          NO
264              0          0          0          NO
266              0          0          0          NO
268              0          0          0          NO
270              0          0          0          NO
270_2            0          0          0          NO
272              0          0          0          NO
276              0          0          0          NO
278              0          0          0          NO
280              0          0          0          NO
282              0          0          0          NO
284              0          0          0          NO
286              0          0          0          NO
288              0          0          0          NO
286_2            0          0          0          NO
292              0          0          0          NO
294              0          0          0          NO
296              0          0          0          NO
298              0          0          0          NO
300              0          0          0          NO
302              0          0          0          NO
304              0          0          0          NO
306              0          0          0          NO
308              0          0          0          NO
310              0          0          0          NO
312              0          0          0          NO
314              0          0          0          NO
316              0          0          0          NO
260_2            0          0          0          NO
318              0          0          0          NO
320              0          0          0          NO
322              0          0          0          NO
326              0          0          0          NO
326_2            0          0          0          NO
330              0          0          0          NO
332              0          0          0          NO
332_2            0          0          0          NO
336              0          0          0          NO
334              0          0          0          NO
338              0          0          0          NO
342              0          0          0          NO
340              0          0          0          NO
344              0          0          0          NO
348              0          0          0          NO
346              0          0          0          NO
350              0          0          0          NO
354              0          0          0          NO
356              0          0          0          NO
358              0          0          0          NO
360              0          0          0          NO
362              0          0          0          NO
364              0          0          0          NO
356_2            0          0          0          NO
366              0          0          0          NO
370              0          0          0          NO
371              0          0          0          NO
373              0          0          0          NO
375              0          0          0          NO
379              0          0          0          NO
380              0          0          0          NO
384              0          0          0          NO
386              0          0          0          NO
388              0          0          0          NO
386_2            0          0          0          NO
392              0          0          0          NO
394              0          0          0          NO
396              0          0          0          NO
390              0          0          0          NO
398              0          0          0          NO
400              0          0          0          NO
402              0          0          0          NO
406              0          0          0          NO
409              0          0          0          NO
406_2            0          0          0          NO
407              0          0          0          NO
415              0          0          0          NO
413              0          0          0          NO
419              0          0          0          NO
417              0          0          0          NO
421              0          0          0          NO
425              0          0          0          NO
423              0          0          0          NO
429              0          0          0          NO
427              0          0          0          NO
433              0          0          0          NO
431              0          0          0          NO
382              0          0          0          NO
438              0          0          0          NO
382_2            0          0          0          NO
442              0          0          0          NO
440              0          0          0          NO
445              0          0          0          NO
404              0          0          0          NO
449              0          0          0          NO
409_2            0          0          0          NO
453              0          0          0          NO
453_2            0          0          0          NO
455              0          0          0          NO
457              0          0          0          NO
459              0          0          0          NO
461              0          0          0          NO
465              0          0          0          NO
465_2            0          0          0          NO
438_2            0          0          0          NO
469              0          0          0          NO
425_2            0          0          0          NO
472              0          0          0          NO
474              0          0          0          NO
476              0          0          0          NO
478              0          0          0          NO
480              0          0          0          NO
482              0          0          0          NO
484              0          0          0          NO
486              0          0          0          NO
488              0          0          0          NO
490              0          0          0          NO
492              0          0          0          NO
494              0          0          0          NO
496              0          0          0          NO
498              0          0          0          NO
500              0          0          0          NO
500_2            0          0          0          NO
504              0          0          0          NO
502              0          0          0          NO
502_2            0          0          0          NO
509              0          0          0          NO
511              0          0          0          NO
507              0          0          0          NO
513              0          0          0          NO
516              0          0          0          NO
518              0          0          0          NO
519              0          0          0          NO
523              0          0          0          NO
521              0          0          0          NO
496_2            0          0          0          NO
498_2            0          0          0          NO
442_2            0          0          0          NO
516_2            0          0          0          NO
532              0          0          0          NO
534              0          0          0          NO
536              0          0          0          NO
538              0          0          0          NO
538_2            0          0          0          NO
540              0          0          0          NO
525              0          0          0          NO
546              0          0          0          NO
544              0          0          0          NO
550              0          0          0          NO
548              0          0          0          NO
553              0          0          0          NO
550_2            0          0          0          NO
550_3            0          0          0          NO
555              0          0          0          NO
555_2            0          0          0          NO
563              0          0          0          NO
559              0          0          0          NO
565              0          0          0          NO
569              0          0          0          NO
567              0          0          0          NO
571              0          0          0          NO
575              0          0          0          NO
573              0          0          0          NO
579              0          0          0          NO
577              0          0          0          NO
583              0          0          0          NO
581              0          0          0          NO
585              0          0          0          NO
588              0          0          0          NO
590              0          0          0          NO
591              0          0          0          NO
595              0          0          0          NO
593              0          0          0          NO
595_2            0          0          0          NO
599              0          0          0          NO
597              0          0          0          NO
603              0          0          0          NO
583_2            0          0          0          NO
606              0          0          0          NO
575_2            0          0          0          NO
342_2            0          0          0          NO
611              0          0          0          NO
613              0          0          0          NO
569_2            0          0          0          NO
616              0          0          0          NO
618              0          0          0          NO
611_2            0          0          0          NO
621              0          0          0          NO
561              0          0          0          NO
616_2            0          0          0          NO
625              0          0          0          NO
358_2            0          0          0          NO
629              0          0          0          NO
629_2            0          0          0          NO
542              0          0          0          NO
632              0          0          0          NO
634              0          0          0          NO
637              0          0          0          NO
639              0          0          0          NO
639_2            0          0          0          NO
643              0          0          0          NO
641              0          0          0          NO
647              0          0          0          NO
649              0          0          0          NO
651              0          0          0          NO
653              0          0          0          NO
655              0          0          0          NO
657              0          0          0          NO
659              0          0          0          NO
661              0          0          0          NO
663              0          0          0          NO
665              0          0          0          NO
667              0          0          0          NO
669              0          0          0          NO
670              0          0          0          NO
672              0          0          0          NO
672_2            0          0          0          NO
677              0          0          0          NO
677_2            0          0          0          NO
679              0          0          0          NO
683              0          0          0          NO
681              0          0          0          NO
411              0          0          0          NO
688              0          0          0          NO
683_2            0          0          0          NO
691              0          0          0          NO
693              0          0          0          NO
693_2            0          0          0          NO
675              0          0          0          NO
695              0          0          0          NO
700              0          0          0          NO
702              0          0          0          NO
698              0          0          0          NO
706              0          0          0          NO
563_2            0          0          0          NO
708              0          0          0          NO
712              0          0          0          NO
710              0          0          0          NO
716              0          0          0          NO
718              0          0          0          NO
720              0          0          0          NO
702_2            0          0          0          NO
723              0          0          0          NO
725              0          0          0          NO
727              0          0          0          NO
727_2            0          0          0          NO
731              0          0          0          NO
733              0          0          0          NO
733_2            0          0          0          NO
718_2            0          0          0          NO
736              0          0          0          NO
740              0          0          0          NO
738              0          0          0          NO
645              0          0          0          NO
742              0          0          0          NO
557              0          0          0          NO
747              0          0          0          NO
745              0          0          0          NO
751              0          0          0          NO
753              0          0          0          NO
755              0          0          0          NO
755_2            0          0          0          NO
755_3            0          0          0          NO
761              0          0          0          NO
761_2            0          0          0          NO
764              0          0          0          NO
766              0          0          0          NO
768              0          0          0          NO
759              0          0          0          NO
228              0          0          0          NO
771              0          0          0          NO
775              0          0          0          NO
777              0          0          0          NO
779              0          0          0          NO
777_2            0          0          0          NO
781              0          0          0          NO
785              0          0          0          NO
785_2            0          0          0          NO
787              0          0          0          NO
704              0          0          0          NO
791              0          0          0          NO
791_2            0          0          0          NO
795              0          0          0          NO
795_2            0          0          0          NO
797              0          0          0          NO
799              0          0          0          NO
801              0          0          0          NO
804              0          0          0          NO
805              0          0          0          NO
807              0          0          0          NO
809              0          0          0          NO
813              0          0          0          NO
815              0          0          0          NO
811              0          0          0          NO
819              0          0          0          NO
821              0          0          0          NO
817              0          0          0          NO
817_2            0          0          0          NO
823              0          0          0          NO
829              0          0          0          NO
827              0          0          0          NO
832              0          0          0          NO
834              0          0          0          NO
836              0          0          0          NO
838              0          0          0          NO
840              0          0          0          NO
842              0          0          0          NO
844              0          0          0          NO
844_2            0          0          0          NO
836_2            0          0          0          NO
849              0          0          0          NO
850              0          0          0          NO
854              0          0          0          NO
852              0          0          0          NO
857              0          0          0          NO
859              0          0          0          NO
859_2            0          0          0          NO
861              0          0          0          NO
865              0          0          0          NO
867              0          0          0          NO
869              0          0          0          NO
871              0          0          0          NO
869_2            0          0          0          NO
873              0          0          0          NO
877              0          0          0          NO
875              0          0          0          NO
881              0          0          0          NO
883              0          0          0          NO
885              0          0          0          NO
879              0          0          0          NO
889              0          0          0          NO
887              0          0          0          NO
892              0          0          0          NO
894              0          0          0          NO
895              0          0          0          NO
899              0          0          0          NO
901              0          0          0          NO
903              0          0          0          NO
901_2            0          0          0          NO
905              0          0          0          NO
908              0          0          0          NO
910              0          0          0          NO
912              0          0          0          NO
914              0          0          0          NO
914_2            0          0          0          NO
916              0          0          0          NO
919              0          0          0          NO
921              0          0          0          NO
919_2            0          0          0          NO
925              0          0          0          NO
927              0          0          0          NO
667_2            0          0          0          NO
930              0          0          0          NO
667_3            0          0          0          NO
934              0          0          0          NO
932              0          0          0          NO
938              0          0          0          NO
936              0          0          0          NO
940              0          0          0          NO
944              0          0          0          NO
938_2            0          0          0          NO
948              0          0          0          NO
949              0          0          0          NO
952              0          0          0          NO
954              0          0          0          NO
942              0          0          0          NO
946              0          0          0          NO
958              0          0          0          NO
960              0          0          0          NO
962              0          0          0          NO
964              0          0          0          NO
966              0          0          0          NO
968              0          0          0          NO
970              0          0          0          NO
972              0          0          0          NO
974              0          0          0          NO
976              0          0          0          NO
978              0          0          0          NO
980              0          0          0          NO
981              0          0          0          NO
985              0          0          0          NO
987              0          0          0          NO
983              0          0          0          NO
990              0          0          0          NO
992              0          0          0          NO
994              0          0          0          NO
996              0          0          0          NO
998              0          0          0          NO
897              0          0          0          NO
240              0          0          0          NO
290              0          0          0          NO

[INFLOWS]
;;Node           Constituent  Time Series      Type     Mfactor  Sfactor  Baseline Pattern
;;-------------- ------------ ---------------- -------- -------- -------- -------- --------
220550           FLOW         ""               FLOW     1.0      1.0      0.01
220955           FLOW         ""               FLOW     1.0      1.0      0.02
220973           FLOW         ""               FLOW     1.0      1.0      0.00

[COORDINATES]
;;Node           X-Coord            Y-Coord
;;-------------- ------------------ ------------------
220550           398.89             994.00            
220551           418.89             994.00            
220552           1793.15            1045.22           
220553           496.55             997.12            
220969           1773.15            1045.22           
220554           476.55             997.12            
220555           456.55             997.12            
220556           436.55             997.12            
220557           416.55             997.12            
220558           436.55             997.12            
220559           620.35             1011.99           
220560           456.55             997.12            
220561           600.35             991.99            
220562           580.35             991.99            
220831           496.55             997.12            
220563           402.89             992.51            
220564           560.35             991.99            
220565           453.67             1023.74           
220826           540.35             991.99            
220566           436.35             1013.74           
220567           439.03             1003.74           
220568           437.82             1010.58           
220825           419.03             1003.74           
220569           559.03             1003.74           
220570           579.03             1003.74           
220723           539.03             1003.74           
220571           599.03             1003.74           
220572           619.03             1003.74           
220573           660.18             995.27            
220574           640.18             995.27            
220603           454.64             917.37            
220575           620.18             995.27            
220600           640.18             975.27            
220576           600.18             995.27            
220577           580.18             995.27            
220578           552.38             1051.69           
220579           394.25             992.68            
220580           560.18             995.27            
220581           540.18             995.27            
220582           520.18             995.27            
220583           500.18             995.27            
220584           480.18             995.27            
220585           697.82             1010.58           
220586           697.82             996.90            
220593           716.62             1017.42           
220587           440.18             995.27            
220588           399.38             993.19            
220589           420.18             995.27            
220590           440.18             995.27            
220591           460.18             995.27            
220592           480.18             995.27            
220594           735.41             1024.26           
220595           754.21             1031.10           
220596           773.00             1037.94           
220597           791.79             1044.78           
220598           810.59             1051.63           
220599           829.38             1058.47           
220601           640.18             955.27            
220602           640.18             935.27            
220604           700.18             995.27            
220605           720.18             995.27            
220606           740.18             995.27            
220607           760.18             995.27            
220608           434.64             997.37            
220609           780.18             995.27            
220732           414.64             997.37            
220610           860.18             995.27            
220611           880.18             995.27            
220735           840.18             995.27            
220612           900.18             995.27            
220613           920.18             995.27            
220738           434.32             997.44            
220614           940.18             995.27            
220615           960.18             995.27            
220742           474.32             997.44            
220616           980.18             995.27            
220617           1180.18            995.27            
220618           982.86             1005.27           
220621           1100.18            995.27            
220748           516.92             980.71            
220619           965.54             1015.27           
220620           948.22             1025.27           
220622           1000.18            955.27            
220975           1120.18            995.27            
220623           1140.18            995.27            
220628           397.87             995.64            
220624           1000.18            995.27            
220625           1020.18            995.27            
220626           1040.18            995.27            
220627           1060.18            995.27            
220632           401.33             1003.55           
220631           399.31             1004.22           
220652           478.32             1002.37           
220633           396.64             999.36            
220634           577.67             1044.85           
220635           594.99             1054.85           
220639           518.32             1002.37           
220636           612.31             1064.85           
220637           625.17             1080.17           
220638           632.01             1068.32           
220640           538.32             1002.37           
220641           558.32             1002.37           
220642           578.32             1002.37           
220654           598.32             1002.37           
220643           1411.07            1016.26           
220644           398.58             881.49            
220657           454.31             991.76            
220784           1431.07            1016.26           
220645           1231.07            1016.26           
220670           414.96             870.02            
220646           1251.07            1016.26           
220671           1211.07            1016.26           
220647           1271.07            1016.26           
220648           1291.07            1016.26           
220668           431.34             858.55            
220649           1311.07            1016.26           
220667           1291.07            996.26            
220650           1331.07            1016.26           
220690           438.32             1002.37           
220651           1351.07            1016.26           
220666           395.23             1002.84           
220653           498.32             1002.37           
220698           491.07             994.85            
220656           498.32             1022.37           
220655           598.32             1022.37           
220678           584.18             988.23            
220658           1391.07            1016.26           
220659           400.79             994.01            
220660           420.79             994.01            
220661           440.79             994.01            
220662           460.79             994.01            
220663           480.79             994.01            
220664           1371.07            1016.26           
220665           500.79             1014.01           
220669           447.73             847.07            
220672           1191.07            1016.26           
220701           1211.07            1036.26           
220673           450.93             895.20            
220677           1171.07            1016.26           
220674           462.40             911.59            
220675           473.87             927.97            
220676           485.34             944.35            
220685           1151.07            1016.26           
220679           575.73             970.11            
220680           566.05             979.78            
220681           1111.07            1016.26           
220682           391.36             999.79            
220695           432.55             1012.84           
220696           496.92             1008.99           
220683           510.86             912.11            
220684           1131.07            1016.26           
220703           527.24             923.59            
220688           438.32             1002.37           
220686           1151.07            996.26            
220687           1151.07            976.26            
220689           418.32             1002.37           
220700           496.92             980.71            
220691           435.23             962.84            
220692           435.23             982.84            
220693           435.23             1002.84           
220694           415.23             1002.84           
220709           1091.07            1016.26           
220697           458.32             1002.37           
220699           511.07             994.85            
220702           1211.07            1056.26           
220704           543.62             935.06            
220707           462.78             966.57            
220708           476.92             980.71            
220751           1217.50            985.27            
220710           415.42             997.51            
220767           1071.07            1016.26           
220711           471.07             994.85            
220712           420.35             971.99            
220817           451.07             994.85            
220713           420.35             991.99            
220814           511.83             977.09            
220714           401.86             997.03            
220745           555.72             987.55            
220796           400.35             991.99            
220715           514.32             997.44            
220716           534.32             997.44            
220741           555.72             987.55            
220717           554.32             997.44            
220718           574.32             997.44            
220737           347.09             1000.29           
220719           800.18             995.27            
220720           580.17             983.30            
220721           528.47             1036.29           
220734           576.99             1007.44           
220722           513.14             1023.44           
220731           519.03             1003.74           
220725           587.26             1043.13           
220726           571.94             1030.28           
220727           479.03             1003.74           
220728           576.62             1017.42           
220730           499.03             1003.74           
220729           398.60             1004.12           
220733           394.64             997.37            
220736           820.18             995.27            
220739           454.32             997.44            
220747           414.32             997.44            
220740           494.32             997.44            
220746           555.72             987.55            
220743           555.72             973.87            
220744           536.92             980.71            
220749           496.92             980.71            
220754           1200.18            995.27            
220750           482.78             966.57            
220752           1234.82            1015.27           
220753           1217.50            1005.27           
220755           1220.18            995.27            
220768           455.23             1042.84           
220769           1051.07            1016.26           
220770           1031.07            1016.26           
220813           391.07             994.85            
220771           1011.07            1016.26           
220772           432.95             1001.55           
220808           991.07             1016.26           
220773           1533.15            1045.22           
220774           442.43             986.27            
220788           1513.15            1045.22           
220789           436.57             1000.41           
220775           1573.15            1045.22           
220779           1553.15            1045.22           
220780           393.44             1003.36           
220912           534.26             1016.25           
220776           480.45             994.45            
220777           460.45             994.45            
220778           440.45             994.45            
220795           396.57             1000.41           
220781           442.89             1078.00           
220782           456.57             1000.41           
220783           1493.15            1045.22           
220787           476.57             980.41            
220785           1473.15            1045.22           
220786           1453.15            1045.22           
220928           1433.15            1045.22           
220790           416.57             1000.41           
220791           372.81             966.46            
220792           382.81             983.78            
220793           365.49             973.78            
220802           951.07             1016.26           
220840           362.81             983.78            
220794           348.17             963.78            
220797           440.35             991.99            
220798           452.74             1007.51           
220819           398.55             996.30            
220799           435.42             997.51            
220800           455.42             997.51            
220809           336.81             1058.58           
220801           971.07             1016.26           
220806           391.61             992.67            
220803           931.07             1016.26           
220804           911.07             1016.26           
220839           437.45             1003.78           
220849           891.07             1016.26           
220807           451.75             981.02            
220810           452.74             987.51            
220811           465.59             972.19            
220816           472.43             984.04            
220812           411.07             994.85            
220818           431.07             994.85            
220815           492.13             980.56            
220820           393.62             1000.73           
220821           392.65             998.92            
220822           513.33             1000.14           
220823           401.21             993.76            
220830           460.35             991.99            
220824           459.03             1003.74           
220827           520.35             991.99            
220828           500.35             991.99            
220829           480.35             991.99            
220832           516.55             997.12            
220833           811.07             1016.26           
220844           399.13             1001.45           
220834           522.41             982.97            
220861           791.07             1016.26           
220835           536.55             997.12            
220836           457.45             1003.78           
220837           556.55             1017.12           
220838           397.45             1003.78           
220842           396.28             998.86            
220843           417.45             1003.78           
220845           556.99             993.51            
220846           831.07             1016.26           
220847           851.07             1016.26           
220848           871.07             1016.26           
220850           448.19             1144.08           
220851           463.51             1131.23           
220852           478.83             1118.37           
220853           657.45             1003.78           
220854           677.45             1003.78           
220876           637.45             1003.78           
220855           677.45             983.78            
220858           697.45             1003.78           
220856           677.45             963.78            
220857           677.45             943.78            
220859           737.45             1003.78           
220866           717.45             1003.78           
220860           771.07             1016.26           
220865           756.24             1010.62           
220862           738.12             988.49            
220868           751.07             1016.26           
220870           392.68             993.72            
220863           719.99             980.04            
220864           750.49             792.40            
220867           717.45             1023.78           
220869           745.89             1035.58           
220871           402.27             993.28            
220872           450.04             1168.24           
220873           465.36             1155.39           
220874           480.68             1142.53           
220875           477.21             1162.23           
220878           617.45             1003.78           
220879           497.63             1164.60           
220880           597.45             1003.78           
220881           477.45             1003.78           
220893           577.45             1003.78           
220882           392.96             992.77            
220883           526.88             1036.34           
220884           542.21             1049.19           
220885           497.45             1003.78           
220886           517.45             1003.78           
220887           517.45             1023.78           
220890           537.45             1003.78           
220888           510.61             1042.58           
220889           524.29             1042.58           
220891           537.45             983.78            
220892           557.45             1003.78           
220958           537.45             963.78            
220894           577.45             1023.78           
220896           527.94             938.66            
220897           521.10             957.45            
220898           1693.15            1045.22           
220899           1673.15            1045.22           
220900           507.42             937.45            
220902           1633.15            1045.22           
220901           1653.15            1045.22           
220903           1633.15            1045.22           
220907           1613.15            1045.22           
220904           1613.15            1045.22           
220905           570.64             1016.77           
220906           399.03             997.56            
220908           514.26             996.25            
220909           1630.47            1055.22           
220913           1593.15            1045.22           
220910           1647.79            1065.22           
220911           1665.11            1075.22           
220914           534.26             1036.25           
220916           1469.86            1009.42           
220915           534.26             1056.25           
220917           1333.15            1045.22           
220919           1300.88            1022.62           
220918           1353.15            1045.22           
220923           1373.15            1045.22           
220920           1286.74            1008.48           
220925           1451.07            1016.26           
220922           1393.15            1045.22           
220921           1413.15            1045.22           
220929           1399.00            1059.36           
220943           1413.15            1025.22           
220924           1373.15            1025.22           
220926           1469.86            1023.10           
220927           1488.65            1029.94           
220930           1380.88            1067.81           
220939           1390.55            1077.49           
220931           1362.75            1076.26           
220932           1344.63            1084.72           
220933           1326.50            1093.17           
220934           1308.37            1101.62           
220935           1290.25            1110.07           
220936           1272.12            1118.53           
220938           1348.29            1168.12           
220937           1356.74            1149.99           
220942           1365.19            1131.86           
220940           1382.10            1095.61           
220941           1373.65            1113.74           
220944           1413.15            1005.22           
220945           1413.15            985.22            
220946           1419.99            966.42            
220948           1406.31            966.42            
220947           1426.83            947.63            
220954           1713.15            1045.22           
220949           1406.31            946.42            
220951           1393.45            951.10            
220950           1406.31            926.42            
220952           1380.59            935.78            
220953           1367.74            920.46            
220955           494.26             996.25            
220956           474.26             996.25            
220957           454.26             996.25            
220959           434.26             996.25            
220960           414.26             996.25            
220962           395.78             997.62            
220961           434.26             996.25            
220963           400.49             992.14            
220964           438.89             1054.00           
220965           1733.15            1045.22           
220966           1753.15            1045.22           
220967           1753.15            1065.22           
220968           1753.15            1085.22           
220973           459.03             1003.74           
220974           460.18             995.27            
999623           1160.18            995.27            
OW0              476.55             997.12            
OW1              680.18             995.27            
OW2              1080.18            995.27            

[MAP]
DIMENSIONS 336.81 792.40 1793.15 1168.24
Units      None

[REPORT]
SUBCATCHMENTS ALL
NODES ALL
LINKS ALL
