;; SWMM5 .inp converted from XPSWMM .xp file
;; Generated by XPSWMM Card Reader
;; Source format: XP_CARD | Original title: TRY PUMP NETWORK

[TITLE]
;;Project Title/Notes
TRY PUMP NETWORK

[OPTIONS]
FLOW_UNITS           CMS
INFILTRATION         HORTON
FLOW_ROUTING         DYNWAVE
LINK_OFFSETS         DEPTH
MIN_SLOPE            0.0
ALLOW_PONDING        NO
SKIP_STEADY_STATE    NO
ROUTING_STEP         00:00:04
VARIABLE_STEP        0.75
INERTIAL_DAMPING     PARTIAL
NORMAL_FLOW_LIMITED  BOTH
MAX_TRIALS           100
START_DATE           01/01/2001
START_TIME           00:00:00
REPORT_START_DATE    01/01/2001
REPORT_START_TIME    00:00:00
END_DATE             01/02/2001
END_TIME             00:00:00
SWEEP_START          01/01
SWEEP_END            12/31
DRY_DAYS             0
REPORT_STEP          00:15:00
WET_STEP             00:05:00
DRY_STEP             01:00:00

[JUNCTIONS]
;;Name           Elev       MaxDepth   InitDepth  SurDepth   Aponded
;;-------------- ---------- ---------- ---------- ---------- ----------
Inlet            105.00     0          0          0          0
Rec              115.00     0          0          0          0
inflow           112.00     0          0          0          0

[OUTFALLS]
;;Name           Elev       Type       Stage      Gated
;;-------------- ---------- ---------- ---------- -----
Outfall          125.00     FREE                  NO

[STORAGE]
;;Name           Elev       MaxDepth   InitDepth  Shape      Curve/Params
;;-------------- ---------- ---------- ---------- ---------- ----------
Well             105.00     10.00      2.00       FUNCTIONAL 5.00 0          0
Well_2           112.00     10.00      4.00       FUNCTIONAL 5.00 0          0

[CONDUITS]
;;Name           From             To               Length     Roughness  InOffset   OutOffset  InitFlow   MaxFlow
;;-------------- ---------------- ---------------- ---------- ---------- ---------- ---------- ---------- ----------
Connect          Rec              Well             10.00      0.0140     107.00     106.00     0          0
In               Inlet            Well             10.00      0.0140     102.00     101.00     0          0
bypass           inflow           Rec              10.00      0.0140     108.00     107.00     0          0

[PUMPS]
;;Name           From             To               PumpCurve  Status   Startup    Shutoff
;;-------------- ---------------- ---------------- ---------- -------- ---------- ----------
pumpit           Well             Rec              PC_pumpit  ON       100.00     99.00     
DSPUMP           Well             Outfall          PC_DSPUMP  ON       102.00     101.00    

[CURVES]
;;Name           Type       X-Value    Y-Value
;;-------------- ---------- ---------- ----------
;; Synthesized generic pump curves — replace with actual pump data
PC_pumpit        Pump1      0          5
PC_pumpit                   10         10
PC_DSPUMP        Pump1      0          5
PC_DSPUMP                   10         10

[XSECTIONS]
;;Link           Shape        Geom1      Geom2      Geom3      Geom4      Barrels
;;-------------- ------------ ---------- ---------- ---------- ---------- ----------
Connect          CIRCULAR     1.00       0          0          0          1
In               CIRCULAR     1.00       0          0          0          1
bypass           CIRCULAR     2.00       0          0          0          1

[LOSSES]
;;Link           Inlet      Outlet     Average    Flap Gate
;;-------------- ---------- ---------- ---------- ----------
Connect          0          0          0          NO
In               0          0          0          NO
bypass           0          0          0          NO

[COORDINATES]
;;Node           X-Coord            Y-Coord
;;-------------- ------------------ ------------------
Inlet            37.50              57.50             
Well             77.50              97.50             
Rec              37.26              137.74            
Well_2           77.50              177.50            
Outfall          38.65              200.25            
inflow           16.31              76.94             

[MAP]
DIMENSIONS 16.31 57.50 77.50 200.25
Units      None

[REPORT]
SUBCATCHMENTS ALL
NODES ALL
LINKS ALL
