;; SWMM5 .inp converted from XPSWMM .xp file
;; Generated by XPSWMM Card Reader
;; Source format: XP_CARD | Original title: Sanitary Model
;; Links parsed from source: 63 | Routable in this .inp: 64

[TITLE]
;;Project Title/Notes
Sanitary Model

[OPTIONS]
FLOW_UNITS           CFS
INFILTRATION         HORTON
FLOW_ROUTING         DYNWAVE
LINK_OFFSETS         DEPTH
MIN_SLOPE            0.0
ALLOW_PONDING        NO
SKIP_STEADY_STATE    NO
ROUTING_STEP         00:01:00
VARIABLE_STEP        0.75
INERTIAL_DAMPING     PARTIAL
NORMAL_FLOW_LIMITED  BOTH
START_DATE           01/01/2001
START_TIME           00:00:00
REPORT_START_DATE    01/01/2001
REPORT_START_TIME    00:00:00
END_DATE             01/02/2001
END_TIME             00:00:00
SWEEP_START          01/01
SWEEP_END            12/31
DRY_DAYS             0
REPORT_STEP          00:15:00
WET_STEP             00:05:00
DRY_STEP             01:00:00

[JUNCTIONS]
;;Name           Elev       MaxDepth   InitDepth  SurDepth   Aponded
;;-------------- ---------- ---------- ---------- ---------- ----------
86647801         1299.17    0          0          0          0
86648902         1296.16    0          0          0          0
86659201         1308.55    0          0          0          0
87646601         1327.52    0          0          0          0
87646701         1324.95    0          0          0          0
87646702         1321.95    0          0          0          0
87647902         1321.86    0          0          0          0
87650201         1300.86    0          0          0          0
87650202         1305.16    0          0          0          0
87651203         1291.45    0          0          0          0
87653001         1306.61    0          0          0          0
87653101         1293.66    0          0          0          0
87653102         1287.70    0          0          0          0
87654001         1299.61    0          0          0          0
87654003         1305.15    0          0          0          0
87654101         1303.71    0          0          0          0
87654102         1295.00    0          0          0          0
87655102         1284.41    0          0          0          0
87656101         1285.20    0          0          0          0
87657101         1282.63    0          0          0          0
87657102         1285.79    0          0          0          0
87657104         1295.66    0          0          0          0
87657202         1279.25    0          0          0          0
87658101         1309.40    0          0          0          0
87658102         1301.39    0          0          0          0
87658701         1316.64    0          0          0          0
87658702         1320.10    0          0          0          0
87659201         1317.46    0          0          0          0
87659603         1297.23    0          0          0          0
87659701         1289.13    0          0          0          0
87659703         1291.32    0          0          0          0
87659801         1309.65    0          0          0          0
88650101         1337.34    0          0          0          0
88650201         1329.26    0          0          0          0
88650202         1329.52    0          0          0          0
88650501         1298.93    0          0          0          0
88650601         1292.37    0          0          0          0
88650701         1290.45    0          0          0          0
88650702         1296.77    0          0          0          0
88651501         1311.17    0          0          0          0
88651601         1294.99    0          0          0          0
88651602         1296.92    0          0          0          0
88651702         1284.15    0          0          0          0
88652401         1313.95    0          0          0          0
88652502         1306.81    0          0          0          0
88652601         1308.93    0          0          0          0
88653401         1302.62    0          0          0          0
88653402         1301.57    0          0          0          0
88653403         1314.26    0          0          0          0
86648900         1294.81    0          0          0          0

[OUTFALLS]
;;Name           Elev       Type       Stage      Gated
;;-------------- ---------- ---------- ---------- -----
OUT_SYNTH        1284.79    FREE                  NO

[STORAGE]
;;Name           Elev       MaxDepth   InitDepth  Shape      Curve/Params
;;-------------- ---------- ---------- ---------- ---------- ----------
87650001         1289.06    10.00      0          FUNCTIONAL 100.00 0          0

[CONDUITS]
;;Name           From             To               Length     Roughness  InOffset   OutOffset  InitFlow   MaxFlow
;;-------------- ---------------- ---------------- ---------- ---------- ---------- ---------- ---------- ----------
203              86659201         86647801         246.18     0.0130     1300.55    1291.17    0          0
201              86647801         86648902         214.13     0.0130     1291.17    1288.16    0          0
202              86648902         87650001         205.94     0.0130     1288.16    1281.06    0          0
203_2            86659201         87650202         226.97     0.0130     1300.55    1297.16    0          0
207              87647902         87658702         187.91     0.0130     1313.86    1312.10    0          0
204              87646601         87646701         169.66     0.0130     1319.52    1316.95    0          0
205              87646701         87646702         154.55     0.0130     1316.95    1313.95    0          0
206              87646702         87647902         103.34     0.0130     1313.95    1313.86    0          0
207_2            87647902         87653001         294.11     0.0130     1313.86    1298.61    0          0
209              87650201         87651203         261.16     0.0130     1292.86    1283.45    0          0
210              87650202         87650201         133.88     0.0130     1297.16    1292.86    0          0
211              87651203         87650001         287.49     0.0130     1283.45    1281.06    0          0
212              87653001         87654003         101.02     0.0130     1298.61    1297.15    0          0
213              87653101         87653102         87.66      0.0130     1285.66    1279.70    0          0
214              87653102         87655102         185.28     0.0130     1279.70    1278.89    0          0
215              87654001         87653101         232.73     0.0130     1291.61    1285.66    0          0
217              87654101         87654102         249.47     0.0130     1295.71    1287.00    0          0
218              87654102         87655102         256.23     0.0130     1287.00    1278.89    0          0
219              87655102         87656101         77.05      0.0130     1278.89    1278.56    0          0
212_2            87653001         87654101         147.08     0.0130     1298.61    1295.71    0          0
245              88652401         88651501         242.23     0.0130     1305.95    1303.17    0          0
220              87656101         87657102         176.32     0.0130     1278.56    1277.79    0          0
229              87659201         88652502         250.85     0.0130     1309.46    1298.81    0          0
221              87657101         87657202         424.41     0.0130     1274.63    1271.25    0          0
222              87657102         87657101         419.75     0.0130     1277.79    1274.63    0          0
223              87657104         87657102         235.31     0.0130     1287.66    1277.79    0          0
225              87658101         87657104         318.72     0.0130     1301.40    1287.66    0          0
225_2            87658101         87658102         162.19     0.0130     1301.40    1293.39    0          0
247              88652601         87659603         451.54     0.0130     1300.93    1287.91    0          0
227              87658701         87659801         221.91     0.0130     1308.64    1301.65    0          0
228              87658702         87658701         197.94     0.0130     1312.10    1308.64    0          0
229_2            87659201         87658102         387.49     0.0130     1309.46    1293.39    0          0
240              88650702         87659703         390.07     0.0130     1288.77    1283.32    0          0
230              87659603         87659703         390.56     0.0130     1287.91    1283.32    0          0
226              87658102         87659603         242.51     0.0130     1293.39    1287.91    0          0
231              87659701         88651702         275.52     0.0130     1281.13    1276.15    0          0
232              87659703         88650701         222.44     0.0130     1283.32    1282.45    0          0
240_2            88650702         87657101         566.96     0.0130     1288.77    1274.63    0          0
233              87659801         87650202         303.23     0.0130     1301.65    1297.16    0          0
234              88650101         88650202         318.40     0.0130     1329.34    1321.52    0          0
235              88650201         87659201         434.25     0.0130     1321.26    1309.46    0          0
236              88650202         88650201         379.71     0.0130     1321.52    1321.26    0          0
243              88651602         87659703         467.24     0.0130     1288.92    1283.32    0          0
237              88650501         88651601         346.08     0.0130     1290.93    1286.99    0          0
244              88651702         87657202         314.17     0.0130     1276.15    1271.25    0          0
241              88651501         88652601         386.57     0.0130     1303.17    1300.93    0          0
243_2            88651602         88651601         508.00     0.0130     1288.92    1286.99    0          0
216              87654003         87654001         261.85     0.0130     1297.15    1291.61    0          0
245_2            88652401         88652502         193.14     0.0130     1305.95    1298.81    0          0
234_2            88650101         88651501         405.25     0.0130     1329.34    1303.17    0          0
246              88652502         87659603         395.06     0.0130     1298.81    1287.91    0          0
247_2            88652601         88651602         405.48     0.0130     1300.93    1288.92    0          0
235_2            88650201         88653403         350.11     0.0130     1321.26    1306.26    0          0
248              88653401         87657102         384.00     0.0130     1294.62    1277.79    0          0
249              88653402         88653401         364.40     0.0130     1300.07    1294.62    0          0
250              88653403         88653402         413.15     0.0140     1306.26    1300.07    0          0
204_2            87646601         88653403         351.46     0.0130     1319.52    1306.26    0          0
204_3            87646601         88653401         417.64     0.0130     1319.52    1294.62    0          0
251              86648900         87653101         215.25     0.0130     1286.81    1285.66    0          0
242              88651601         88650601         320.72     0.0130     1286.99    1284.37    0          0
238              88650601         88650701         233.07     0.0130     1284.37    1282.45    0          0
239              88650701         87659701         383.34     0.0130     1282.45    1281.13    0          0
C_OUT_SYNTH      87657102         OUT_SYNTH        50.00      0.0130     0          0          0          0

[PUMPS]
;;Name           From             To               PumpCurve  Status   Startup    Shutoff
;;-------------- ---------------- ---------------- ---------- -------- ---------- ----------
208              87650001         86648900         PC_208     ON       1283.00    1282.00   

[CURVES]
;;Name           Type       X-Value    Y-Value
;;-------------- ---------- ---------- ----------
;; Synthesized generic pump curves — replace with actual pump data
PC_208           Pump1      0          5
PC_208                      10         10

[XSECTIONS]
;;Link           Shape        Geom1      Geom2      Geom3      Geom4      Barrels
;;-------------- ------------ ---------- ---------- ---------- ---------- ----------
203              CIRCULAR     0.67       0          0          0          1
201              CIRCULAR     0.67       0          0          0          1
202              CIRCULAR     0.67       0          0          0          1
203_2            CIRCULAR     0.67       0          0          0          1
207              CIRCULAR     0.67       0          0          0          1
204              CIRCULAR     0.67       0          0          0          1
205              CIRCULAR     0.67       0          0          0          1
206              CIRCULAR     0.67       0          0          0          1
207_2            CIRCULAR     0.67       0          0          0          1
209              CIRCULAR     0.67       0          0          0          1
210              CIRCULAR     0.67       0          0          0          1
211              CIRCULAR     0.83       0          0          0          1
212              CIRCULAR     0.67       0          0          0          1
213              CIRCULAR     0.67       0          0          0          1
214              CIRCULAR     1.25       0          0          0          1
215              CIRCULAR     0.67       0          0          0          1
217              CIRCULAR     0.67       0          0          0          1
218              CIRCULAR     0.67       0          0          0          1
219              CIRCULAR     1.25       0          0          0          1
212_2            CIRCULAR     0.67       0          0          0          1
245              CIRCULAR     0.67       0          0          0          1
220              CIRCULAR     1.25       0          0          0          1
229              CIRCULAR     0.67       0          0          0          1
221              CIRCULAR     1.25       0          0          0          1
222              CIRCULAR     1.25       0          0          0          1
223              CIRCULAR     0.67       0          0          0          1
225              CIRCULAR     0.67       0          0          0          1
225_2            CIRCULAR     0.67       0          0          0          1
247              CIRCULAR     0.67       0          0          0          1
227              CIRCULAR     0.67       0          0          0          1
228              CIRCULAR     0.67       0          0          0          1
229_2            CIRCULAR     0.67       0          0          0          1
240              CIRCULAR     0.67       0          0          0          1
230              CIRCULAR     0.67       0          0          0          1
226              CIRCULAR     0.67       0          0          0          1
231              CIRCULAR     0.83       0          0          0          1
232              CIRCULAR     1.00       0          0          0          1
240_2            CIRCULAR     0.67       0          0          0          1
233              CIRCULAR     0.67       0          0          0          1
234              CIRCULAR     0.67       0          0          0          1
235              CIRCULAR     0.67       0          0          0          1
236              CIRCULAR     0.67       0          0          0          1
243              CIRCULAR     0.67       0          0          0          1
237              CIRCULAR     0.67       0          0          0          1
244              CIRCULAR     0.83       0          0          0          1
241              CIRCULAR     0.67       0          0          0          1
243_2            CIRCULAR     0.67       0          0          0          1
216              CIRCULAR     0.67       0          0          0          1
245_2            CIRCULAR     0.67       0          0          0          1
234_2            CIRCULAR     0.67       0          0          0          1
246              CIRCULAR     0.67       0          0          0          1
247_2            CIRCULAR     0.67       0          0          0          1
235_2            CIRCULAR     0.67       0          0          0          1
248              CIRCULAR     0.67       0          0          0          1
249              CIRCULAR     0.67       0          0          0          1
250              CIRCULAR     0.67       0          0          0          1
204_2            CIRCULAR     0.67       0          0          0          1
204_3            CIRCULAR     0.67       0          0          0          1
251              CIRCULAR     1.00       0          0          0          1
242              CIRCULAR     0.67       0          0          0          1
238              CIRCULAR     0.67       0          0          0          1
239              CIRCULAR     1.25       0          0          0          1
C_OUT_SYNTH      CIRCULAR     3.00       0          0          0          1

[LOSSES]
;;Link           Inlet      Outlet     Average    Flap Gate
;;-------------- ---------- ---------- ---------- ----------
203              0          0          0          NO
201              0          0          0          NO
202              0          0          0          NO
203_2            0          0          0          NO
207              0          0          0          NO
204              0          0          0          NO
205              0          0          0          NO
206              0          0          0          NO
207_2            0          0          0          NO
209              0          0          0          NO
210              0          0          0          NO
211              0          0          0          NO
212              0          0          0          NO
213              0          0          0          NO
214              0          0          0          NO
215              0          0          0          NO
217              0          0          0          NO
218              0          0          0          NO
219              0          0          0          NO
212_2            0          0          0          NO
245              0          0          0          NO
220              0          0          0          NO
229              0          0          0          NO
221              0          0          0          NO
222              0          0          0          NO
223              0          0          0          NO
225              0          0          0          NO
225_2            0          0          0          NO
247              0          0          0          NO
227              0          0          0          NO
228              0          0          0          NO
229_2            0          0          0          NO
240              0          0          0          NO
230              0          0          0          NO
226              0          0          0          NO
231              0          0          0          NO
232              0          0          0          NO
240_2            0          0          0          NO
233              0          0          0          NO
234              0          0          0          NO
235              0          0          0          NO
236              0          0          0          NO
243              0          0          0          NO
237              0          0          0          NO
244              0          0          0          NO
241              0          0          0          NO
243_2            0          0          0          NO
216              0          0          0          NO
245_2            0          0          0          NO
234_2            0          0          0          NO
246              0          0          0          NO
247_2            0          0          0          NO
235_2            0          0          0          NO
248              0          0          0          NO
249              0          0          0          NO
250              0          0          0          NO
204_2            0          0          0          NO
204_3            0          0          0          NO
251              0          0          0          NO
242              0          0          0          NO
238              0          0          0          NO
239              0          0          0          NO
C_OUT_SYNTH      0          0          0          NO

[INFLOWS]
;;Node           Constituent  Time Series      Type     Mfactor  Sfactor  Baseline Pattern
;;-------------- ------------ ---------------- -------- -------- -------- -------- --------
86647801         FLOW         ""               FLOW     1.0      1.0      0.05000
86648902         FLOW         ""               FLOW     1.0      1.0      0.05000
86659201         FLOW         ""               FLOW     1.0      1.0      0.05000
87646601         FLOW         ""               FLOW     1.0      1.0      0.05000
87646701         FLOW         ""               FLOW     1.0      1.0      0.05000
87646702         FLOW         ""               FLOW     1.0      1.0      0.05000
87647902         FLOW         ""               FLOW     1.0      1.0      0.05000
87650001         FLOW         ""               FLOW     1.0      1.0      0.05000
87650201         FLOW         ""               FLOW     1.0      1.0      0.05000
87650202         FLOW         ""               FLOW     1.0      1.0      0.05000
87651203         FLOW         ""               FLOW     1.0      1.0      0.05000
87653001         FLOW         ""               FLOW     1.0      1.0      0.05000
87653101         FLOW         ""               FLOW     1.0      1.0      0.05000
87653102         FLOW         ""               FLOW     1.0      1.0      0.05000
87654001         FLOW         ""               FLOW     1.0      1.0      0.05000
87654003         FLOW         ""               FLOW     1.0      1.0      0.05000
87654101         FLOW         ""               FLOW     1.0      1.0      0.05000
87654102         FLOW         ""               FLOW     1.0      1.0      0.05000
87655102         FLOW         ""               FLOW     1.0      1.0      0.05000
87656101         FLOW         ""               FLOW     1.0      1.0      0.05000
87657101         FLOW         ""               FLOW     1.0      1.0      0.05000
87657102         FLOW         ""               FLOW     1.0      1.0      0.05000
87657104         FLOW         ""               FLOW     1.0      1.0      0.05000
87657202         FLOW         ""               FLOW     1.0      1.0      0.05000
87658101         FLOW         ""               FLOW     1.0      1.0      0.05000
87658102         FLOW         ""               FLOW     1.0      1.0      0.05000
87658701         FLOW         ""               FLOW     1.0      1.0      0.05000
87658702         FLOW         ""               FLOW     1.0      1.0      0.05000
87659201         FLOW         ""               FLOW     1.0      1.0      0.05000
87659603         FLOW         ""               FLOW     1.0      1.0      0.05000
87659701         FLOW         ""               FLOW     1.0      1.0      0.05000
87659703         FLOW         ""               FLOW     1.0      1.0      0.05000
87659801         FLOW         ""               FLOW     1.0      1.0      0.05000
88650101         FLOW         ""               FLOW     1.0      1.0      0.05000
88650201         FLOW         ""               FLOW     1.0      1.0      0.05000
88650202         FLOW         ""               FLOW     1.0      1.0      0.05000
88650501         FLOW         ""               FLOW     1.0      1.0      0.05000
88650601         FLOW         ""               FLOW     1.0      1.0      0.05000
88650701         FLOW         ""               FLOW     1.0      1.0      0.05000
88650702         FLOW         ""               FLOW     1.0      1.0      0.05000
88651501         FLOW         ""               FLOW     1.0      1.0      0.05000
88651601         FLOW         ""               FLOW     1.0      1.0      0.05000
88651602         FLOW         ""               FLOW     1.0      1.0      0.05000
88651702         FLOW         ""               FLOW     1.0      1.0      0.05000
88652401         FLOW         ""               FLOW     1.0      1.0      0.05000
88652502         FLOW         ""               FLOW     1.0      1.0      0.05000
88652601         FLOW         ""               FLOW     1.0      1.0      0.05000
88653401         FLOW         ""               FLOW     1.0      1.0      0.05000
88653402         FLOW         ""               FLOW     1.0      1.0      0.05000
88653403         FLOW         ""               FLOW     1.0      1.0      0.05000
86648900         FLOW         ""               FLOW     1.0      1.0      0.05000

[COORDINATES]
;;Node           X-Coord            Y-Coord
;;-------------- ------------------ ------------------
86647801         -3775.34           2703.91           
86648902         -3780.36           2917.98           
86659201         -3778.26           2457.74           
87646601         -2973.12           2146.85           
87646701         -3142.72           2142.44           
87646702         -3297.26           2144.20           
87647902         -3400.55           2147.50           
87650001         -3977.52           2977.49           
87650201         -4137.51           2452.75           
87650202         -4004.40           2438.36           
87651203         -4065.26           2703.72           
87653001         -3405.90           2441.56           
87653101         -3519.81           2949.61           
87653102         -3432.72           2959.53           
87654001         -3506.82           2717.24           
87654003         -3505.97           2455.39           
87654101         -3258.98           2448.59           
87654102         -3256.89           2698.04           
87655102         -3247.52           2954.10           
87656101         -3170.47           2954.41           
87657101         -2994.34           3367.92           
87657102         -2994.26           2948.17           
87657104         -2759.07           2955.49           
87657202         -2978.99           3792.06           
87658101         -2440.38           2951.87           
87658102         -2278.19           2950.95           
87658701         -3786.19           2135.92           
87658702         -3588.43           2144.22           
87659201         -2270.96           2563.53           
87659603         -2035.69           2953.21           
87659701         -2435.07           3605.60           
87659703         -2037.69           3343.76           
87659801         -4008.10           2135.16           
88650101         -1574.52           2153.01           
88650201         -2271.82           2129.28           
88650202         -1892.91           2154.05           
88650501         -1253.82           3879.22           
88650601         -1869.67           3693.79           
88650701         -2055.65           3565.48           
88650702         -2427.43           3359.60           
88651501         -1584.79           2558.13           
88651601         -1599.19           3857.14           
88651602         -1570.49           3349.95           
88651702         -2709.18           3633.42           
88652401         -1827.02           2558.79           
88652502         -2020.16           2558.45           
88652601         -1584.23           2944.70           
88653401         -2980.53           2564.42           
88653402         -2616.56           2546.83           
88653403         -2621.90           2133.71           
86648900         -3733.69           2973.89           

[MAP]
DIMENSIONS -4137.51 2129.28 -1253.82 3879.22
Units      None

[REPORT]
SUBCATCHMENTS ALL
NODES ALL
LINKS ALL
