;; SWMM5 .inp converted from XPSWMM .xp file
;; Generated by XPSWMM Card Reader
;; Source format: XP_CARD | Original title: Broward County NADA Study Model
;; Links parsed from source: 156 | Routable in this .inp: 69
;; NOTE: 3 link(s) dropped (missing endpoint): 52, 42, 55
;; NOTE: 87 link(s) classified Special (no conduit/pump/orifice/weir data — likely 2D-coupling or non-standard elements, excluded from routing): 284, 284_2, 284_3, 284_4, 217_2, 207, 207_2, 542, 543, 545, 548, 1004D23-10GW, 573, 542_2, 542_3, 573_2, 641, 641_2, 546, 641_3, 641_4, 544_2, 545_2, 544_3, 544_4, 551_2, 544_5, 233_2, 233_3, 217_3, 641_5, 553_2, 556_2, 557_2, 557_3, 567_2, 568_2, 568_3, 567_3, 566_2, 207_3, 565, 565_2, 233_4, 543_2, 564, 567_4, 569_3, 548_2, 549, 550_2, 555_2, 558, 559_2, 542_4, 558_2, 542_5, 543_3, 545_3, 546_4, 553_4, 556_3, 557_7, 231_2, 217_5, 568_4, 567_5, 569_4, 570_3, 565_3, 564_4, 566_3, 239_3, 573_3, 284_5, 230_4, 52, 544_7, 42, 641_6, 551_3, 55, 549_2, 550_3, 555_3, 217_6, 207_6

[TITLE]
;;Project Title/Notes
Broward County NADA Study Model

[OPTIONS]
FLOW_UNITS           CFS
INFILTRATION         HORTON
FLOW_ROUTING         DYNWAVE
LINK_OFFSETS         DEPTH
MIN_SLOPE            0.0
ALLOW_PONDING        NO
SKIP_STEADY_STATE    NO
ROUTING_STEP         01:00:00
VARIABLE_STEP        0.75
INERTIAL_DAMPING     NONE
NORMAL_FLOW_LIMITED  BOTH
MAX_TRIALS           50
START_DATE           01/01/2001
START_TIME           00:00:00
REPORT_START_DATE    01/01/2001
REPORT_START_TIME    00:00:00
END_DATE             01/02/2001
END_TIME             00:00:00
SWEEP_START          01/01
SWEEP_END            12/31
DRY_DAYS             0
REPORT_STEP          01:00:00
WET_STEP             01:00:00
DRY_STEP             01:00:00

[JUNCTIONS]
;;Name           Elev       MaxDepth   InitDepth  SurDepth   Aponded
;;-------------- ---------- ---------- ---------- ---------- ----------
495              0          0          0          0          0
596              16.00      0          0          0          0
597              16.00      0          0          0          0
598              16.00      0          0          0          0
599              16.00      0          0          0          0
600              16.00      0          0          0          0
601              16.00      0          0          0          0
602              16.00      0          0          0          0
604              16.00      0          0          0          0
605              16.00      0          0          0          0
G56H             16.00      0          0          0          0
607              16.00      0          0          0          0
608              16.00      0          0          0          0
609              16.00      0          0          0          0
610              16.00      0          0          0          0
612              17.00      0          0          0          0
S39_T            17.00      0          0          0          0
616              17.00      0          0          0          0
617              17.00      0          0          0          0
618              16.00      0          0          0          0
G56T             16.00      0          0          0          0
G-1260           16.00      0          0          0          0
621              16.00      0          0          0          0
622              16.00      0          0          0          0
G-1215           15.00      0          0          0          0
G-AVG            15.00      0          0          0          0
G-853            15.00      0          0          0          0
G56_T            16.00      0          0          0          0
628              16.00      0          0          0          0
G57H             16.00      0          0          0          0
D3-7             16.00      0          0          0          0
631              16.00      0          0          0          0
637              16.00      0          0          0          0
638              16.00      0          0          0          0
639              16.00      0          0          0          0
CM10_S           16.00      0          0          0          0
S37BH            16.00      0          0          0          0
642              16.00      0          0          0          0
643              16.00      0          0          0          0
644              16.00      0          0          0          0
645              15.00      0          0          0          0
647              15.00      0          0          0          0
S38AH            15.00      0          0          0          0
650              16.00      0          0          0          0
655              16.00      0          0          0          0
657              16.00      0          0          0          0
659              16.00      0          0          0          0
662              16.00      0          0          0          0
663              16.00      0          0          0          0
665              15.00      0          0          0          0
667              16.00      0          0          0          0
670              17.00      0          0          0          0
CH-Q             17.00      0          0          0          0
CM-4Q            16.00      0          0          0          0
CM-8Q            16.00      0          0          0          0
CSID-WQ          17.00      0          0          0          0
CSID-EQ          17.00      0          0          0          0
D2-1Q            17.00      0          0          0          0
D2-14Q           16.00      0          0          0          0
D2-2Q            17.00      0          0          0          0
D2-3Q            17.00      0          0          0          0
D2-5Q            17.00      0          0          0          0
D2-9Q            17.00      0          0          0          0
D3-1Q            17.00      0          0          0          0
D3-4Q            17.00      0          0          0          0
NSID-EQ          17.00      0          0          0          0
SDD-EQ           14.00      0          0          0          0
812              16.00      0          0          0          0
826              15.00      0          0          0          0
828              17.00      0          0          0          0
830              14.00      0          0          0          0
837              17.00      0          0          0          0
843              14.00      0          0          0          0
CS3-WEIR         0          0          0          0          0
CS40             3.00       0          0          0          0
HW_034PT-CS2     0          0          0          0          0
HW_44            0          0          0          0          0

[OUTFALLS]
;;Name           Elev       Type       Stage      Gated
;;-------------- ---------- ---------- ---------- -----
D2-7             14.00      FREE                  NO

[STORAGE]
;;Name           Elev       MaxDepth   InitDepth  Shape      Curve/Params
;;-------------- ---------- ---------- ---------- ---------- ----------
PT-N             17.00      10.00      10.00      FUNCTIONAL 1000.00 0          0
TRCB             15.00      10.00      10.00      FUNCTIONAL 1000.00 0          0
CM8              16.00      10.00      10.00      FUNCTIONAL 1000.00 0          0
CM6              16.00      10.00      10.00      FUNCTIONAL 1000.00 0          0
CM7              18.40      10.00      10.00      FUNCTIONAL 1000.00 0          0
CM2              16.00      10.00      10.00      FUNCTIONAL 1000.00 0          0
CM4              16.00      10.00      10.00      FUNCTIONAL 1000.00 0          0
CM5              16.00      10.00      10.00      FUNCTIONAL 1000.00 0          0
D2-1             16.00      10.00      10.00      FUNCTIONAL 1000.00 0          0
D2-2             16.00      10.00      10.00      FUNCTIONAL 1000.00 0          0
D2-3             16.00      10.00      10.00      FUNCTIONAL 1000.00 0          0
D2-4             16.00      10.00      10.00      FUNCTIONAL 1000.00 0          0
D2-5             16.00      10.00      10.00      FUNCTIONAL 1000.00 0          0
D2-8             15.50      10.00      10.00      FUNCTIONAL 1000.00 0          0
D2-12            16.00      10.00      10.00      FUNCTIONAL 1000.00 0          0
D2-11            16.00      10.00      10.00      FUNCTIONAL 1000.00 0          0
D2-10            16.00      10.00      10.00      FUNCTIONAL 1000.00 0          0
D2-14            16.00      10.00      10.00      FUNCTIONAL 1000.00 0          0
D2-13            16.00      10.00      10.00      FUNCTIONAL 1000.00 0          0
D3-2             15.00      10.00      10.00      FUNCTIONAL 1000.00 0          0
D3-1             16.00      10.00      10.00      FUNCTIONAL 1000.00 0          0
D3-3             16.00      10.00      10.00      FUNCTIONAL 1000.00 0          0
D3-4             16.00      10.00      10.00      FUNCTIONAL 1000.00 0          0
NSID-W           13.00      10.00      10.00      FUNCTIONAL 1000.00 0          0
CH               17.00      10.00      10.00      FUNCTIONAL 1000.00 0          0
NSID-E           17.00      10.00      10.00      FUNCTIONAL 1000.00 0          0
SDD-WEST         12.00      10.00      10.00      FUNCTIONAL 1000.00 0          0
SDD-E            14.00      10.00      10.00      FUNCTIONAL 1000.00 0          0
CSID-W           12.00      10.00      10.00      FUNCTIONAL 1000.00 0          0
CSID-E           12.00      10.00      10.00      FUNCTIONAL 1000.00 0          0
BC-1             16.00      10.00      10.00      FUNCTIONAL 1000.00 0          0
D2-9             16.00      10.00      10.00      FUNCTIONAL 1000.00 0          0
CM1              16.00      10.00      10.00      FUNCTIONAL 1000.00 0          0
D21SS            16.00      10.00      10.00      FUNCTIONAL 1000.00 0          0
D22SS            16.00      10.00      10.00      FUNCTIONAL 1000.00 0          0
D24SS            16.00      10.00      10.00      FUNCTIONAL 1000.00 0          0
D25SS            16.00      10.00      10.00      FUNCTIONAL 1000.00 0          0
D214SS           16.00      10.00      10.00      FUNCTIONAL 1000.00 0          0
D32SS            15.00      10.00      10.00      FUNCTIONAL 1000.00 0          0
D31SS            16.00      10.00      10.00      FUNCTIONAL 1000.00 0          0
CM6SS            16.00      10.00      10.00      FUNCTIONAL 1000.00 0          0
CM7SS            16.00      10.00      10.00      FUNCTIONAL 1000.00 0          0
TRCB_SS          15.00      10.00      10.00      FUNCTIONAL 1000.00 0          0
SDDE-SS          14.00      10.00      10.00      FUNCTIONAL 1000.00 0          0
SDDW-SS          12.00      10.00      10.00      FUNCTIONAL 1000.00 0          0
CSIDW-SS         12.00      10.00      10.00      FUNCTIONAL 1000.00 0          0
CSIDE-SS         12.00      10.00      10.00      FUNCTIONAL 1000.00 0          0
NSIDE-SS         17.00      10.00      10.00      FUNCTIONAL 1000.00 0          0
NSW-SS           13.00      10.00      10.00      FUNCTIONAL 1000.00 0          0
CHSS             17.00      10.00      10.00      FUNCTIONAL 1000.00 0          0
CM4SS            16.00      10.00      10.00      FUNCTIONAL 1000.00 0          0
CM2SS            16.00      10.00      10.00      FUNCTIONAL 1000.00 0          0
BC1SS            16.00      10.00      10.00      FUNCTIONAL 1000.00 0          0
CM5SS            16.00      10.00      10.00      FUNCTIONAL 1000.00 0          0
CM8SS            15.00      10.00      10.00      FUNCTIONAL 1000.00 0          0
D210SS           16.00      10.00      10.00      FUNCTIONAL 1000.00 0          0
D23SS            16.00      10.00      10.00      FUNCTIONAL 1000.00 0          0
D29SS            16.00      10.00      10.00      FUNCTIONAL 1000.00 0          0
D2-11SS          16.00      10.00      10.00      FUNCTIONAL 1000.00 0          0
D28SS            15.50      10.00      10.00      FUNCTIONAL 1000.00 0          0
D212SS           16.00      10.00      10.00      FUNCTIONAL 1000.00 0          0
D213SS           16.00      10.00      10.00      FUNCTIONAL 1000.00 0          0
PT-S             17.00      10.00      10.00      FUNCTIONAL 1000.00 0          0

[CONDUITS]
;;Name           From             To               Length     Roughness  InOffset   OutOffset  InitFlow   MaxFlow
;;-------------- ---------------- ---------------- ---------- ---------- ---------- ---------- ---------- ----------
551              D2-11            D2-12            1037.00    0.0120     5.00       5.00       0          0
557              D3-1             D3-3             220.00     0.0120     4.00       4.00       0          0
CH-O             CHSS             CH-Q             300.00     0.0120     0          0          0          0
CH-O_2           CM8SS            CM-8Q            300.00     0.0001     0          0          0          0
CH-O_3           CSIDE-SS         CSID-EQ          300.00     0.0001     0          0          0          0
CH-O_4           CSIDW-SS         CSID-WQ          300.00     0.0001     0          0          0          0
979              NSIDE-SS         NSID-EQ          300.00     0.0001     0          0          0          0
914.1            CM4SS            CM-4Q            300.00     0.0001     0          0          0          0
971              SDDE-SS          SDD-EQ           300.00     0.0001     0          0          0          0
940              D22SS            D2-2Q            300.00     0.0001     0          0          0          0
1007D29O         D29SS            D2-9Q            300.00     0.0001     0          0          0          0
938              D21SS            D2-1Q            300.00     0.0001     0          0          0          0
944              D25SS            D2-5Q            300.00     0.0001     0          0          0          0
1004D23-O        D23SS            D2-3Q            300.00     0.0001     0          0          0          0
952              D214SS           D2-14Q           300.00     0.0001     0          0          0          0
962              D31SS            D3-1Q            300.00     0.0001     0          0          0          0
559_3            D3-4             D3-4Q            300.00     0.0001     0          0          0          0
973              631              830              300.00     0.0001     0          0          0          0
969              644              843              300.00     0.0001     0          0          0          0

[WEIRS]
;;Name           From             To               Type       CrestHt    Qcoeff     Gated    EndCon   EndCoeff   Surcharge
;;-------------- ---------------- ---------------- ---------- ---------- ---------- -------- -------- ---------- ----------
207_4            PT-N             612              TRANSVERSE 11.00      1.840      NO       0        0          YES
242_2            CM4              597              TRANSVERSE 11.00      1.840      NO       0        0          YES
242_3            CM4              596              TRANSVERSE 11.00      1.840      NO       0        0          YES
544_6            D2-3             604              TRANSVERSE 10.00      1.840      NO       0        0          YES
230_2            CM8              638              TRANSVERSE 9.00       1.840      NO       0        0          YES
230_3            CM8              639              TRANSVERSE 9.00       1.840      NO       0        0          YES
233_5            CM7              S37BH            TRANSVERSE 9.00       1.840      NO       0        0          YES
233_6            CM7              642              TRANSVERSE 9.00       1.840      NO       0        0          YES
239_2            CM2              667              TRANSVERSE 11.00      1.840      NO       0        0          YES

[PUMPS]
;;Name           From             To               PumpCurve  Status   Startup    Shutoff
;;-------------- ---------------- ---------------- ---------- -------- ---------- ----------
239              CM2              609              PC_239     ON       12.50      10.50     
231              CM6              CM8              PC_231     ON       11.50      9.50      
230              CM8              637              PC_230     ON       10.50      9.00      
233              CM7              CM10_S           PC_233     ON       9.50       8.50      
217              TRCB             645              PC_217     ON       10.50      9.00      
242              CM4              598              PC_242     ON       12.50      10.50     
1034CS-50        PT-S             TRCB             PC_1034CS-50 ON       11.00      0         
544              D2-3             605              PC_544     ON       11.00      10.00     
CS2-P            D2-5             608              PC_CS2-P   ON       10.01      9.50      
CS3-PUMP         CS3-WEIR         D2-7             PC_CS3-PUMP ON       9.00       8.00      
550              D2-12            D2-8             PC_550     ON       9.00       8.50      
CS57PIPE         D2-10            D2-11            PC_CS57PIPE ON       11.01      9.50      
552              D2-10            D2-5             PC_552     ON       11.01      9.50      
553              CS40             D3-2             PC_553     ON       10.50      9.50      
CS9-P            D3-4             G56_T            PC_CS9-P   ON       9.01       7.49      
555              D2-13            D2-12            PC_555     ON       11.00      9.50      
CS12-P           D3-1             D3-7             PC_CS12-P  ON       15.00      8.00      
566              NSID-E           NSID-W           PC_566     ON       10.00      9.50      
568              SDD-E            663              PC_568     ON       9.00       7.00      
567              SDD-WEST         657              PC_567     ON       9.00       7.00      
569              CSID-W           655              PC_569     ON       9.00       6.50      
570              CSID-E           659              PC_570     ON       9.00       6.50      
546_2            D2-5             D2-11            PC_546_2   ON       9.50       9.00      
807              607              D2-5             PC_807     ON       9.50       8.00      
556              D3-2             D3-1             PC_556     ON       10.50      9.50      
810              610              CM1              PC_810     ON       12.50      0         
546_3            D2-5             618              PC_546_3   ON       10.01      9.50      
557_4            D3-1             631              PC_557_4   ON       10.00      8.00      
557_5            D3-1             G57H             PC_557_5   ON       10.00      8.00      
570_2            CSID-E           662              PC_570_2   ON       7.25       6.50      
569_2            CSID-W           650              PC_569_2   ON       7.25       6.50      
564_2            NSID-W           616              PC_564_2   ON       7.00       6.50      
559              D3-4             628              PC_559     ON       9.01       7.49      
217_4            TRCB             665              PC_217_4   ON       10.50      9.00      
564_3            NSID-W           670              PC_564_3   ON       7.00       6.50      
553_3            D2-14            D2-10            PC_553_3   ON       11.00      9.00      
557_6            D3-1             D3-4             PC_557_6   ON       10.50      9.00      
230_5            CM8              812              PC_230_5   ON       11.00      9.50      
207_5            PT-N             828              PC_207_5   ON       13.00      10.00     
034PT-CS2        HW_034PT-CS2     PT-N             PC_034PT-CS2 ON       12.00      10.00     
44               HW_44            D3-1             PC_44      ON       9.00       0         

[CURVES]
;;Name           Type       X-Value    Y-Value
;;-------------- ---------- ---------- ----------
;; Synthesized generic pump curves — replace with actual pump data
PC_239           Pump1      0          5
PC_239                      10         10
PC_231           Pump1      0          5
PC_231                      10         10
PC_230           Pump1      0          5
PC_230                      10         10
PC_233           Pump1      0          5
PC_233                      10         10
PC_217           Pump1      0          5
PC_217                      10         10
PC_242           Pump1      0          5
PC_242                      10         10
PC_1034CS-50     Pump1      0          5
PC_1034CS-50                10         10
PC_544           Pump1      0          5
PC_544                      10         10
PC_CS2-P         Pump1      0          5
PC_CS2-P                    10         10
PC_CS3-PUMP      Pump1      0          5
PC_CS3-PUMP                 10         10
PC_550           Pump1      0          5
PC_550                      10         10
PC_CS57PIPE      Pump1      0          5
PC_CS57PIPE                 10         10
PC_552           Pump1      0          5
PC_552                      10         10
PC_553           Pump1      0          5
PC_553                      10         10
PC_CS9-P         Pump1      0          5
PC_CS9-P                    10         10
PC_555           Pump1      0          5
PC_555                      10         10
PC_CS12-P        Pump1      0          5
PC_CS12-P                   10         10
PC_566           Pump1      0          5
PC_566                      10         10
PC_568           Pump1      0          5
PC_568                      10         10
PC_567           Pump1      0          5
PC_567                      10         10
PC_569           Pump1      0          5
PC_569                      10         10
PC_570           Pump1      0          5
PC_570                      10         10
PC_546_2         Pump1      0          5
PC_546_2                    10         10
PC_807           Pump1      0          5
PC_807                      10         10
PC_556           Pump1      0          5
PC_556                      10         10
PC_810           Pump1      0          5
PC_810                      10         10
PC_546_3         Pump1      0          5
PC_546_3                    10         10
PC_557_4         Pump1      0          5
PC_557_4                    10         10
PC_557_5         Pump1      0          5
PC_557_5                    10         10
PC_570_2         Pump1      0          5
PC_570_2                    10         10
PC_569_2         Pump1      0          5
PC_569_2                    10         10
PC_564_2         Pump1      0          5
PC_564_2                    10         10
PC_559           Pump1      0          5
PC_559                      10         10
PC_217_4         Pump1      0          5
PC_217_4                    10         10
PC_564_3         Pump1      0          5
PC_564_3                    10         10
PC_553_3         Pump1      0          5
PC_553_3                    10         10
PC_557_6         Pump1      0          5
PC_557_6                    10         10
PC_230_5         Pump1      0          5
PC_230_5                    10         10
PC_207_5         Pump1      0          5
PC_207_5                    10         10
PC_034PT-CS2     Pump1      0          5
PC_034PT-CS2                10         10
PC_44            Pump1      0          5
PC_44                       10         10

[XSECTIONS]
;;Link           Shape        Geom1      Geom2      Geom3      Geom4      Barrels
;;-------------- ------------ ---------- ---------- ---------- ---------- ----------
551              CIRCULAR     4.50       0          0          0          1
557              CIRCULAR     3.50       0          0          0          1
CH-O             CIRCULAR     0.60       0          0          0          1
CH-O_2           CIRCULAR     1.00       0          0          0          1
CH-O_3           CIRCULAR     1.50       0          0          0          1
CH-O_4           CIRCULAR     0.60       0          0          0          1
979              CIRCULAR     0.68       0          0          0          1
914.1            CIRCULAR     0.60       0          0          0          1
971              CIRCULAR     3.55       0          0          0          1
940              CIRCULAR     1.00       0          0          0          1
1007D29O         CIRCULAR     0.88       0          0          0          1
938              CIRCULAR     1.14       0          0          0          1
944              CIRCULAR     3.40       0          0          0          1
1004D23-O        CIRCULAR     0.50       0          0          0          1
952              CIRCULAR     0.38       0          0          0          1
962              CIRCULAR     0.47       0          0          0          1
559_3            CIRCULAR     0.38       0          0          0          1
973              CIRCULAR     3.55       0          0          0          1
969              CIRCULAR     3.55       0          0          0          1
207_4            RECT_OPEN    1.00       4.00       0          0
242_2            RECT_OPEN    1.00       3.00       0          0
242_3            RECT_OPEN    1.00       3.00       0          0
544_6            RECT_OPEN    1.00       18.00      0          0
230_2            RECT_OPEN    1.00       16.50      0          0
230_3            RECT_OPEN    1.00       16.50      0          0
233_5            RECT_OPEN    1.00       20.00      0          0
233_6            RECT_OPEN    1.00       20.00      0          0
239_2            RECT_OPEN    1.00       3.00       0          0

[LOSSES]
;;Link           Inlet      Outlet     Average    Flap Gate
;;-------------- ---------- ---------- ---------- ----------
551              0          0          0          NO
557              0          0          0          NO
CH-O             0          0          0          NO
CH-O_2           0          0          0          NO
CH-O_3           0          0          0          NO
CH-O_4           0          0          0          NO
979              0          0          0          NO
914.1            0          0          0          NO
971              0          0          0          NO
940              0          0          0          NO
1007D29O         0          0          0          NO
938              0          0          0          NO
944              0          0          0          NO
1004D23-O        0          0          0          NO
952              0          0          0          NO
962              0          0          0          NO
559_3            0          0          0          NO
973              0          0          0          NO
969              0          0          0          NO

[INFLOWS]
;;Node           Constituent  Time Series      Type     Mfactor  Sfactor  Baseline Pattern
;;-------------- ------------ ---------------- -------- -------- -------- -------- --------
;; SYNTHETIC TEST INFLOWS — the source .xp carried no constant inflows
;; and RUNF hydrology is not converted; 1.00 CFS is applied at each
;; headwater node so the network runs wet for QA. Replace with real
;; hydrology or inflow hydrographs before using results.
CM5              FLOW         ""               FLOW     1.0      1.0      1.00
CH               FLOW         ""               FLOW     1.0      1.0      1.00
D2-9             FLOW         ""               FLOW     1.0      1.0      1.00
607              FLOW         ""               FLOW     1.0      1.0      1.00
610              FLOW         ""               FLOW     1.0      1.0      1.00
CM4SS            FLOW         ""               FLOW     1.0      1.0      1.00
PT-S             FLOW         ""               FLOW     1.0      1.0      1.00
CS3-WEIR         FLOW         ""               FLOW     1.0      1.0      1.00
CS40             FLOW         ""               FLOW     1.0      1.0      1.00
HW_034PT-CS2     FLOW         ""               FLOW     1.0      1.0      1.00
HW_44            FLOW         ""               FLOW     1.0      1.0      1.00

[COORDINATES]
;;Node           X-Coord            Y-Coord
;;-------------- ------------------ ------------------
PT-N             -719836.84         759493.61         
TRCB             -705660.83         759802.05         
CM8              -695294.01         771148.61         
CM6              -702219.14         770923.96         
CM7              -699384.01         765038.50         
CM2              -721483.78         765740.84         
CM4              -717637.66         766731.34         
CM5              -709925.83         769382.24         
D2-1             -722418.50         774284.83         
D2-2             -721494.60         775345.43         
D2-3             -712786.78         776437.76         
D2-4             -722864.51         780372.87         
D2-5             -718385.02         783642.26         
D2-7             -723868.90         790568.74         
D2-8             -718240.23         789959.82         
D2-12            -713461.99         788450.29         
D2-11            -712629.50         783799.22         
D2-10            -713130.45         780930.70         
D2-14            -708437.51         782146.85         
D2-13            -707978.32         787587.40         
D3-2             -704398.55         782610.00         
D3-1             -700388.45         776626.09         
D3-3             -703153.93         786487.25         
D3-4             -698139.27         785105.13         
NSID-W           -715932.67         734842.89         
CH               -722504.84         753364.50         
NSID-E           -714163.45         748285.82         
SDD-WEST         -703944.42         734855.71         
SDD-E            -705677.13         748183.69         
CSID-W           -693816.40         735378.99         
CSID-E           -693560.05         745682.44         
BC-1             -717113.81         773706.62         
D2-9             -718584.27         775712.30         
495              -723505.79         748477.02         
CM1              -722311.16         763474.94         
596              -724943.99         771136.28         
597              -724952.20         771702.69         
598              -724965.81         772315.44         
599              -724983.90         773185.13         
600              -724933.47         774088.70         
601              -724916.51         774857.07         
602              -724989.89         775640.42         
604              -724983.91         778132.28         
605              -725013.95         778559.27         
G56H             -725006.32         780613.83         
607              -724976.57         783221.23         
608              -724963.92         784360.35         
609              -724848.92         766007.89         
610              -724846.56         763530.15         
612              -724825.83         760951.41         
S39_T            -727349.42         753373.02         
616              -717501.72         729639.60         
617              -714129.23         729625.05         
618              -724919.64         784863.56         
G56T             -725041.75         790350.61         
G-1260           -723644.58         793718.39         
621              -718139.69         793118.36         
622              -713788.44         792277.26         
G-1215           -708510.85         794295.04         
G-AVG            -703700.64         794684.55         
G-853            -696065.41         790632.83         
G56_T            -689297.81         786789.07         
628              -689390.75         788341.54         
G57H             -689024.86         773983.51         
D3-7             -688946.38         775533.92         
631              -688959.32         776647.86         
637              -689070.09         769418.36         
638              -689082.04         770858.26         
639              -689118.68         770341.30         
CM10_S           -688729.18         765545.53         
S37BH            -688957.87         767540.29         
642              -688891.26         763937.98         
643              -688670.63         761969.87         
644              -688861.11         763056.65         
645              -688355.98         758066.88         
647              -705344.48         729731.96         
S38AH            -691809.59         729912.32         
650              -688367.52         732213.65         
655              -688069.39         736292.06         
657              -688102.20         739982.94         
659              -688461.65         743377.48         
662              -688378.75         746928.62         
663              -688674.76         750969.42         
665              -688699.59         755900.66         
667              -724836.21         767128.43         
670              -722581.88         729766.33         
CH-Q             -725716.30         752113.40         
CM-4Q            -717749.27         764372.45         
CM-8Q            -696991.92         774363.64         
CSID-WQ          -697179.08         731451.51         
CSID-EQ          -694377.15         749629.23         
D2-1Q            -723228.55         773327.72         
D2-14Q           -708050.28         780283.03         
D2-2Q            -721896.00         776327.77         
D2-3Q            -712793.61         774292.11         
D2-5Q            -721426.93         786525.91         
D2-9Q            -719895.16         773790.88         
D3-1Q            -698622.82         779863.38         
D3-4Q            -695780.76         783977.87         
NSID-EQ          -715923.28         750270.04         
SDD-EQ           -705037.50         744990.89         
D21SS            -722320.78         773421.42         
D22SS            -720418.91         776764.22         
D24SS            -721595.61         779417.62         
D25SS            -717078.31         785316.47         
D214SS           -706237.66         780457.37         
D32SS            -704754.49         784862.44         
D31SS            -697389.08         778778.54         
CM6SS            -699767.18         769475.21         
CM7SS            -697276.23         762799.74         
TRCB_SS          -703283.51         757147.05         
SDDE-SS          -702907.64         745844.77         
SDDW-SS          -706051.77         733232.43         
CSIDW-SS         -694142.72         732875.87         
CSIDE-SS         -691777.67         747446.17         
NSIDE-SS         -716828.57         747719.91         
NSW-SS           -712580.56         739086.19         
CHSS             -722997.39         752234.43         
CM4SS            -711423.60         764413.26         
CM2SS            -721387.20         767300.85         
BC1SS            -715029.34         773537.05         
CM5SS            -707857.71         771337.04         
CM8SS            -694833.71         772855.02         
D210SS           -711538.69         780014.10         
D23SS            -711185.40         774973.43         
D29SS            -719089.38         773816.53         
D2-11SS          -711830.89         784510.70         
812              -689034.38         768897.93         
D28SS            -716950.92         788652.59         
D212SS           -711112.12         785849.70         
D213SS           -706858.92         786295.35         
826              -689044.39         759849.57         
828              -725456.53         759004.49         
830              -708415.48         732205.54         
PT-S             -714141.00         759803.06         
837              -725283.96         759989.11         
843              -706282.96         756981.79         

[MAP]
DIMENSIONS -727349.42 729625.05 -688069.39 794684.55
Units      None

[REPORT]
SUBCATCHMENTS ALL
NODES ALL
LINKS ALL
