;; SWMM5 .inp converted from XPSWMM .xp file
;; Generated by XPSWMM Card Reader
;; Source format: XP_CARD | Original title: Broward County NADA Study Model
;; Links parsed from source: 101 | Routable in this .inp: 47
;; NOTE: 54 link(s) classified Special (no conduit/pump/orifice/weir data — likely 2D-coupling or non-standard elements, excluded from routing): CM2-4_GW, CM4-5_GW, CM5-6_GW, CM5-TR_CL, CM5-7_GW, TR-CM7_GW, CM4-PT_GW, CM2-PT_GW, D21-HC_GW, D22-WEIR, D24-5_GW, CS47-WEIR, D3-10GW, BC1-D23_GW, D214-D32GW, NSW-NSE_GW, D21-D22_GW, D21-C4_GW, BC1-C4_GW, D29-BC1_GW, D22-29_GW, D25-D28_GW, D29-3_GW, D21-9_GW, D22-3_GW, D24-HC_GW, D23-4_GW, D23-5_GW, D11-14_GW, D23-CM4_GW, C7-9_GW, C7-TOC14GW, TR-S2_GW, D29-CM4_GW, D214-13GW, D215-D31GW, D32-3_GW, D31-4_GW, D31-CM6_GW, D31-CM8-GW, S2BK-FLW, CSE-SE_GW, SE-SW_GW, CSE-SE_GW_2, SW-NSW_GW, SE-NSE_GW, NSE-PT_GW, CH-PT_GW, CH-WEIR, CM7-C14_GW, D2-HC_GW, NS-L36_GW, SW-L36_GW, CSW-L36_GW

[TITLE]
;;Project Title/Notes
Broward County NADA Study Model

[OPTIONS]
FLOW_UNITS           CFS
INFILTRATION         HORTON
FLOW_ROUTING         DYNWAVE
LINK_OFFSETS         DEPTH
MIN_SLOPE            0.0
ALLOW_PONDING        NO
SKIP_STEADY_STATE    NO
ROUTING_STEP         01:00:00
VARIABLE_STEP        0.75
INERTIAL_DAMPING     NONE
NORMAL_FLOW_LIMITED  BOTH
MAX_TRIALS           50
START_DATE           01/01/2001
START_TIME           00:00:00
REPORT_START_DATE    01/01/2001
REPORT_START_TIME    00:00:00
END_DATE             01/02/2001
END_TIME             00:00:00
SWEEP_START          01/01
SWEEP_END            12/31
DRY_DAYS             0
REPORT_STEP          01:00:00
WET_STEP             01:00:00
DRY_STEP             01:00:00

[JUNCTIONS]
;;Name           Elev       MaxDepth   InitDepth  SurDepth   Aponded
;;-------------- ---------- ---------- ---------- ---------- ----------
CM9-STG          15.00      0          0          0          0
PT-STG1          0          0          0          0          0
CM2-STG          0          0          0          0          0
CM10-STG         14.00      0          0          0          0
CM4-STG          0          0          0          0          0
TOC14            0          0          0          0          0
D2-3             16.00      0          0          0          0
D2-1STG          0          0          0          0          0
D2-2STG          0          0          0          0          0
D2-3_STG         0          0          0          0          0
CS-W_STG         0          0          0          0          0
CS-E_STG         12.00      0          0          0          0
D2-7_STG         0          0          0          0          0
D2-5_STG         0          0          0          0          0
S-W_STG          12.00      0          0          0          0
S2_STG           14.00      0          0          0          0
451              0          0          0          0          0
456              0          0          0          0          0
482              14.00      0          0          0          0
495              0          0          0          0          0
S39-T            0          0          0          0          0
G56-H            0          0          0          0          0
S37B-H           14.00      0          0          0          0
513              0          0          0          0          0
517              0          0          0          0          0
520              0          0          0          0          0
522              0          0          0          0          0
524              0          0          0          0          0
525              0          0          0          0          0
538              0          0          0          0          0
548              15.00      0          0          0          0
550              0          0          0          0          0
552              0          0          0          0          0
554              15.00      0          0          0          0
555              15.00      0          0          0          0
560              0          0          0          0          0
561              0          0          0          0          0
562              0          0          0          0          0
566              0          0          0          0          0
570              14.00      0          0          0          0
571              14.00      0          0          0          0
CS46-WEIR        0          0          0          0          0
CS34-BLEED       0          0          0          0          0
CS34-WEIR        0          0          0          0          0
TR-C14_GW        0          0          0          0          0
CM6-7_GW         0          0          0          0          0
PT-TR_GW         0          0          0          0          0
CS3-WEIR         0          0          0          0          0
D210-11_GW       0          0          0          0          0
CS57-PIPE        0          0          0          0          0
D211-12_GW       5.00       0          0          0          0
D25-10_GW        0          0          0          0          0
CS35-P           0          0          0          0          0
CS52-BLEED       0          0          0          0          0
CS8-WEIR         0          0          0          0          0
CS36_RECH        0          0          0          0          0
D29-D23GW        0          0          0          0          0
D31-3_GW         4.00       0          0          0          0
CS40_PIPE        4.00       0          0          0          0
PT-HC_GW         0          0          0          0          0
CS45-WEIR        0          0          0          0          0
CM4-HC_GW        0          0          0          0          0
D2-HC_GW         0          0          0          0          0
CS1-W            0          0          0          0          0
D23-HC_GW        0          0          0          0          0
D25-HC_GW        0          0          0          0          0
CS12-WEIR        0          0          0          0          0
D31-C14_GW       0          0          0          0          0
CSE-C14_GW       0          0          0          0          0
CSW-C14_GW       0          0          0          0          0
CS11-WEIR        0          0          0          0          0
CM8-9_GW         0          0          0          0          0
NS-P2            0          0          0          0          0
CS9-WEIR         0          0          0          0          0
CS49-WEIR        0          0          0          0          0
CM7-10_GW        0          0          0          0          0

[OUTFALLS]
;;Name           Elev       Type       Stage      Gated
;;-------------- ---------- ---------- ---------- -----
TRCB             15.00      FREE                  NO

[STORAGE]
;;Name           Elev       MaxDepth   InitDepth  Shape      Curve/Params
;;-------------- ---------- ---------- ---------- ---------- ----------
PT               17.00      10.00      10.00      FUNCTIONAL 1000.00 0          0
CM8              15.00      10.00      10.00      FUNCTIONAL 1000.00 0          0
CM6              16.00      10.00      10.00      FUNCTIONAL 1000.00 0          0
CM7              16.00      10.00      10.00      FUNCTIONAL 1000.00 0          0
CM2              16.00      10.00      10.00      FUNCTIONAL 1000.00 0          0
CM4              16.00      10.00      10.00      FUNCTIONAL 1000.00 0          0
CM5              16.00      10.00      10.00      FUNCTIONAL 1000.00 0          0
D2-1             16.00      10.00      10.00      FUNCTIONAL 1000.00 0          0
D2-2             16.00      10.00      10.00      FUNCTIONAL 1000.00 0          0
D2-4             16.00      10.00      10.00      FUNCTIONAL 1000.00 0          0
D2-5             16.00      10.00      10.00      FUNCTIONAL 1000.00 0          0
D2-7             14.00      10.00      10.00      FUNCTIONAL 1000.00 0          0
D2-8             15.50      10.00      10.00      FUNCTIONAL 1000.00 0          0
D2-12            16.00      10.00      10.00      FUNCTIONAL 1000.00 0          0
D2-11            16.00      10.00      10.00      FUNCTIONAL 1000.00 0          0
D2-10            16.00      10.00      10.00      FUNCTIONAL 1000.00 0          0
D2-14            16.00      10.00      10.00      FUNCTIONAL 1000.00 0          0
D2-15            16.00      10.00      10.00      FUNCTIONAL 1000.00 0          0
D2-13            16.00      10.00      10.00      FUNCTIONAL 1000.00 0          0
D3-2             15.00      10.00      10.00      FUNCTIONAL 1000.00 0          0
D3-1             16.00      10.00      10.00      FUNCTIONAL 1000.00 0          0
D3-3             16.00      10.00      10.00      FUNCTIONAL 1000.00 0          0
D3-4             14.00      10.00      10.00      FUNCTIONAL 1000.00 0          0
D3-7             14.00      10.00      10.00      FUNCTIONAL 1000.00 0          0
D3-5_STG         13.50      10.00      10.00      FUNCTIONAL 1000.00 0          0
NSID-W           13.00      10.00      10.00      FUNCTIONAL 1000.00 0          0
CH               17.00      10.00      10.00      FUNCTIONAL 1000.00 0          0
NSID-E           17.00      10.00      10.00      FUNCTIONAL 1000.00 0          0
SDD-WEST         12.00      10.00      10.00      FUNCTIONAL 1000.00 0          0
SDD-EAST         14.00      10.00      10.00      FUNCTIONAL 1000.00 0          0
CSID-WEST        12.00      10.00      10.00      FUNCTIONAL 1000.00 0          0
CSID-EAST        12.00      10.00      10.00      FUNCTIONAL 1000.00 0          0
BC-1             16.00      10.00      10.00      FUNCTIONAL 1000.00 0          0
D2-9             16.00      10.00      10.00      FUNCTIONAL 1000.00 0          0
CM1              16.00      10.00      10.00      FUNCTIONAL 1000.00 0          0
544              14.00      10.00      10.00      FUNCTIONAL 1000.00 0          0
545              14.00      10.00      10.00      FUNCTIONAL 1000.00 0          0
568              13.50      10.00      10.00      FUNCTIONAL 1000.00 0          0

[CONDUITS]
;;Name           From             To               Length     Roughness  InOffset   OutOffset  InitFlow   MaxFlow
;;-------------- ---------------- ---------------- ---------- ---------- ---------- ---------- ---------- ----------
CM_Lyons1        CM6-7_GW         CM7              259.00     0.0120     0          0          0          0
CM_Lyons2        CM8              CM7              140.00     0.0140     0          0          0          0
CS37-PIPE        D211-12_GW       D2-12            1037.00    0.0120     5.00       5.00       0          0
D3_MT-PIPE       D31-3_GW         D3-3             220.00     0.0120     4.00       4.00       0          0
D31-2_GW         CS40_PIPE        D3-1             4103.00    0.0120     4.00       4.00       0          0

[WEIRS]
;;Name           From             To               Type       CrestHt    Qcoeff     Gated    EndCon   EndCoeff   Surcharge
;;-------------- ---------------- ---------------- ---------- ---------- ---------- -------- -------- ---------- ----------
PT_GW            PT-HC_GW         513              TRANSVERSE 11.00      1.840      NO       0        0          YES
CS45-W           CS45-WEIR        517              TRANSVERSE 11.00      1.840      NO       0        0          YES
CM4-CH_GW        CM4              CM4-HC_GW        TRANSVERSE 11.00      1.840      NO       0        0          YES
CS1-W            CS1-W            524              TRANSVERSE 10.00      1.840      NO       0        0          YES
D23-HC-GW        D2-3             D23-HC_GW        TRANSVERSE 10.00      1.840      NO       0        0          YES
CS11-W           CS11-WEIR        554              TRANSVERSE 9.00       1.840      NO       0        0          YES
CS49-WEIR        CM7              CS49-WEIR        TRANSVERSE 9.00       1.840      NO       0        0          YES
CM7-10_GW        CM7-10_GW        571              TRANSVERSE 9.00       1.840      NO       0        0          YES

[PUMPS]
;;Name           From             To               PumpCurve  Status   Startup    Shutoff
;;-------------- ---------------- ---------------- ---------- -------- ---------- ----------
PT-P             PT               PT-STG1          PC_PT-P    ON       11.00      9.50      
CS-46            CS46-WEIR        CM2-STG          PC_CS-46   ON       12.50      10.50     
CS34-PUMP        CS34-BLEED       CS34-WEIR        PC_CS34-PUMP ON       11.50      9.50      
CS11-P           CM8              CM9-STG          PC_CS11-P  ON       10.50      8.99      
CS49-P           CM7              CM10-STG         PC_CS49-P  ON       9.50       8.50      
CS-7             TR-C14_GW        TOC14            PC_CS-7    ON       10.50      9.00      
CS45-P           CM4              CM4-STG          PC_CS45-P  ON       12.50      10.50     
CS50-P           PT-TR_GW         TRCB             PC_CS50-P  ON       11.00      10.00     
CS1-P            D2-3             D2-3_STG         PC_CS1-P   ON       11.00      10.00     
CS2-P            D2-5             D2-5_STG         PC_CS2-P   ON       10.01      9.50      
CS3-PUMP         CS3-WEIR         D2-7             PC_CS3-PUMP ON       9.00       8.00      
CS4-PUMP         D2-12            D2-8             PC_CS4-PUMP ON       9.00       8.50      
CS36-FC2         D210-11_GW       CS57-PIPE        PC_CS36-FC2 ON       11.01      9.50      
CS36-FC1         D25-10_GW        D2-5             PC_CS36-FC1 ON       11.01      9.50      
D10-14_GW        CS35-P           D2-14            PC_D10-14_GW ON       11.00      9.00      
CS9-P            D3-4             D3-5_STG         PC_CS9-P   ON       9.01       7.49      
CS52-P           CS52-BLEED       D2-12            PC_CS52-P  ON       11.00      9.50      
CS8-PUMP         CS8-WEIR         D3-4             PC_CS8-PUMP ON       10.50      9.00      
CS12-P           D3-1             D3-7             PC_CS12-P  ON       10.00      8.00      
SE-P             SDD-EAST         S2_STG           PC_SE-P    ON       7.75       7.25      
SW-P             SDD-WEST         S-W_STG          PC_SW-P    ON       7.75       7.25      
CSW-P            CSID-WEST        CS-W_STG         PC_CSW-P   ON       7.25       6.50      
CSE-PUMP         CSID-EAST        CS-E_STG         PC_CSE-PUMP ON       7.25       6.50      
D25-11_GW        CS36_RECH        D2-11            PC_D25-11_GW ON       27.00      26.00     
CS2-RECH         D2-5             451              PC_CS2-RECH ON       9.00       4.00      
FP1              G56-H            CM1              PC_FP1     ON       11.00      9.50      
D25-HC_GW        D25-HC_GW        538              PC_D25-HC_GW ON       10.01      9.50      
CS12-WEIR        CS12-WEIR        544              PC_CS12-WEIR ON       10.00      8.00      
D31-C14_GW       D3-1             D31-C14_GW       PC_D31-C14_GW ON       10.00      8.00      
CSE-C14_GW       CSE-C14_GW       550              PC_CSE-C14_GW ON       7.25       6.50      
CSW-C14_GW       CSW-C14_GW       552              PC_CSW-C14_GW ON       7.25       6.50      
CM8-9_GW         CM8              CM8-9_GW         PC_CM8-9_GW ON       10.50      8.99      
NS-P1            NS-P2            566              PC_NS-P1   ON       7.00       6.50      
CS9-WEIR         CS9-WEIR         568              PC_CS9-WEIR ON       9.01       7.49      

[CURVES]
;;Name           Type       X-Value    Y-Value
;;-------------- ---------- ---------- ----------
;; Synthesized generic pump curves — replace with actual pump data
PC_PT-P          Pump1      0          5
PC_PT-P                     10         10
PC_CS-46         Pump1      0          5
PC_CS-46                    10         10
PC_CS34-PUMP     Pump1      0          5
PC_CS34-PUMP                10         10
PC_CS11-P        Pump1      0          5
PC_CS11-P                   10         10
PC_CS49-P        Pump1      0          5
PC_CS49-P                   10         10
PC_CS-7          Pump1      0          5
PC_CS-7                     10         10
PC_CS45-P        Pump1      0          5
PC_CS45-P                   10         10
PC_CS50-P        Pump1      0          5
PC_CS50-P                   10         10
PC_CS1-P         Pump1      0          5
PC_CS1-P                    10         10
PC_CS2-P         Pump1      0          5
PC_CS2-P                    10         10
PC_CS3-PUMP      Pump1      0          5
PC_CS3-PUMP                 10         10
PC_CS4-PUMP      Pump1      0          5
PC_CS4-PUMP                 10         10
PC_CS36-FC2      Pump1      0          5
PC_CS36-FC2                 10         10
PC_CS36-FC1      Pump1      0          5
PC_CS36-FC1                 10         10
PC_D10-14_GW     Pump1      0          5
PC_D10-14_GW                10         10
PC_CS9-P         Pump1      0          5
PC_CS9-P                    10         10
PC_CS52-P        Pump1      0          5
PC_CS52-P                   10         10
PC_CS8-PUMP      Pump1      0          5
PC_CS8-PUMP                 10         10
PC_CS12-P        Pump1      0          5
PC_CS12-P                   10         10
PC_SE-P          Pump1      0          5
PC_SE-P                     10         10
PC_SW-P          Pump1      0          5
PC_SW-P                     10         10
PC_CSW-P         Pump1      0          5
PC_CSW-P                    10         10
PC_CSE-PUMP      Pump1      0          5
PC_CSE-PUMP                 10         10
PC_D25-11_GW     Pump1      0          5
PC_D25-11_GW                10         10
PC_CS2-RECH      Pump1      0          5
PC_CS2-RECH                 10         10
PC_FP1           Pump1      0          5
PC_FP1                      10         10
PC_D25-HC_GW     Pump1      0          5
PC_D25-HC_GW                10         10
PC_CS12-WEIR     Pump1      0          5
PC_CS12-WEIR                10         10
PC_D31-C14_GW    Pump1      0          5
PC_D31-C14_GW               10         10
PC_CSE-C14_GW    Pump1      0          5
PC_CSE-C14_GW               10         10
PC_CSW-C14_GW    Pump1      0          5
PC_CSW-C14_GW               10         10
PC_CM8-9_GW      Pump1      0          5
PC_CM8-9_GW                 10         10
PC_NS-P1         Pump1      0          5
PC_NS-P1                    10         10
PC_CS9-WEIR      Pump1      0          5
PC_CS9-WEIR                 10         10

[XSECTIONS]
;;Link           Shape        Geom1      Geom2      Geom3      Geom4      Barrels
;;-------------- ------------ ---------- ---------- ---------- ---------- ----------
CM_Lyons1        CIRCULAR     5.00       0          0          0          1
CM_Lyons2        CIRCULAR     4.00       0          0          0          1
CS37-PIPE        CIRCULAR     4.50       0          0          0          1
D3_MT-PIPE       CIRCULAR     3.50       0          0          0          1
D31-2_GW         CIRCULAR     4.50       0          0          0          1
PT_GW            RECT_OPEN    1.00       4.00       0          0
CS45-W           RECT_OPEN    1.00       3.00       0          0
CM4-CH_GW        RECT_OPEN    1.00       3.00       0          0
CS1-W            RECT_OPEN    1.00       18.00      0          0
D23-HC-GW        RECT_OPEN    1.00       18.00      0          0
CS11-W           RECT_OPEN    1.00       16.50      0          0
CS49-WEIR        RECT_OPEN    1.00       20.00      0          0
CM7-10_GW        RECT_OPEN    1.00       20.00      0          0

[LOSSES]
;;Link           Inlet      Outlet     Average    Flap Gate
;;-------------- ---------- ---------- ---------- ----------
CM_Lyons1        0          0          0          NO
CM_Lyons2        0          0          0          NO
CS37-PIPE        0          0          0          NO
D3_MT-PIPE       0          0          0          NO
D31-2_GW         0          0          0          NO

[INFLOWS]
;;Node           Constituent  Time Series      Type     Mfactor  Sfactor  Baseline Pattern
;;-------------- ------------ ---------------- -------- -------- -------- -------- --------
;; SYNTHETIC TEST INFLOWS — the source .xp carried no constant inflows
;; and RUNF hydrology is not converted; 1.00 CFS is applied at each
;; headwater node so the network runs wet for QA. Replace with real
;; hydrology or inflow hydrographs before using results.
CM5              FLOW         ""               FLOW     1.0      1.0      1.00
D2-15            FLOW         ""               FLOW     1.0      1.0      1.00
CH               FLOW         ""               FLOW     1.0      1.0      1.00
NSID-E           FLOW         ""               FLOW     1.0      1.0      1.00
D2-9             FLOW         ""               FLOW     1.0      1.0      1.00
482              FLOW         ""               FLOW     1.0      1.0      1.00
G56-H            FLOW         ""               FLOW     1.0      1.0      1.00
CS46-WEIR        FLOW         ""               FLOW     1.0      1.0      1.00
CS34-BLEED       FLOW         ""               FLOW     1.0      1.0      1.00
TR-C14_GW        FLOW         ""               FLOW     1.0      1.0      1.00
CM6-7_GW         FLOW         ""               FLOW     1.0      1.0      1.00
PT-TR_GW         FLOW         ""               FLOW     1.0      1.0      1.00
CS3-WEIR         FLOW         ""               FLOW     1.0      1.0      1.00
D210-11_GW       FLOW         ""               FLOW     1.0      1.0      1.00
D211-12_GW       FLOW         ""               FLOW     1.0      1.0      1.00
D25-10_GW        FLOW         ""               FLOW     1.0      1.0      1.00
CS35-P           FLOW         ""               FLOW     1.0      1.0      1.00
CS52-BLEED       FLOW         ""               FLOW     1.0      1.0      1.00
CS8-WEIR         FLOW         ""               FLOW     1.0      1.0      1.00
CS36_RECH        FLOW         ""               FLOW     1.0      1.0      1.00
D29-D23GW        FLOW         ""               FLOW     1.0      1.0      1.00
D31-3_GW         FLOW         ""               FLOW     1.0      1.0      1.00
CS40_PIPE        FLOW         ""               FLOW     1.0      1.0      1.00
PT-HC_GW         FLOW         ""               FLOW     1.0      1.0      1.00
CS45-WEIR        FLOW         ""               FLOW     1.0      1.0      1.00
D2-HC_GW         FLOW         ""               FLOW     1.0      1.0      1.00
CS1-W            FLOW         ""               FLOW     1.0      1.0      1.00
D25-HC_GW        FLOW         ""               FLOW     1.0      1.0      1.00
CS12-WEIR        FLOW         ""               FLOW     1.0      1.0      1.00
CSE-C14_GW       FLOW         ""               FLOW     1.0      1.0      1.00
CSW-C14_GW       FLOW         ""               FLOW     1.0      1.0      1.00
CS11-WEIR        FLOW         ""               FLOW     1.0      1.0      1.00
NS-P2            FLOW         ""               FLOW     1.0      1.0      1.00
CS9-WEIR         FLOW         ""               FLOW     1.0      1.0      1.00
CM7-10_GW        FLOW         ""               FLOW     1.0      1.0      1.00

[COORDINATES]
;;Node           X-Coord            Y-Coord
;;-------------- ------------------ ------------------
PT               -715819.63         758530.04         
TRCB             -705657.20         759727.61         
CM9-STG          -689065.71         770184.98         
CM8              -695736.53         771532.77         
CM6              -702165.08         771001.84         
CM7              -699595.70         765196.77         
CM2              -721544.45         766160.31         
CM4              -714869.95         768091.12         
CM5              -710164.44         767194.82         
PT-STG1          -724935.73         760133.75         
CM2-STG          -725016.62         766550.06         
CM10-STG         -688980.46         766567.63         
CM4-STG          -724413.26         771768.86         
TOC14            -694961.43         756808.25         
D2-1             -722530.42         773805.46         
D2-2             -721009.54         776087.81         
D2-3             -713038.81         776664.81         
D2-4             -723041.89         780673.88         
D2-5             -718923.37         784116.22         
D2-7             -723372.03         790412.15         
D2-8             -718407.68         790366.34         
D2-12            -713861.67         788847.38         
D2-11            -711998.64         783727.68         
D2-10            -712894.01         780649.85         
D2-14            -707607.83         781583.81         
D2-15            -707731.49         775388.84         
D2-13            -708020.51         787835.90         
D3-2             -704347.83         783891.72         
D3-1             -700138.11         777162.07         
D3-3             -702041.58         786040.58         
D3-4             -695097.25         784928.17         
D3-7             -689104.56         775548.11         
D3-5_STG         -689245.07         786573.89         
NSID-W           -716544.13         735148.98         
CH               -722754.77         753377.52         
NSID-E           -714224.64         748321.88         
SDD-WEST         -704967.38         735058.78         
SDD-EAST         -704792.60         748443.88         
CSID-WEST        -693742.23         735442.18         
CSID-EAST        -693450.93         745557.19         
BC-1             -716502.52         773740.94         
D2-1STG          -724911.66         773816.70         
D2-2STG          -726549.70         775423.86         
D2-3_STG         -725062.67         778338.03         
CS-W_STG         -688441.10         734742.17         
CS-E_STG         -688592.02         745167.96         
D2-7_STG         -725929.86         790409.33         
D2-5_STG         -725623.91         784098.63         
S-W_STG          -688544.32         740454.57         
S2_STG           -688450.49         751459.69         
D2-9             -718754.90         775771.81         
451              -724995.33         783848.76         
456              -725024.75         780713.50         
482              -688718.02         754186.81         
495              -723505.79         748477.02         
CM1              -722005.72         763358.40         
S39-T            -729757.26         753547.63         
G56-H            -729316.12         763390.04         
S37B-H           -688910.43         764290.81         
513              -726209.75         758024.89         
517              -724959.38         771448.03         
520              -726130.27         771096.28         
522              -725832.34         775119.49         
524              -725090.77         777962.67         
525              -725557.29         777699.22         
538              -726588.92         784502.35         
544              -689114.04         775746.42         
545              -689110.29         775307.76         
548              -688867.02         762968.64         
550              -688649.35         746521.89         
552              -688446.75         734258.46         
554              -689127.35         770532.47         
555              -688915.22         770773.66         
560              -693396.32         729803.53         
561              -704996.46         729967.87         
562              -714866.62         729969.32         
566              -720089.12         729140.35         
568              -689210.01         785877.04         
570              -688991.15         766875.67         
571              -689041.62         767332.20         

[MAP]
DIMENSIONS -729757.26 729140.35 -688441.10 790412.15
Units      None

[REPORT]
SUBCATCHMENTS ALL
NODES ALL
LINKS ALL
