;; SWMM5 .inp converted from XPSWMM .xp file
;; Generated by XPSWMM Card Reader
;; Source format: XP_CARD | Original title: SCS Distrubution Test
;; Links parsed from source: 6 | Routable in this .inp: 6

[TITLE]
;;Project Title/Notes
SCS Distrubution Test

[OPTIONS]
FLOW_UNITS           CFS
INFILTRATION         HORTON
FLOW_ROUTING         DYNWAVE
LINK_OFFSETS         DEPTH
MIN_SLOPE            0.0
ALLOW_PONDING        NO
SKIP_STEADY_STATE    NO
ROUTING_STEP         00:05:00
VARIABLE_STEP        0.75
INERTIAL_DAMPING     PARTIAL
NORMAL_FLOW_LIMITED  BOTH
MAX_TRIALS           50
HEAD_TOLERANCE       0.0033
START_DATE           01/01/2001
START_TIME           00:00:00
REPORT_START_DATE    01/01/2001
REPORT_START_TIME    00:00:00
END_DATE             01/02/2001
END_TIME             00:00:00
SWEEP_START          01/01
SWEEP_END            12/31
DRY_DAYS             0
REPORT_STEP          00:15:00
WET_STEP             00:05:00
DRY_STEP             01:00:00

[JUNCTIONS]
;;Name           Elev       MaxDepth   InitDepth  SurDepth   Aponded
;;-------------- ---------- ---------- ---------- ---------- ----------
upstream         770.00     0          0          0          0
Lower            746.00     0          0          0          0
MH               750.00     0          0          0          0

[OUTFALLS]
;;Name           Elev       Type       Stage      Gated
;;-------------- ---------- ---------- ---------- -----
Outlet           750.00     FREE                  NO

[STORAGE]
;;Name           Elev       MaxDepth   InitDepth  Shape      Curve/Params
;;-------------- ---------- ---------- ---------- ---------- ----------
Split            757.00     10.00      0          FUNCTIONAL 0.02 0          0
Upper            753.00     10.00      7.00       FUNCTIONAL 1000.00 0          0

[CONDUITS]
;;Name           From             To               Length     Roughness  InOffset   OutOffset  InitFlow   MaxFlow
;;-------------- ---------------- ---------------- ---------- ---------- ---------- ---------- ---------- ----------
Main             upstream         Split            612.00     0.0120     756.20     747.00     0          0
Diversion        Split            Upper            60.00      0.0120     745.53     745.00     0          0
Up               Upper            Lower            150.00     0.0120     745.00     743.50     0          0
Low              Lower            MH               150.00     0.0120     741.75     741.00     0          0
Cont             MH               Outlet           300.00     0.0120     737.00     732.00     0          0

[WEIRS]
;;Name           From             To               Type       CrestHt    Qcoeff     Gated    EndCon   EndCoeff   Surcharge
;;-------------- ---------------- ---------------- ---------- ---------- ---------- -------- -------- ---------- ----------
rpc              Split            MH               TRANSVERSE 750.30     1.840      NO       0        0          YES

[XSECTIONS]
;;Link           Shape        Geom1      Geom2      Geom3      Geom4      Barrels
;;-------------- ------------ ---------- ---------- ---------- ---------- ----------
Main             CIRCULAR     5.00       0          0          0          1
Diversion        CIRCULAR     3.00       0          0          0          1
Up               CIRCULAR     2.00       0          0          0          1
Low              CIRCULAR     2.00       0          0          0          2
Cont             CIRCULAR     5.50       0          0          0          1
rpc              RECT_OPEN    1.00       5.50       0          0

[LOSSES]
;;Link           Inlet      Outlet     Average    Flap Gate
;;-------------- ---------- ---------- ---------- ----------
Main             0          0          0          NO
Diversion        0          0          0          NO
Up               0          0          0          NO
Low              0          0          0          NO
Cont             0          0          0          NO

[INFLOWS]
;;Node           Constituent  Time Series      Type     Mfactor  Sfactor  Baseline Pattern
;;-------------- ------------ ---------------- -------- -------- -------- -------- --------
;; SYNTHETIC TEST INFLOWS — the source .xp carried no constant inflows
;; and RUNF hydrology is not converted; 1.00 CFS is applied at each
;; headwater node so the network runs wet for QA. Replace with real
;; hydrology or inflow hydrographs before using results.
upstream         FLOW         ""               FLOW     1.0      1.0      1.00

[COORDINATES]
;;Node           X-Coord            Y-Coord
;;-------------- ------------------ ------------------
upstream         13.64              69.64             
Split            21.64              69.64             
Upper            21.64              51.64             
Lower            29.64              55.64             
MH               35.64              69.64             
Outlet           41.64              69.64             

[MAP]
DIMENSIONS 13.64 51.64 41.64 69.64
Units      None

[REPORT]
SUBCATCHMENTS ALL
NODES ALL
LINKS ALL
