;; SWMM5 .inp converted from XPSWMM .xp file
;; Generated by XPSWMM Card Reader
;; Source format: XP_CARD | Original title: (none)

[TITLE]
;;Project Title/Notes
Converted from XPSWMM .xp file

[OPTIONS]
FLOW_UNITS           CFS
INFILTRATION         HORTON
FLOW_ROUTING         DYNWAVE
LINK_OFFSETS         DEPTH
MIN_SLOPE            0.0
ALLOW_PONDING        NO
SKIP_STEADY_STATE    NO
ROUTING_STEP         00:05:00
VARIABLE_STEP        0.75
INERTIAL_DAMPING     PARTIAL
NORMAL_FLOW_LIMITED  BOTH
MAX_TRIALS           50
HEAD_TOLERANCE       0.0033
START_DATE           01/01/2001
START_TIME           00:00:00
REPORT_START_DATE    01/01/2001
REPORT_START_TIME    00:00:00
END_DATE             01/02/2001
END_TIME             00:00:00
SWEEP_START          01/01
SWEEP_END            12/31
DRY_DAYS             0
REPORT_STEP          00:15:00
WET_STEP             00:05:00
DRY_STEP             01:00:00

[JUNCTIONS]
;;Name           Elev       MaxDepth   InitDepth  SurDepth   Aponded
;;-------------- ---------- ---------- ---------- ---------- ----------
Upstream         770.00     0          0          0          0
MH               750.00     0          0          0          0

[OUTFALLS]
;;Name           Elev       Type       Stage      Gated
;;-------------- ---------- ---------- ---------- -----
Outlet           750.00     FREE                  NO

[STORAGE]
;;Name           Elev       MaxDepth   InitDepth  Shape      Curve/Params
;;-------------- ---------- ---------- ---------- ---------- ----------
Split            757.00     10.00      0          FUNCTIONAL 0.00 0          0
Upper            753.00     10.00      7.00       FUNCTIONAL 1000.00 0          0
Lower            746.00     10.00      6.00       FUNCTIONAL 1000.00 0          0

[CONDUITS]
;;Name           From             To               Length     Roughness  InOffset   OutOffset  InitFlow   MaxFlow
;;-------------- ---------------- ---------------- ---------- ---------- ---------- ---------- ---------- ----------
Main             Upstream         Split            612.00     0.0120     756.20     747.00     0          0
divert           Split            Upper            60.00      0.0120     745.00     745.00     0          0
Up               Upper            Lower            150.00     0.0120     745.00     743.50     0          0
Low              Lower            MH               150.00     0.0120     741.75     741.00     0          0
rcp              Split            MH               500.00     0.0140     747.00     740.00     0          0
Cont             MH               Outlet           300.00     0.0120     737.00     732.80     0          0

[XSECTIONS]
;;Link           Shape        Geom1      Geom2      Geom3      Geom4      Barrels
;;-------------- ------------ ---------- ---------- ---------- ---------- ----------
Main             CIRCULAR     5.50       0          0          0          1
divert           CIRCULAR     3.00       0          0          0          1
Up               CIRCULAR     2.00       0          0          0          1
Low              CIRCULAR     2.00       0          0          0          2
rcp              CIRCULAR     5.50       0          0          0          1
Cont             CIRCULAR     5.50       0          0          0          1

[LOSSES]
;;Link           Inlet      Outlet     Average    Flap Gate
;;-------------- ---------- ---------- ---------- ----------
Main             0          0          0          NO
divert           0          0          0          NO
Up               0          0          0          NO
Low              0          0          0          NO
rcp              0          0          0          NO
Cont             0          0          0          NO

[COORDINATES]
;;Node           X-Coord            Y-Coord
;;-------------- ------------------ ------------------
Upstream         16.99              57.44             
Split            22.11              57.43             
Upper            22.14              42.44             
Lower            27.46              47.46             
MH               32.58              57.31             
Outlet           38.13              57.31             

[MAP]
DIMENSIONS 16.99 42.44 38.13 57.44
Units      None

[REPORT]
SUBCATCHMENTS ALL
NODES ALL
LINKS ALL
