;; SWMM5 .inp converted from XPSWMM .xp file
;; Generated by XPSWMM Card Reader
;; Source format: XP_CARD | Original title: (none)
;; Links parsed from source: 18 | Routable in this .inp: 18

[TITLE]
;;Project Title/Notes
Converted from XPSWMM .xp file

[OPTIONS]
FLOW_UNITS           CFS
INFILTRATION         HORTON
FLOW_ROUTING         DYNWAVE
LINK_OFFSETS         DEPTH
MIN_SLOPE            0.0
ALLOW_PONDING        NO
SKIP_STEADY_STATE    NO
ROUTING_STEP         00:01:00
VARIABLE_STEP        0.75
INERTIAL_DAMPING     PARTIAL
NORMAL_FLOW_LIMITED  BOTH
START_DATE           01/01/2001
START_TIME           00:00:00
REPORT_START_DATE    01/01/2001
REPORT_START_TIME    00:00:00
END_DATE             01/02/2001
END_TIME             00:00:00
SWEEP_START          01/01
SWEEP_END            12/31
DRY_DAYS             0
REPORT_STEP          00:15:00
WET_STEP             00:05:00
DRY_STEP             01:00:00

[JUNCTIONS]
;;Name           Elev       MaxDepth   InitDepth  SurDepth   Aponded
;;-------------- ---------- ---------- ---------- ---------- ----------
ST366            900.61     0          0          0          0
ST2325           901.20     0          0          0          0
ST2326           901.20     0          0          0          0
ST2327           901.20     0          0          0          0
ST2328           901.20     0          0          0          0
ST2336           892.00     0          0          0          0
ST2337           891.50     0          0          0          0
ST2338           898.00     0          0          0          0
ST2339           898.02     0          0          0          0
ST2367           896.10     0          0          0          0
ST2368           896.10     0          0          0          0
ST2369           895.80     0          0          0          0
ST2428           898.10     0          0          0          0
ST2429           900.30     0          0          0          0
ST2430           897.10     0          0          0          0
ST2439           896.30     0          0          0          0
ST2?             899.12     0          0          0          0
ST1?             899.21     0          0          0          0

[OUTFALLS]
;;Name           Elev       Type       Stage      Gated
;;-------------- ---------- ---------- ---------- -----
ST634            886.69     FREE                  NO

[CONDUITS]
;;Name           From             To               Length     Roughness  InOffset   OutOffset  InitFlow   MaxFlow
;;-------------- ---------------- ---------------- ---------- ---------- ---------- ---------- ---------- ----------
328              ST2?             ST366            126.50     0.0130     896.73     895.70     0          0
212              ST366            ST2429           10.00      0.0130     895.70     894.90     0          0
245              ST2325           ST2326           10.50      0.0130     895.91     894.24     0          0
247              ST2327           ST2328           11.50      0.0130     897.17     896.31     0          0
250              ST2337           ST2428           262.60     0.0130     888.04     887.25     0          0
246              ST2326           ST2336           162.00     0.0130     893.58     890.26     0          0
248              ST2328           ST2326           34.50      0.0130     896.17     893.59     0          0
252              ST2339           ST2428           26.00      0.0130     894.20     892.10     0          0
251              ST2338           ST2428           8.00       0.0130     894.90     892.10     0          0
280              ST2367           ST2439           12.00      0.0130     892.80     890.60     0          0
281              ST2368           ST2439           30.00      0.0130     893.10     889.20     0          0
282              ST2369           ST634            120.00     0.0130     884.86     884.19     0          0
297              ST2439           ST2369           35.00      0.0130     884.90     884.86     0          0
289              ST2430           ST2439           117.00     0.0130     885.61     885.13     0          0
288              ST2429           ST2430           167.00     0.0130     893.10     885.92     0          0
287              ST2428           ST2430           76.00      0.0130     887.25     885.81     0          0
381              ST1?             ST2?             30.50      0.0130     897.02     896.76     0          0

[ORIFICES]
;;Name           From             To               Type       Offset     Qcoeff     Gated    CloseTime
;;-------------- ---------------- ---------------- ---------- ---------- ---------- -------- ----------
334.1            ST2336           ST2337           SIDE       888.05     0.650      NO       0

[XSECTIONS]
;;Link           Shape        Geom1      Geom2      Geom3      Geom4      Barrels
;;-------------- ------------ ---------- ---------- ---------- ---------- ----------
328              CIRCULAR     1.00       0          0          0          1
212              CIRCULAR     1.50       0          0          0          1
245              CIRCULAR     1.25       0          0          0          1
247              CIRCULAR     1.25       0          0          0          1
250              CIRCULAR     1.75       0          0          0          1
246              CIRCULAR     1.50       0          0          0          1
248              CIRCULAR     1.50       0          0          0          1
252              CIRCULAR     1.00       0          0          0          1
251              CIRCULAR     1.00       0          0          0          1
280              CIRCULAR     1.00       0          0          0          1
281              CIRCULAR     1.00       0          0          0          1
282              CIRCULAR     2.50       0          0          0          1
297              CIRCULAR     2.50       0          0          0          1
289              CIRCULAR     2.00       0          0          0          1
288              CIRCULAR     1.50       0          0          0          1
287              CIRCULAR     1.75       0          0          0          1
381              CIRCULAR     1.00       0          0          0          1
334.1            RECT_CLOSED  1.75       1.75       0          0

[LOSSES]
;;Link           Inlet      Outlet     Average    Flap Gate
;;-------------- ---------- ---------- ---------- ----------
328              0          0          0          NO
212              0          0          0          NO
245              0          0          0          NO
247              0          0          0          NO
250              0          0          0          NO
246              0          0          0          NO
248              0          0          0          NO
252              0          0          0          NO
251              0          0          0          NO
280              0          0          0          NO
281              0          0          0          NO
282              0          0          0          NO
297              0          0          0          NO
289              0          0          0          NO
288              0          0          0          NO
287              0          0          0          NO
381              0          0          0          NO

[INFLOWS]
;;Node           Constituent  Time Series      Type     Mfactor  Sfactor  Baseline Pattern
;;-------------- ------------ ---------------- -------- -------- -------- -------- --------
;; SYNTHETIC TEST INFLOWS — the source .xp carried no constant inflows
;; and RUNF hydrology is not converted; 1.00 CFS is applied at each
;; headwater node so the network runs wet for QA. Replace with real
;; hydrology or inflow hydrographs before using results.
ST2325           FLOW         ""               FLOW     1.0      1.0      1.00
ST2327           FLOW         ""               FLOW     1.0      1.0      1.00
ST2338           FLOW         ""               FLOW     1.0      1.0      1.00
ST2339           FLOW         ""               FLOW     1.0      1.0      1.00
ST2367           FLOW         ""               FLOW     1.0      1.0      1.00
ST2368           FLOW         ""               FLOW     1.0      1.0      1.00
ST1?             FLOW         ""               FLOW     1.0      1.0      1.00

[COORDINATES]
;;Node           X-Coord            Y-Coord
;;-------------- ------------------ ------------------
ST366            -186819.02         496859.74         
ST634            -186476.54         496525.49         
ST2325           -187230.93         496413.44         
ST2326           -187224.87         496418.85         
ST2327           -187255.00         496428.73         
ST2328           -187245.92         496433.50         
ST2336           -186888.55         496410.10         
ST2337           -186864.00         496421.98         
ST2338           -186868.85         496689.01         
ST2339           -186863.89         496717.89         
ST2367           -186630.90         496639.53         
ST2368           -186616.18         496669.62         
ST2369           -186613.17         496600.81         
ST2428           -186865.86         496689.68         
ST2429           -186783.56         496854.59         
ST2430           -186772.14         496706.14         
ST2439           -186608.36         496644.48         
ST2?             -186818.28         496958.52         
ST1?             -186817.02         497015.65         

[MAP]
DIMENSIONS -187255.00 496410.10 -186476.54 497015.65
Units      None

[REPORT]
SUBCATCHMENTS ALL
NODES ALL
LINKS ALL
