;; SWMM5 .inp converted from XPSWMM .xp file
;; Generated by XPSWMM Card Reader
;; Source format: XP_CARD | Original title: (none)
;; Links parsed from source: 4 | Routable in this .inp: 4

[TITLE]
;;Project Title/Notes
Converted from XPSWMM .xp file

[OPTIONS]
FLOW_UNITS           CMS
INFILTRATION         HORTON
FLOW_ROUTING         DYNWAVE
LINK_OFFSETS         DEPTH
MIN_SLOPE            0.0
ALLOW_PONDING        NO
SKIP_STEADY_STATE    NO
ROUTING_STEP         00:00:05
VARIABLE_STEP        0.75
INERTIAL_DAMPING     PARTIAL
NORMAL_FLOW_LIMITED  BOTH
MAX_TRIALS           50
HEAD_TOLERANCE       .001
START_DATE           01/01/2001
START_TIME           00:00:00
REPORT_START_DATE    01/01/2001
REPORT_START_TIME    00:00:00
END_DATE             01/02/2001
END_TIME             00:00:00
SWEEP_START          01/01
SWEEP_END            12/31
DRY_DAYS             0
REPORT_STEP          00:15:00
WET_STEP             00:05:00
DRY_STEP             01:00:00

[OUTFALLS]
;;Name           Elev       Type       Stage      Gated
;;-------------- ---------- ---------- ---------- -----
Outlet           10.00      FREE                  NO

[STORAGE]
;;Name           Elev       MaxDepth   InitDepth  Shape      Curve/Params
;;-------------- ---------- ---------- ---------- ---------- ----------
A                10.50      10.00      0          FUNCTIONAL 10.00 0          0
B                10.50      10.00      0          FUNCTIONAL 10.00 0          0
Tank             10.50      10.00      0          FUNCTIONAL 10.00 0          0
Inlet            10.72      10.00      0          FUNCTIONAL 10.00 0          0

[CONDUITS]
;;Name           From             To               Length     Roughness  InOffset   OutOffset  InitFlow   MaxFlow
;;-------------- ---------------- ---------------- ---------- ---------- ---------- ---------- ---------- ----------
JK8_1            Tank             B                100.00     0.0120     7.89       7.79       0          0
OS8_1            A                Outlet           100.00     0.0120     7.79       7.68       0          0
OS9_1            Inlet            A                200.00     0.0250     8.01       7.79       0          0

[ORIFICES]
;;Name           From             To               Type       Offset     Qcoeff     Gated    CloseTime
;;-------------- ---------------- ---------------- ---------- ---------- ---------- -------- ----------
JK2_1            B                A                SIDE       7.52       0.650      NO       0

[XSECTIONS]
;;Link           Shape        Geom1      Geom2      Geom3      Geom4      Barrels
;;-------------- ------------ ---------- ---------- ---------- ---------- ----------
JK8_1            CIRCULAR     0.60       0          0          0          1
OS8_1            CIRCULAR     0.90       5.00       0          0          1
OS9_1            TRAPEZOIDAL  2.71       5.00       1          1          1
JK2_1            RECT_CLOSED  0.46       0.46       0          0

[LOSSES]
;;Link           Inlet      Outlet     Average    Flap Gate
;;-------------- ---------- ---------- ---------- ----------
JK8_1            0          0          0          NO
OS8_1            0          0          0          NO
OS9_1            0          0          0          NO

[INFLOWS]
;;Node           Constituent  Time Series      Type     Mfactor  Sfactor  Baseline Pattern
;;-------------- ------------ ---------------- -------- -------- -------- -------- --------
;; SYNTHETIC TEST INFLOWS — the source .xp carried no constant inflows
;; and RUNF hydrology is not converted; 0.03 CMS is applied at each
;; headwater node so the network runs wet for QA. Replace with real
;; hydrology or inflow hydrographs before using results.
Tank             FLOW         ""               FLOW     1.0      1.0      0.03
Inlet            FLOW         ""               FLOW     1.0      1.0      0.03

[COORDINATES]
;;Node           X-Coord            Y-Coord
;;-------------- ------------------ ------------------
A                -6468534.00        386319.19         
B                -6468649.55        386317.43         
Outlet           -6468532.61        386581.13         
Tank             -6468893.27        386316.09         
Inlet            -6468536.24        385801.56         

[MAP]
DIMENSIONS -6468893.27 385801.56 -6468532.61 386581.13
Units      None

[REPORT]
SUBCATCHMENTS ALL
NODES ALL
LINKS ALL
