;; SWMM5 .inp converted from XPSWMM .xp file
;; Generated by XPSWMM Card Reader
;; Source format: XP_CARD | Original title: Title 1

[TITLE]
;;Project Title/Notes
Title 1

[OPTIONS]
FLOW_UNITS           CMS
INFILTRATION         HORTON
FLOW_ROUTING         DYNWAVE
LINK_OFFSETS         DEPTH
MIN_SLOPE            0.0
ALLOW_PONDING        NO
SKIP_STEADY_STATE    NO
ROUTING_STEP         00:00:30
VARIABLE_STEP        0.75
INERTIAL_DAMPING     PARTIAL
NORMAL_FLOW_LIMITED  BOTH
START_DATE           01/01/2001
START_TIME           00:00:00
REPORT_START_DATE    01/01/2001
REPORT_START_TIME    00:00:00
END_DATE             01/02/2001
END_TIME             00:00:00
SWEEP_START          01/01
SWEEP_END            12/31
DRY_DAYS             0
REPORT_STEP          00:15:00
WET_STEP             00:05:00
DRY_STEP             01:00:00

[JUNCTIONS]
;;Name           Elev       MaxDepth   InitDepth  SurDepth   Aponded
;;-------------- ---------- ---------- ---------- ---------- ----------
Inlet1           100.00     0          0          0          0
Inlet2           99.00      0          0          0          0
Inlet3           98.50      0          0          0          0
Inlet4           98.00      0          0          0          0
MH1              100.00     0          0          0          0
MH2              99.00      0          0          0          0
MH3              98.50      0          0          0          0
MH4              98.00      0          0          0          0
Pipe             98.00      0          0          0          0
street1          99.75      0          0          0          0
streeta          97.00      0          0          0          0
street2          96.50      0          0          0          0

[OUTFALLS]
;;Name           Elev       Type       Stage      Gated
;;-------------- ---------- ---------- ---------- -----
Street           98.00      FREE                  NO

[CONDUITS]
;;Name           From             To               Length     Roughness  InOffset   OutOffset  InitFlow   MaxFlow
;;-------------- ---------------- ---------------- ---------- ---------- ---------- ---------- ---------- ----------
pipe1            street1          Inlet2           100.00     0.0130     99.75      98.75      0          0
pipe1_2          street1          Inlet3           100.00     0.0130     98.75      98.25      0          0
pipe1_3          street1          Inlet4           100.00     0.0130     98.25      97.75      0          0
pipe1_4          street1          Street           100.00     0.0130     97.75      97.75      0          0
pipea            streeta          MH2              100.00     0.0130     97.00      96.50      0          0
pipe2            street2          MH3              100.00     0.0130     96.50      96.00      0          0
219              MH3              MH4              100.00     0.0130     96.00      95.50      0          0
220              MH4              Pipe             100.00     0.0130     95.50      95.00      0          0

[XSECTIONS]
;;Link           Shape        Geom1      Geom2      Geom3      Geom4      Barrels
;;-------------- ------------ ---------- ---------- ---------- ---------- ----------
pipe1            TRAPEZOIDAL  0.25       10.00      1          1          1
pipe1_2          TRAPEZOIDAL  0.25       10.00      1          1          1
pipe1_3          TRAPEZOIDAL  0.25       10.00      1          1          1
pipe1_4          TRAPEZOIDAL  0.25       10.00      1          1          1
pipea            CIRCULAR     0.50       0          0          0          1
pipe2            CIRCULAR     0.50       0          0          0          1
219              CIRCULAR     0.50       0          0          0          1
220              CIRCULAR     0.50       0          0          0          1

[LOSSES]
;;Link           Inlet      Outlet     Average    Flap Gate
;;-------------- ---------- ---------- ---------- ----------
pipe1            0          0          0          NO
pipe1_2          0          0          0          NO
pipe1_3          0          0          0          NO
pipe1_4          0          0          0          NO
pipea            0          0          0          NO
pipe2            0          0          0          NO
219              0          0          0          NO
220              0          0          0          NO

[COORDINATES]
;;Node           X-Coord            Y-Coord
;;-------------- ------------------ ------------------
Inlet1           23.97              47.64             
Inlet2           30.30              95.44             
Inlet3           36.10              163.30            
Inlet4           39.79              226.68            
Street           42.17              277.64            
MH1              43.90              47.68             
MH2              50.22              95.74             
MH3              55.50              163.34            
MH4              59.45              226.71            
Pipe             61.83              277.67            

[MAP]
DIMENSIONS 23.97 47.64 61.83 277.67
Units      None

[REPORT]
SUBCATCHMENTS ALL
NODES ALL
LINKS ALL
