;; SWMM5 .inp converted from XPSWMM .xp file
;; Generated by XPSWMM Card Reader
;; Source format: XP_CARD | Original title: calibration model- Upper Parramatta River Catchment
;; NOTE: 93 link(s) dropped (missing endpoint): L1-00, GM8-03, 40-00, as2BT, as2BB, T32-30, T32-00, T30-30, PH1-20, PH1-15, PH10-5, G2-20, PH12-0, G13-20, G13-00, G11-0, G9-5, G5-0, G7-5, G15-40, PH15-5, PH19-8, PH19-4, PH17-8, PH22-5, PH20-2, PH1-10, G6-5, T30-10, T30-00, T29-10, T28-05, T27-20, T27-15, T27-10, T27-08, T27-04, T27-00, T26-40, T26-20, NMG3-0, 2BOS-3, 2BOS-2, 2BOS-1, 2B-SW1, 2BOS-5, PH8-05, PH9-25, L20-10, 34-00, P1-000, BF45-1, T21-00, T20-00, C1-020, Mils-1, Mils-2, C8-000, T24-00, T23-10, T25-20, 1327.1, 1601.1, 1604.1, H5-000, D2-360, D2-420, P10-00, P12-00, P12-40, P13-00, P14-00, T18-00, T17-00, T16-00, T19-00, T18-30, T18-10, H9-000, P9-000, PH6-0, PH4-00, PH3-10, T33-10, T33-20, G17-10, G16-20, G16-10, NMG4-0, PH10-5a, T44-5A, BF45-2, L4-00

[TITLE]
;;Project Title/Notes
calibration model- Upper Parramatta River Catchment

[OPTIONS]
FLOW_UNITS           CMS
INFILTRATION         HORTON
FLOW_ROUTING         DYNWAVE
LINK_OFFSETS         DEPTH
MIN_SLOPE            0.0
ALLOW_PONDING        NO
SKIP_STEADY_STATE    NO
ROUTING_STEP         00:00:03
VARIABLE_STEP        0.75
INERTIAL_DAMPING     PARTIAL
NORMAL_FLOW_LIMITED  BOTH
MAX_TRIALS           100
HEAD_TOLERANCE       .001
START_DATE           01/01/2001
START_TIME           00:00:00
REPORT_START_DATE    01/01/2001
REPORT_START_TIME    00:00:00
END_DATE             01/02/2001
END_TIME             00:00:00
SWEEP_START          01/01
SWEEP_END            12/31
DRY_DAYS             0
REPORT_STEP          00:15:00
WET_STEP             00:05:00
DRY_STEP             01:00:00

[JUNCTIONS]
;;Name           Elev       MaxDepth   InitDepth  SurDepth   Aponded
;;-------------- ---------- ---------- ---------- ---------- ----------
T37.70           45.00      0          0          0          0
B7.00            40.00      0          0          0          0
B14.01           45.00      0          0          0          0
82.00T           45.00      0          0          0          0
8.030L           45.00      0          0          0          0
B16.51           45.00      0          0          0          0
GM4.20           45.00      0          0          0          0
B21.00           60.00      0          0          0          0
B15.15           60.00      0          0          0          0
GM3.40           60.00      0          0          0          0
T35.40           40.00      0          0          0          0
T37.20           45.00      0          0          0          0
B25.00           50.00      0          0          0          0
B28.00           60.00      0          0          0          0
8.010T           60.00      0          0          0          0
T56.10           60.00      0          0          0          0
T56.50           60.00      0          0          0          0
18.01T           60.00      0          0          0          0
T50.30           60.00      0          0          0          0
T50.50           60.00      0          0          0          0
T50.70           60.00      0          0          0          0
T50.90           60.00      0          0          0          0
T40.01           50.00      0          0          0          0
1.020L           50.00      0          0          0          0
B2.500           40.00      0          0          0          0
T45.00           50.00      0          0          0          0
GM5.50           45.00      0          0          0          0
10.00T           50.00      0          0          0          0
T35.08           40.00      0          0          0          0
1.010L           60.00      0          0          0          0
T51.4            60.00      0          0          0          0
T51.6            60.00      0          0          0          0
T51.8            65.00      0          0          0          0
T52.1            70.00      0          0          0          0
T52.3            70.00      0          0          0          0
T53.0            75.00      0          0          0          0
T53.3            75.00      0          0          0          0
T53.5            80.00      0          0          0          0
1.000C           82.00      0          0          0          0
T58.0            60.00      0          0          0          0
T58.3            70.00      0          0          0          0
95.00T           70.00      0          0          0          0
T32.30           40.00      0          0          0          0
1.070L           40.00      0          0          0          0
T30.30           50.00      0          0          0          0
6.030L           40.00      0          0          0          0
PH1.15           40.00      0          0          0          0
PH9.5            50.00      0          0          0          0
PH11.0           50.00      0          0          0          0
G2.20            50.00      0          0          0          0
G9.50            50.00      0          0          0          0
G12.00           50.00      0          0          0          0
G13.00           50.00      0          0          0          0
G13.20           50.00      0          0          0          0
65.02L           50.00      0          0          0          0
PH19.4           60.00      0          0          0          0
PH19.8           60.00      0          0          0          0
PH20.2           60.00      0          0          0          0
6.000T           60.00      0          0          0          0
PH1.10           40.00      0          0          0          0
G6.70            50.00      0          0          0          0
T30.10           40.00      0          0          0          0
T30.00           40.00      0          0          0          0
T29.30           40.00      0          0          0          0
T28.05           40.00      0          0          0          0
T27.20           40.00      0          0          0          0
T27.15           40.00      0          0          0          0
T27.10           40.00      0          0          0          0
T27.08           40.00      0          0          0          0
T27.04           40.00      0          0          0          0
T27.00           40.00      0          0          0          0
1.080L           35.00      0          0          0          0
1.20J            35.00      0          0          0          0
T26.05           35.00      0          0          0          0
13.01T           40.00      0          0          0          0
2BOS.1           50.00      0          0          0          0
2BOS.2           50.00      0          0          0          0
2BOS.4           50.00      0          0          0          0
2BOS.5           50.00      0          0          0          0
PH9.25           50.00      0          0          0          0
G14.50           50.00      0          0          0          0
PH8.05           50.00      0          0          0          0
PH6.6            45.00      0          0          0          0
9.020C           55.00      0          0          0          0
9.010J           55.00      0          0          0          0
92.00C           55.00      0          0          0          0
9.000C           65.00      0          0          0          0
8.000C           70.00      0          0          0          0
1.160L           30.00      0          0          0          0
P1.000           30.00      0          0          0          0
T19.00           30.00      0          0          0          0
F2.240           40.00      0          0          0          0
F2.260           40.00      0          0          0          0
4.020L           40.00      0          0          0          0
F2.350           40.00      0          0          0          0
F2.500           40.00      0          0          0          0
C2.200           40.00      0          0          0          0
C3.000           40.00      0          0          0          0
C3.300           40.00      0          0          0          0
5.010L           40.00      0          0          0          0
C6.000           40.00      0          0          0          0
C8.000           40.00      0          0          0          0
5.000T           40.00      0          0          0          0
F2.530           40.00      0          0          0          0
F2.570           40.00      0          0          0          0
F2.610           40.00      0          0          0          0
4.010L           40.00      0          0          0          0
F2.780           40.00      0          0          0          0
4.000T           40.00      0          0          0          0
1.090L           30.00      0          0          0          0
T24.00           30.00      0          0          0          0
T24.20           30.00      0          0          0          0
T25.10           30.00      0          0          0          0
T25.21           30.00      0          0          0          0
F2.770           40.00      0          0          0          0
D1.900           35.00      0          0          0          0
D1.800           30.00      0          0          0          0
2.080L           25.00      0          0          0          0
1.280J           30.00      0          0          0          0
D2.360           40.00      0          0          0          0
D2.340           40.00      0          0          0          0
D2.320           35.00      0          0          0          0
2.050L           55.00      0          0          0          0
D2.400           45.00      0          0          0          0
D2.390           45.00      0          0          0          0
34.00T           55.00      0          0          0          0
D2.430           55.00      0          0          0          0
D2.480           55.00      0          0          0          0
D1.710           30.00      0          0          0          0
D1.650           30.00      0          0          0          0
D1.580           30.00      0          0          0          0
D2.300           35.00      0          0          0          0
D2.330           40.00      0          0          0          0
2.040J           60.00      0          0          0          0
D2.560           70.00      0          0          0          0
D2.540           70.00      0          0          0          0
D2.510           60.00      0          0          0          0
P9.100           30.00      0          0          0          0
1.140L           30.00      0          0          0          0
52.00T           30.00      0          0          0          0
P12.40           30.00      0          0          0          0
P13.00           30.00      0          0          0          0
P14.00           30.00      0          0          0          0
T16.00           30.00      0          0          0          0
1.110L           30.00      0          0          0          0
T18.10           30.00      0          0          0          0
T18.30           30.00      0          0          0          0
P9.000           30.00      0          0          0          0
P8.900           30.00      0          0          0          0
PH3.10           40.00      0          0          0          0
T33.10           40.00      0          0          0          0
66.00C           55.00      0          0          0          0
65.01J           55.00      0          0          0          0
65.00C           50.00      0          0          0          0
13.00C           45.00      0          0          0          0
2.000C           65.00      0          0          0          0
2.010j           65.00      0          0          0          0
21.00C           65.00      0          0          0          0
2.020J           65.00      0          0          0          0
23.00C           65.00      0          0          0          0
2.030C           60.00      0          0          0          0
25.00C           85.00      0          0          0          0
25.01J           85.00      0          0          0          0
24.00C           85.00      0          0          0          0
25.02L           50.00      0          0          0          0
3.000C           0          0          0          0          0
48.00C           35.00      0          0          0          0
9.040L           40.00      0          0          0          0
L4.00            50.00      0          0          0          0
B21-1R           35.92      0          0          0          0
Node_75          29.23      0          0          0          0
Node_1012365     27.16      0          0          0          0
Node_200         25.37      0          0          0          0
Node_13101338    24.58      0          0          0          0
Node_50          34.17      0          0          0          0
Node_1163374     33.64      0          0          0          0
Bsn-3w           34.17      0          0          0          0
Bsn-3b           33.98      0          0          0          0
Node_1329471     32.34      0          0          0          0
Node_51          42.20      0          0          0          0
Node_1904930     40.57      0          0          0          0
Node_19101904    42.20      0          0          0          0
Node_19141910    44.30      0          0          0          0
Node_19181914    45.97      0          0          0          0
Node_52          50.58      0          0          0          0
Node_19221918    48.80      0          0          0          0
Node_19261922    50.58      0          0          0          0
Node_53          62.66      0          0          0          0
Node_19341926    56.08      0          0          0          0
Node_19391934    62.66      0          0          0          0
Node_19441939    65.00      0          0          0          0
Node_19481944    69.00      0          0          0          0
Node_57          48.05      0          0          0          0
Node_19751904    42.20      0          0          0          0
Node_58          52.14      0          0          0          0
Node_19801975    48.05      0          0          0          0
Node_19861980    52.14      0          0          0          0
Node_60          24.63      0          0          0          0
Node_31332099    23.52      0          0          0          0
2BOS42           0          0          0          0          0
Node_23132306    0          0          0          0          0
2B-SW2           0          0          0          0          0
Node_23162068    0          0          0          0          0
PH9-5T           30.75      0          0          0          0
Node_20812319    30.70      0          0          0          0
Node_23392135    33.36      0          0          0          0
Node_2423644     36.16      0          0          0          0
Node_70          46.00      0          0          0          0
Node_24252423    42.00      0          0          0          0
Node_80          55.50      0          0          0          0
Node_24292425    46.00      0          0          0          0
Node_900         -0.30      0          0          0          0
Node_24612464    -0.16      0          0          0          0
Node_180         -0.07      0          0          0          0
Node_24692474    -0.53      0          0          0          0
Node_24572458    0.72       0          0          0          0
Node_24582480    0.88       0          0          0          0
Node_24642469    -0.07      0          0          0          0
Node_100         0.37       0          0          0          0
Node_24802461    0.32       0          0          0          0
Node_25122508    9.78       0          0          0          0
Node_344         13.62      0          0          0          0
Node_25292525    12.06      0          0          0          0
Node_280         12.06      0          0          0          0
Node_25252521    9.83       0          0          0          0
Node_252         9.83       0          0          0          0
Node_25212520    9.23       0          0          0          0
Node_25202506    8.00       0          0          0          0
Node_470         15.37      0          0          0          0
Node_25512529    13.62      0          0          0          0
Node_800         14.44      0          0          0          0
Node_25702567    13.22      0          0          0          0
Node_500         13.20      0          0          0          0
Node_25672564    11.85      0          0          0          0
Node_300         11.85      0          0          0          0
Node_25642561    9.68       0          0          0          0
Node_25882571    15.33      0          0          0          0
Node_25982588    17.09      0          0          0          0
Node_980         20.27      0          0          0          0
Node_26082598    19.42      0          0          0          0
Node_26312627    23.07      0          0          0          0
Node_590         18.44      0          0          0          0
Node_26672664    17.18      0          0          0          0
Node_570         17.18      0          0          0          0
Node_26642661    15.72      0          0          0          0
Node_530         15.72      0          0          0          0
Node_26612551    15.37      0          0          0          0
Node_690         19.55      0          0          0          0
Node_26792667    18.44      0          0          0          0
Node_840         24.13      0          0          0          0
Node_26922685    21.24      0          0          0          0
Node_780         21.24      0          0          0          0
Node_26852832    20.70      0          0          0          0
Node_720         20.70      0          0          0          0
Node_28322679    19.55      0          0          0          0
Node_28472851    14.44      0          0          0          0
Node_28512916    12.83      0          0          0          0
Node_525         12.65      0          0          0          0
Node_29342858    10.93      0          0          0          0
Node_160         8.35       0          0          0          0
Node_28662872    6.00       0          0          0          0
Node_190         9.30       0          0          0          0
Node_28632866    8.35       0          0          0          0
Node_320         15.60      0          0          0          0
Node_28922936    15.10      0          0          0          0
Node_400         17.95      0          0          0          0
Node_28982900    17.85      0          0          0          0
Node_450         24.00      0          0          0          0
Node_29052909    23.40      0          0          0          0
Node_430         23.40      0          0          0          0
Node_29092895    23.00      0          0          0          0
Node_480         26.40      0          0          0          0
Node_29122905    24.00      0          0          0          0
Node_710         12.83      0          0          0          0
Node_29162920    13.30      0          0          0          0
Node_650         13.54      0          0          0          0
Node_29202924    11.83      0          0          0          0
Node_580         11.83      0          0          0          0
Node_29242934    12.65      0          0          0          0
Node_290         10.93      0          0          0          0
Node_28582863    9.30       0          0          0          0
Node_29362847    14.51      0          0          0          0
Node_390         17.85      0          0          0          0
Node_29002886    17.55      0          0          0          0
Node_340         16.80      0          0          0          0
Node_28902942    16.20      0          0          0          0
Node_330         16.20      0          0          0          0
Node_29422892    15.60      0          0          0          0
Node_600         37.65      0          0          0          0
Node_29452952    33.00      0          0          0          0
Node_560         33.00      0          0          0          0
Node_29522958    31.00      0          0          0          0
Node_29582962    29.00      0          0          0          0
Node_510         29.00      0          0          0          0
Node_29622912    26.40      0          0          0          0
Node_28722987    4.31       0          0          0          0
Hartc            15.33      0          0          0          0
Node_25712570    14.44      0          0          0          0
Node_29693049    1.40       0          0          0          0
Node_30512457    0.73       0          0          0          0
Node_20533130    19.01      0          0          0          0
Node_31302055    18.09      0          0          0          0
Node_140         26.38      0          0          0          0
Node_21173133    24.63      0          0          0          0
Node_31042067    23.00      0          0          0          0
Node_31663167    57.00      0          0          0          0
Node_31693167    57.00      0          0          0          0
Node_31673171    52.50      0          0          0          0
Node_31733171    52.50      0          0          0          0
Node_31713175    39.50      0          0          0          0
Node_350         39.50      0          0          0          0
Node_31752945    37.65      0          0          0          0
Node_31793180    74.00      0          0          0          0
Node_31823180    74.00      0          0          0          0
Node_31803184    39.00      0          0          0          0
Node_31842945    37.65      0          0          0          0
Node_31943027    40.00      0          0          0          0

[OUTFALLS]
;;Name           Elev       Type       Stage      Gated
;;-------------- ---------- ---------- ---------- -----
8.020L           60.00      FREE                  NO

[STORAGE]
;;Name           Elev       MaxDepth   InitDepth  Shape      Curve/Params
;;-------------- ---------- ---------- ---------- ---------- ----------
T36.10           40.00      10.00      0          FUNCTIONAL 100.00 0          0
1.030L           40.00      10.00      0          FUNCTIONAL 100.00 0          0
8.050L           40.00      10.00      0          FUNCTIONAL 100.00 0          0
B12.00           45.00      10.00      0          FUNCTIONAL 1.00 0          0
10.01L           50.00      10.00      0          FUNCTIONAL 10.00 0          0
L7.10            45.00      10.00      0          FUNCTIONAL 1.00 0          0
L8.10            50.00      10.00      0          FUNCTIONAL 1000.00 0          0
GM7.20           50.00      10.00      0          FUNCTIONAL 10.00 0          0
9.030T           55.00      5.00       0          FUNCTIONAL 1000.00 0          0
T39.97           40.00      10.00      0          FUNCTIONAL 400.00 0          0
B23.10           50.00      10.00      0          FUNCTIONAL 1.00 0          0
1.050L           40.00      10.00      0          FUNCTIONAL 10000.00 0          0
T36.95           40.00      10.00      0          FUNCTIONAL 10.00 0          0
B0.500           40.00      10.00      0          FUNCTIONAL 1000.00 0          0
T32.70           40.00      10.00      0          FUNCTIONAL 7.00 0          0
T33.40           50.00      10.00      0          FUNCTIONAL 1000.00 0          0
6.010L           50.00      1.00       0          FUNCTIONAL 2.00 0          0
65.04L           50.00      10.00      0          FUNCTIONAL 1.00 0          0
G5.00            50.00      10.00      0          FUNCTIONAL 50.00 0          0
65.03L           50.00      10.00      0          FUNCTIONAL 10.00 0          0
PH16.0           50.00      10.00      0          FUNCTIONAL 10.00 0          0
PH18.1           50.00      10.00      0          FUNCTIONAL 10.00 0          0
2BOS.3           50.00      10.00      0          FUNCTIONAL 1000.00 0          0
P8.300           30.00      10.00      3.71       FUNCTIONAL 100.00 0          0
P8.000           30.00      10.00      3.74       FUNCTIONAL 100.00 0          0
P3.000           30.00      10.00      2.20       FUNCTIONAL 10.00 0          0
P2.300           30.00      10.00      2.06       FUNCTIONAL 10.00 0          0
P2.180           30.00      10.00      1.97       FUNCTIONAL 400.00 0          0
P7.000           30.00      10.00      3.34       FUNCTIONAL 200.00 0          0
45.00T           30.00      10.00      0          FUNCTIONAL 500.00 0          0
T20.00           30.00      10.00      0          FUNCTIONAL 100.00 0          0
T21.10           30.00      10.00      0          FUNCTIONAL 100.00 0          0
T22.50           30.00      10.00      1.70       FUNCTIONAL 500.00 0          0
5.020L           40.00      10.00      0.17       FUNCTIONAL 100.00 0          0
C1.300           40.00      10.00      0          FUNCTIONAL 100.00 0          0
C5.500           40.00      10.00      0          FUNCTIONAL 16.00 0          0
51.00T           40.00      10.00      0          FUNCTIONAL 100.00 0          0
Milsn2           40.00      10.00      0          FUNCTIONAL 50.00 0          0
D1.480           30.00      10.00      1.97       FUNCTIONAL 100.00 0          0
D1.220           25.00      10.00      0          FUNCTIONAL 100.00 0          0
2.060L           30.00      10.00      0.25       FUNCTIONAL 100.00 0          0
T17.00           30.00      10.00      0          FUNCTIONAL 10.00 0          0
H6.000           30.00      10.00      0.07       FUNCTIONAL 500.00 0          0
3.010T           30.00      10.00      0          FUNCTIONAL 100.00 0          0
6.020L           50.00      10.00      0          FUNCTIONAL 100.00 0          0
PH2.1            40.00      10.00      0          FUNCTIONAL 2.00 0          0
T32.50           40.00      10.00      0          FUNCTIONAL 2.00 0          0
G3.100           50.00      10.00      0          FUNCTIONAL 5.00 0          0

[CONDUITS]
;;Name           From             To               Length     Roughness  InOffset   OutOffset  InitFlow   MaxFlow
;;-------------- ---------------- ---------------- ---------- ---------- ---------- ---------- ---------- ----------
T35-40           T35.40           T35.08           220.00     0.0130     24.97      24.30      0          0
T35-70           T36.10           T35.40           178.08     0.0130     25.85      24.97      0          0
B7-00            B7.00            8.050L           180.00     0.0130     28.93      28.39      0          0
B6-00            8.050L           B2.500           345.22     0.0130     28.39      25.37      0          0
B11-00           B12.00           B7.00            361.00     0.0130     29.90      28.93      0          0
B14-01           B14.01           B12.00           220.00     0.0130     31.55      29.90      0          0
B15-00           B15.15           B14.01           137.00     0.0130     31.90      31.42      0          0
B18-00           82.00T           8.030L           165.00     0.0130     35.05      34.58      0          0
B17-50           8.030L           B16.51           276.00     0.0130     34.58      33.20      0          0
B16-51           B16.51           B15.15           331.00     0.0130     33.20      32.01      0          0
GM3-80           GM4.20           GM3.40           195.73     0.0130     32.34      30.14      0          0
GM7-00           GM7.20           GM5.50           277.08     0.0130     35.97      33.52      0          0
L6-10            L7.10            L4.00            282.00     0.0130     31.96      30.63      0          0
B21-1C           B21-1R           B21.00           27.66      0.0150     35.92      35.80      0          0
GM2-00           10.01L           8.050L           185.71     0.0130     29.20      28.39      0          0
GM3-40           GM3.40           10.01L           250.00     0.0130     30.14      29.20      0          0
T37-36           T37.70           T37.20           178.00     0.0130     34.00      32.23      0          0
T36-97           T39.97           T36.95           225.00     0.0130     29.80      29.23      0          0
T37-20           T37.20           T39.97           234.80     0.0130     32.23      29.80      0          0
L8-00            L8.10            L7.10            124.80     0.0130     32.98      31.96      0          0
L10-50           9.030T           L8.10            274.50     0.0130     36.16      32.98      0          0
B26-00           B28.00           B25.00           198.00     0.0130     40.03      38.37      0          0
B25-00           B25.00           B23.10           296.00     0.0130     38.37      36.48      0          0
B23-00           B23.10           8.020L           266.48     0.0130     36.48      35.92      0          0
B33-50           8.010T           B28.00           397.00     0.0130     41.31      40.03      0          0
T56-30           T56.50           T56.10           357.00     0.0130     43.73      36.86      0          0
T56-10           T56.10           1.020L           203.00     0.0130     36.86      34.20      0          0
T56-80           18.01T           T56.50           226.00     0.0130     47.50      43.74      0          0
T50-90           T50.90           T50.70           239.00     0.0130     40.57      38.66      0          0
T50-70           T50.70           T50.50           167.00     0.0130     38.66      37.76      0          0
T50-50           T50.50           T50.30           209.00     0.0130     37.76      37.17      0          0
T50-30           T50.30           1.020L           382.00     0.0130     37.17      36.38      0          0
36-75            Node_75          Node_1012365     362.80     0.0130     29.23      27.16      0          0
36-50            1.030L           T36.10           208.00     0.0130     27.16      25.85      0          0
B2-200           Node_200         Node_13101338    214.00     0.0130     25.37      24.58      0          0
44-50            Node_50          Node_1163374     319.00     0.0130     34.17      33.64      0          0
Bsn-3o           Bsn-3w           Bsn-3b           43.92      0.0120     34.17      33.98      0          0
M5-50            Node_50          Node_1329471     356.10     0.0130     33.52      32.34      0          0
51-0             Node_51          Node_1904930     151.70     0.0130     42.20      40.57      0          0
T51-4            Node_51          Node_19101904    325.00     0.0130     44.30      42.20      0          0
T51-6            Node_51          Node_19141910    219.00     0.0130     45.97      44.30      0          0
T51-8            Node_51          Node_19181914    273.00     0.0130     48.80      45.97      0          0
T52-1            Node_52          Node_19221918    201.00     0.0130     50.58      48.80      0          0
T52-3            Node_52          Node_19261922    260.00     0.0130     56.03      50.58      0          0
T53-0            Node_53          Node_19341926    334.50     0.0130     62.66      56.08      0          0
T53-3            Node_53          Node_19391934    201.40     0.0130     65.00      62.66      0          0
T53-5            Node_53          Node_19441939    192.50     0.0130     69.00      65.00      0          0
T53-7            Node_53          Node_19481944    263.00     0.0130     71.52      69.00      0          0
T57-7            Node_57          Node_19751904    489.00     0.0130     48.05      42.20      0          0
T58-3            Node_58          Node_19801975    325.00     0.0130     52.14      48.05      0          0
T58-5            Node_58          Node_19861980    168.00     0.0130     54.08      52.14      0          0
G2-60            Node_60          Node_31332099    323.80     0.0130     24.63      23.52      0          0
BAS2BL           1.050L           2BOS.5           250.00     0.0130     23.70      23.30      0          0
G14-50           Node_50          Node_23392135    340.00     0.0130     34.31      33.36      0          0
10-60            Node_60          Node_2423644     980.00     0.0350     42.00      36.16      0          0
L10-70           Node_70          Node_24252423    550.00     0.0350     46.00      42.00      0          0
L10-80           Node_80          Node_24292425    850.00     0.0350     55.50      46.00      0          0
19-10            B21.00           82.00T           287.84     0.0130     35.80      35.05      0          0
P2-900           Node_900         Node_24612464    263.00     0.0140     0          0          0          0
P2-180           Node_180         Node_24692474    242.00     0.0140     0          0          0          0
P8-200           Node_200         Node_24572458    137.00     0.0140     0.73       0.72       0          0
P7-200           Node_200         Node_24582480    184.00     0.0130     0.70       0.88       0          0
P2-200           Node_200         Node_24642469    150.00     0.0140     0          0          0          0
P6-100           Node_100         Node_24802461    160.60     0.0130     0.37       0.32       0          0
T22-50           Node_50          Node_25122508    251.00     0.0130     8.15       9.78       0          0
F2-344           Node_344         Node_25292525    331.00     0.0130     13.62      12.06      0          0
F2-280           Node_280         Node_25252521    308.60     0.0130     12.06      9.83       0          0
F2-252           Node_252         Node_25212520    145.00     0.0130     9.83       9.23       0          0
F2-100           Node_100         Node_25202506    150.00     0.0130     9.23       8.00       0          0
F2-470           Node_470         Node_25512529    328.00     0.0130     15.37      13.62      0          0
C2-800           Node_800         Node_25702567    212.00     0.0130     14.44      13.22      0          0
C1-500           Node_500         Node_25672564    191.80     0.0130     13.20      11.85      0          0
C1-300           Node_300         Node_25642561    245.00     0.0130     11.85      9.68       0          0
C3-900           Node_900         Node_25882571    253.80     0.0130     17.09      15.33      0          0
C4-800           Node_800         Node_25982588    361.00     0.0130     19.26      17.09      0          0
C5-980           Node_980         Node_26082598    153.00     0.0130     20.27      19.42      0          0
C9-500           Node_500         Node_26312627    130.50     0.0130     23.84      23.07      0          0
F2-590           Node_590         Node_26672664    165.50     0.0130     18.44      17.18      0          0
F2-570           Node_570         Node_26642661    324.00     0.0130     17.18      15.72      0          0
F2-530           Node_530         Node_26612551    160.50     0.0130     15.72      15.37      0          0
F2-690           Node_690         Node_26792667    163.00     0.0130     19.55      18.44      0          0
F2-840           Node_840         Node_26922685    646.00     0.0130     24.13      21.24      0          0
F2-780           Node_780         Node_26852832    225.00     0.0130     21.24      20.70      0          0
F2-720           Node_720         Node_28322679    174.90     0.0130     20.70      19.55      0          0
D1-900           Node_900         Node_28472851    207.00     0.0140     14.51      14.44      0          0
D1-800           Node_800         Node_28512916    221.00     0.0140     14.44      12.83      0          0
D1-525           Node_525         Node_29342858    210.00     0.0140     12.65      10.93      0          0
D1-160           Node_160         Node_28662872    322.00     0.0140     8.35       6.00       0          0
D1-190           Node_190         Node_28632866    189.10     0.0140     9.30       8.35       0          0
D2-320           Node_320         Node_28922936    275.00     0.0140     15.60      15.10      0          0
D2-400           Node_400         Node_28982900    220.00     0.0140     17.95      17.85      0          0
D2-450           Node_450         Node_29052909    356.00     0.0140     24.00      23.40      0          0
D2-430           Node_430         Node_29092895    211.00     0.0140     23.40      23.00      0          0
D2-480           Node_480         Node_29122905    426.00     0.0140     26.40      24.00      0          0
D1-710           Node_710         Node_29162920    213.00     0.0140     12.83      13.30      0          0
D1-650           Node_650         Node_29202924    186.00     0.0140     13.54      11.83      0          0
D1-580           Node_580         Node_29242934    316.00     0.0140     11.83      12.65      0          0
D1-290           Node_290         Node_28582863    341.00     0.0140     10.93      9.30       0          0
D2-300           Node_300         Node_29362847    370.00     0.0140     15.10      14.51      0          0
D2-390           Node_390         Node_29002886    436.00     0.0140     17.85      17.55      0          0
D2-340           Node_340         Node_28902942    200.00     0.0140     16.80      16.20      0          0
D2-330           Node_330         Node_29422892    180.00     0.0140     16.20      15.60      0          0
D2-600           Node_600         Node_29452952    443.00     0.0140     37.65      33.00      0          0
D2-560           Node_560         Node_29522958    228.00     0.0140     33.00      31.00      0          0
D2-530           Node_530         Node_29582962    274.00     0.0140     30.90      29.00      0          0
D2-510           Node_510         Node_29622912    332.00     0.0140     29.00      26.40      0          0
P14-50           Node_50          Node_28722987    205.00     0.0140     3.08       4.31       0          0
P9-100           Node_100         Node_29693049    260.00     0.0140     1.41       1.40       0          0
P8-900           Node_900         Node_30512457    245.00     0.0140     0.74       0.73       0          0
T32-70           Node_70          Node_20533130    190.00     0.0130     19.21      19.01      0          0
T32-50           Node_50          Node_31302055    186.00     0.0130     19.01      18.09      0          0
G3-140           Node_140         Node_21173133    292.00     0.0130     26.38      24.63      0          0
PH1-80           Node_80          Node_31042067    342.90     0.0130     23.58      23.00      0          0
D3-500           Node_500         Node_31663167    220.00     0.0350     60.00      57.00      0          0
D4-100           Node_100         Node_31693167    350.00     0.0350     59.50      57.00      0          0
D3-450           Node_450         Node_31673171    600.00     0.0350     57.00      52.50      0          0
D5-100           Node_100         Node_31733171    400.00     0.0350     62.50      52.50      0          0
D3-400           Node_400         Node_31713175    720.00     0.0350     52.50      39.50      0          0
D3-350           Node_350         Node_31752945    50.00      0.0350     39.50      37.65      0          0
D7-100           Node_100         Node_31793180    50.00      0.0350     75.00      74.00      0          0
D6-100           Node_100         Node_31823180    50.00      0.0350     75.00      74.00      0          0
D7-200           Node_200         Node_31803184    1250.00    0.0350     74.00      39.00      0          0
D7-300           Node_300         Node_31842945    50.00      0.0350     39.00      37.65      0          0
H9-100           Node_100         Node_31943027    2600.00    0.0140     54.00      40.00      0          0
2b-slt           1.050L           T33.40           84.00      0.0130     21.55      21.00      0          0

[WEIRS]
;;Name           From             To               Type       CrestHt    Qcoeff     Gated    EndCon   EndCoeff   Surcharge
;;-------------- ---------------- ---------------- ---------- ---------- ---------- -------- -------- ---------- ----------
2BOS41           2BOS42           Node_23132306    TRANSVERSE 23.00      1.840      NO       0        0          YES
2B-SW2           2B-SW2           Node_23162068    TRANSVERSE 27.70      1.840      NO       0        0          YES
PH9-5W           PH9-5T           Node_20812319    TRANSVERSE 31.80      1.840      NO       0        0          YES
Hartw3           Hartc            Node_25712570    TRANSVERSE 19.30      1.840      NO       0        0          YES

[XSECTIONS]
;;Link           Shape        Geom1      Geom2      Geom3      Geom4      Barrels
;;-------------- ------------ ---------- ---------- ---------- ---------- ----------
T35-40           TRAPEZOIDAL  8.00       10.00      2          2          1
T35-70           TRAPEZOIDAL  8.00       10.00      2          2          1
B7-00            TRAPEZOIDAL  8.00       10.00      2          2          1
B6-00            TRAPEZOIDAL  8.00       10.00      2          2          1
B11-00           TRAPEZOIDAL  8.00       10.00      2          2          1
B14-01           TRAPEZOIDAL  8.00       10.00      2          2          1
B15-00           TRAPEZOIDAL  8.00       10.00      2          2          1
B18-00           TRAPEZOIDAL  8.00       10.00      2          2          1
B17-50           TRAPEZOIDAL  8.00       10.00      2          2          1
B16-51           TRAPEZOIDAL  8.00       10.00      2          2          1
GM3-80           TRAPEZOIDAL  8.00       10.00      2          2          1
GM7-00           TRAPEZOIDAL  8.00       10.00      2          2          1
L6-10            TRAPEZOIDAL  8.00       10.00      2          2          1
B21-1C           RECT_CLOSED  1.83       3.05       0          0          4
GM2-00           TRAPEZOIDAL  8.00       10.00      2          2          1
GM3-40           TRAPEZOIDAL  8.00       10.00      2          2          1
T37-36           TRAPEZOIDAL  8.00       10.00      2          2          1
T36-97           TRAPEZOIDAL  8.00       10.00      2          2          1
T37-20           TRAPEZOIDAL  8.00       10.00      2          2          1
L8-00            TRAPEZOIDAL  8.00       10.00      2          2          1
L10-50           TRAPEZOIDAL  8.00       10.00      2          2          1
B26-00           TRAPEZOIDAL  8.00       10.00      2          2          1
B25-00           TRAPEZOIDAL  8.00       10.00      2          2          1
B23-00           TRAPEZOIDAL  8.00       10.00      2          2          1
B33-50           TRAPEZOIDAL  8.00       10.00      2          2          1
T56-30           TRAPEZOIDAL  8.00       10.00      2          2          1
T56-10           TRAPEZOIDAL  8.00       10.00      2          2          1
T56-80           TRAPEZOIDAL  8.00       10.00      2          2          1
T50-90           TRAPEZOIDAL  8.00       10.00      2          2          1
T50-70           TRAPEZOIDAL  8.00       10.00      2          2          1
T50-50           TRAPEZOIDAL  8.00       10.00      2          2          1
T50-30           TRAPEZOIDAL  8.00       10.00      2          2          1
36-75            TRAPEZOIDAL  8.00       10.00      2          2          1
36-50            TRAPEZOIDAL  8.00       10.00      2          2          1
B2-200           TRAPEZOIDAL  8.00       10.00      2          2          1
44-50            TRAPEZOIDAL  8.00       10.00      2          2          1
Bsn-3o           RECT_CLOSED  2.70       3.30       0          0          2
M5-50            TRAPEZOIDAL  8.00       10.00      2          2          1
51-0             TRAPEZOIDAL  8.00       10.00      2          2          1
T51-4            TRAPEZOIDAL  8.00       10.00      2          2          1
T51-6            TRAPEZOIDAL  8.00       10.00      2          2          1
T51-8            TRAPEZOIDAL  8.00       10.00      2          2          1
T52-1            TRAPEZOIDAL  8.00       10.00      2          2          1
T52-3            TRAPEZOIDAL  8.00       10.00      2          2          1
T53-0            TRAPEZOIDAL  8.00       10.00      2          2          1
T53-3            TRAPEZOIDAL  8.00       10.00      2          2          1
T53-5            TRAPEZOIDAL  8.00       10.00      2          2          1
T53-7            TRAPEZOIDAL  8.00       10.00      2          2          1
T57-7            TRAPEZOIDAL  8.00       10.00      2          2          1
T58-3            TRAPEZOIDAL  8.00       10.00      2          2          1
T58-5            TRAPEZOIDAL  8.00       10.00      2          2          1
G2-60            TRAPEZOIDAL  8.00       10.00      2          2          1
BAS2BL           TRAPEZOIDAL  10.00      10.00      2          2          1
G14-50           TRAPEZOIDAL  8.00       10.00      2          2          1
10-60            TRAPEZOIDAL  2.00       3.00       1          1          1
L10-70           TRAPEZOIDAL  2.00       3.00       1          1          1
L10-80           TRAPEZOIDAL  2.00       3.00       1          1          1
19-10            TRAPEZOIDAL  8.00       10.00      2          2          1
P2-900           TRAPEZOIDAL  10.00      10.00      2          2          1
P2-180           TRAPEZOIDAL  10.00      10.00      2          2          1
P8-200           TRAPEZOIDAL  12.00      10.00      2          2          1
P7-200           TRAPEZOIDAL  12.00      10.00      2          2          1
P2-200           TRAPEZOIDAL  10.00      10.00      2          2          1
P6-100           TRAPEZOIDAL  12.00      10.00      2          2          1
T22-50           TRAPEZOIDAL  12.00      10.00      2          2          1
F2-344           TRAPEZOIDAL  8.00       10.00      2          2          1
F2-280           TRAPEZOIDAL  8.00       10.00      2          2          1
F2-252           TRAPEZOIDAL  8.00       10.00      2          2          1
F2-100           TRAPEZOIDAL  8.00       10.00      2          2          1
F2-470           TRAPEZOIDAL  8.00       10.00      2          2          1
C2-800           TRAPEZOIDAL  8.00       10.00      2          2          1
C1-500           TRAPEZOIDAL  8.00       10.00      2          2          1
C1-300           TRAPEZOIDAL  8.00       10.00      2          2          1
C3-900           TRAPEZOIDAL  8.00       10.00      2          2          1
C4-800           TRAPEZOIDAL  8.00       10.00      2          2          1
C5-980           TRAPEZOIDAL  8.00       10.00      2          2          1
C9-500           TRAPEZOIDAL  8.00       10.00      2          2          1
F2-590           TRAPEZOIDAL  8.00       10.00      2          2          1
F2-570           TRAPEZOIDAL  8.00       10.00      2          2          1
F2-530           TRAPEZOIDAL  8.00       10.00      2          2          1
F2-690           TRAPEZOIDAL  8.00       10.00      2          2          1
F2-840           TRAPEZOIDAL  8.00       10.00      2          2          1
F2-780           TRAPEZOIDAL  8.00       10.00      2          2          1
F2-720           TRAPEZOIDAL  8.00       10.00      2          2          1
D1-900           TRAPEZOIDAL  10.00      10.00      2          2          1
D1-800           TRAPEZOIDAL  10.00      10.00      2          2          1
D1-525           TRAPEZOIDAL  10.00      10.00      2          2          1
D1-160           TRAPEZOIDAL  10.00      10.00      2          2          1
D1-190           TRAPEZOIDAL  10.00      10.00      2          2          1
D2-320           TRAPEZOIDAL  10.00      10.00      2          2          1
D2-400           TRAPEZOIDAL  10.00      10.00      2          2          1
D2-450           TRAPEZOIDAL  10.00      10.00      2          2          1
D2-430           TRAPEZOIDAL  10.00      10.00      2          2          1
D2-480           TRAPEZOIDAL  10.00      10.00      2          2          1
D1-710           TRAPEZOIDAL  10.00      10.00      2          2          1
D1-650           TRAPEZOIDAL  10.00      10.00      2          2          1
D1-580           TRAPEZOIDAL  10.00      10.00      2          2          1
D1-290           TRAPEZOIDAL  10.00      10.00      2          2          1
D2-300           TRAPEZOIDAL  10.00      10.00      2          2          1
D2-390           TRAPEZOIDAL  10.00      10.00      2          2          1
D2-340           TRAPEZOIDAL  10.00      10.00      2          2          1
D2-330           TRAPEZOIDAL  10.00      10.00      2          2          1
D2-600           TRAPEZOIDAL  10.00      10.00      2          2          1
D2-560           TRAPEZOIDAL  10.00      10.00      2          2          1
D2-530           TRAPEZOIDAL  10.00      10.00      2          2          1
D2-510           TRAPEZOIDAL  10.00      10.00      2          2          1
P14-50           TRAPEZOIDAL  12.00      10.00      2          2          1
P9-100           TRAPEZOIDAL  12.00      10.00      2          2          1
P8-900           TRAPEZOIDAL  12.00      10.00      2          2          1
T32-70           TRAPEZOIDAL  10.00      10.00      2          2          1
T32-50           TRAPEZOIDAL  10.00      10.00      2          2          1
G3-140           TRAPEZOIDAL  8.00       10.00      2          2          1
PH1-80           TRAPEZOIDAL  8.00       10.00      2          2          1
D3-500           TRAPEZOIDAL  2.00       3.00       1          1          1
D4-100           TRAPEZOIDAL  2.00       3.00       1          1          1
D3-450           TRAPEZOIDAL  2.00       3.00       1          1          1
D5-100           TRAPEZOIDAL  2.00       3.00       1          1          1
D3-400           TRAPEZOIDAL  2.00       3.00       1          1          1
D3-350           TRAPEZOIDAL  2.00       3.00       1          1          1
D7-100           TRAPEZOIDAL  2.00       3.00       1          1          1
D6-100           TRAPEZOIDAL  2.00       3.00       1          1          1
D7-200           TRAPEZOIDAL  2.00       3.00       1          1          1
D7-300           TRAPEZOIDAL  2.00       3.00       1          1          1
H9-100           TRAPEZOIDAL  2.00       3.00       1          1          1
2b-slt           TRAPEZOIDAL  10.00      10.00      2          2          1
2BOS41           RECT_OPEN    1.00       12.80      0          0
2B-SW2           RECT_OPEN    1.00       55.00      0          0
PH9-5W           RECT_OPEN    1.00       10.00      0          0
Hartw3           RECT_OPEN    1.00       40.00      0          0

[LOSSES]
;;Link           Inlet      Outlet     Average    Flap Gate
;;-------------- ---------- ---------- ---------- ----------
T35-40           0          0          0          NO
T35-70           0          0          0          NO
B7-00            0          0          0          NO
B6-00            0          0          0          NO
B11-00           0          0          0          NO
B14-01           0          0          0          NO
B15-00           0          0          0          NO
B18-00           0          0          0          NO
B17-50           0          0          0          NO
B16-51           0          0          0          NO
GM3-80           0          0          0          NO
GM7-00           0          0          0          NO
L6-10            0          0          0          NO
B21-1C           0          0          0          NO
GM2-00           0          0          0          NO
GM3-40           0          0          0          NO
T37-36           0          0          0          NO
T36-97           0          0          0          NO
T37-20           0          0          0          NO
L8-00            0          0          0          NO
L10-50           0          0          0          NO
B26-00           0          0          0          NO
B25-00           0          0          0          NO
B23-00           0          0          0          NO
B33-50           0          0          0          NO
T56-30           0          0          0          NO
T56-10           0          0          0          NO
T56-80           0          0          0          NO
T50-90           0          0          0          NO
T50-70           0          0          0          NO
T50-50           0          0          0          NO
T50-30           0          0          0          NO
36-75            0          0          0          NO
36-50            0          0          0          NO
B2-200           0          0          0          NO
44-50            0          0          0          NO
Bsn-3o           0          0          0          NO
M5-50            0          0          0          NO
51-0             0          0          0          NO
T51-4            0          0          0          NO
T51-6            0          0          0          NO
T51-8            0          0          0          NO
T52-1            0          0          0          NO
T52-3            0          0          0          NO
T53-0            0          0          0          NO
T53-3            0          0          0          NO
T53-5            0          0          0          NO
T53-7            0          0          0          NO
T57-7            0          0          0          NO
T58-3            0          0          0          NO
T58-5            0          0          0          NO
G2-60            0          0          0          NO
BAS2BL           0          0          0          NO
G14-50           0          0          0          NO
10-60            0          0          0          NO
L10-70           0          0          0          NO
L10-80           0          0          0          NO
19-10            0          0          0          NO
P2-900           0          0          0          NO
P2-180           0          0          0          NO
P8-200           0          0          0          NO
P7-200           0          0          0          NO
P2-200           0          0          0          NO
P6-100           0          0          0          NO
T22-50           0          0          0          NO
F2-344           0          0          0          NO
F2-280           0          0          0          NO
F2-252           0          0          0          NO
F2-100           0          0          0          NO
F2-470           0          0          0          NO
C2-800           0          0          0          NO
C1-500           0          0          0          NO
C1-300           0          0          0          NO
C3-900           0          0          0          NO
C4-800           0          0          0          NO
C5-980           0          0          0          NO
C9-500           0          0          0          NO
F2-590           0          0          0          NO
F2-570           0          0          0          NO
F2-530           0          0          0          NO
F2-690           0          0          0          NO
F2-840           0          0          0          NO
F2-780           0          0          0          NO
F2-720           0          0          0          NO
D1-900           0          0          0          NO
D1-800           0          0          0          NO
D1-525           0          0          0          NO
D1-160           0          0          0          NO
D1-190           0          0          0          NO
D2-320           0          0          0          NO
D2-400           0          0          0          NO
D2-450           0          0          0          NO
D2-430           0          0          0          NO
D2-480           0          0          0          NO
D1-710           0          0          0          NO
D1-650           0          0          0          NO
D1-580           0          0          0          NO
D1-290           0          0          0          NO
D2-300           0          0          0          NO
D2-390           0          0          0          NO
D2-340           0          0          0          NO
D2-330           0          0          0          NO
D2-600           0          0          0          NO
D2-560           0          0          0          NO
D2-530           0          0          0          NO
D2-510           0          0          0          NO
P14-50           0          0          0          NO
P9-100           0          0          0          NO
P8-900           0          0          0          NO
T32-70           0          0          0          NO
T32-50           0          0          0          NO
G3-140           0          0          0          NO
PH1-80           0          0          0          NO
D3-500           0          0          0          NO
D4-100           0          0          0          NO
D3-450           0          0          0          NO
D5-100           0          0          0          NO
D3-400           0          0          0          NO
D3-350           0          0          0          NO
D7-100           0          0          0          NO
D6-100           0          0          0          NO
D7-200           0          0          0          NO
D7-300           0          0          0          NO
H9-100           0          0          0          NO
2b-slt           0          0          0          NO

[COORDINATES]
;;Node           X-Coord            Y-Coord
;;-------------- ------------------ ------------------
T36.10           -63.03             -52.03            
1.030L           -91.50             -61.50            
T37.70           -361.50            -61.50            
B7.00            58.50              -211.50           
8.050L           78.50              -161.50           
B12.00           38.50              -321.50           
B14.01           38.50              -411.50           
82.00T           88.50              -721.50           
8.030L           28.50              -691.50           
B16.51           28.50              -621.50           
8.020L           218.50             -731.50           
10.01L           148.50             -201.50           
GM4.20           286.97             -282.03           
L7.10            -121.50            -211.50           
L8.10            -181.50            -211.50           
B21.00           178.50             -731.50           
B15.15           28.50              -511.50           
GM3.40           228.50             -251.50           
GM7.20           408.50             -321.50           
9.030T           -211.50            -211.50           
T39.97           -211.50            -61.50            
T35.40           -11.50             8.50              
T37.20           -301.50            -61.50            
B25.00           318.50             -731.50           
B23.10           278.50             -731.50           
B28.00           388.50             -731.50           
8.010T           448.50             -731.50           
1.050L           88.50              148.50            
T56.10           -451.50            -11.50            
T56.50           -461.50            28.50             
18.01T           -463.03            77.97             
T50.30           -513.03            -62.03            
T50.50           -543.03            -62.03            
T50.70           -573.03            -62.03            
T50.90           -611.50            -61.50            
T36.95           -151.50            -61.50            
T40.01           -401.50            8.50              
1.020L           -453.65            -62.13            
B2.500           78.50              -1.50             
T45.00           -424.36            -50.62            
GM5.50           348.50             -301.50           
10.00T           466.75             -342.02           
B0.500           88.50              68.50             
T35.08           28.50              58.50             
1.010L           -653.03            -62.03            
T51.4            -683.03            -62.03            
T51.6            -713.03            -62.03            
T51.8            -743.03            -62.03            
T52.1            -773.03            -62.03            
T52.3            -803.03            -62.03            
T53.0            -851.50            -61.50            
T53.3            -891.50            -61.50            
T53.5            -921.50            -61.50            
1.000C           -951.50            -61.50            
T58.0            -721.50            -111.50           
T58.3            -761.50            -111.50           
95.00T           -801.50            -111.50           
T32.70           68.50              418.50            
T32.30           68.50              498.50            
1.070L           88.50              538.50            
T30.30           68.50              588.50            
T33.40           68.50              298.50            
6.030L           138.50             248.50            
PH1.15           118.50             278.50            
PH9.5            598.50             258.50            
PH11.0           638.50             238.50            
6.010L           748.50             208.50            
G2.20            188.50             158.50            
65.04L           418.50             138.50            
G5.00            458.50             138.50            
G9.50            518.50             -21.50            
G12.00           588.50             -21.50            
G13.00           618.50             -21.50            
G13.20           658.50             -21.50            
65.02L           768.50             -21.50            
65.03L           488.50             38.50             
PH16.0           898.50             228.50            
PH18.1           998.50             228.50            
PH19.4           1048.50            228.50            
PH19.8           1088.50            228.50            
PH20.2           1148.50            228.50            
6.000T           1238.50            228.50            
PH1.10           88.50              248.50            
G6.70            478.50             78.50             
T30.10           68.50              638.50            
T30.00           98.50              638.50            
T29.30           108.50             688.50            
T28.05           98.50              738.50            
T27.20           138.50             738.50            
T27.15           148.50             768.50            
T27.10           118.50             768.50            
T27.08           88.50              788.50            
T27.04           108.50             828.50            
T27.00           178.50             818.50            
1.080L           178.50             858.50            
1.20J            118.50             868.50            
T26.05           168.50             908.50            
13.01T           48.50              868.50            
2BOS.1           48.50              288.50            
2BOS.2           48.50              258.50            
2BOS.3           58.50              228.50            
2BOS.4           68.50              198.50            
2BOS.5           88.50              178.50            
PH9.25           568.50             248.50            
G14.50           698.50             -21.50            
PH8.05           528.50             248.50            
PH6.6            468.50             248.50            
9.020C           -241.50            -211.50           
9.010J           -271.50            -211.50           
92.00C           -301.50            -241.50           
9.000C           -301.50            -181.50           
8.000C           478.50             -731.50           
P8.300           -81.50             1388.50           
P8.000           -81.50             1468.50           
P3.000           -81.50             1658.50           
P2.300           -81.50             1748.50           
P2.180           -81.50             1828.50           
1.160L           -91.50             1868.50           
P1.000           -91.50             1938.50           
P7.000           -81.50             1528.50           
45.00T           -111.50            1828.50           
T19.00           418.50             1148.50           
T20.00           418.50             1088.50           
T21.10           398.50             978.50            
T22.50           388.50             878.50            
F2.240           428.50             1048.50           
F2.260           488.50             1048.50           
4.020L           548.50             1048.50           
F2.350           628.50             1048.50           
F2.500           768.50             1048.50           
5.020L           388.50             818.50            
C1.300           388.50             748.50            
C2.200           418.50             708.50            
C3.000           488.50             698.50            
C3.300           538.50             698.50            
5.010L           588.50             698.50            
C5.500           698.50             698.50            
C6.000           798.50             698.50            
51.00T           488.50             1108.50           
Milsn2           468.50             1088.50           
C8.000           908.50             698.50            
5.000T           978.50             698.50            
F2.530           828.50             1048.50           
F2.570           878.50             1048.50           
F2.610           938.50             1048.50           
4.010L           998.50             1048.50           
F2.780           1168.50            1048.50           
4.000T           1258.50            1048.50           
1.090L           358.50             908.50            
T24.00           328.50             908.50            
T24.20           288.50             908.50            
T25.10           238.50             908.50            
T25.21           208.50             908.50            
F2.770           1108.50            1048.50           
D1.900           -171.50            1118.50           
D1.800           -121.50            1118.50           
D1.480           78.50              1098.50           
D1.220           188.50             1098.50           
2.080L           228.50             1158.50           
1.280J           228.50             1268.50           
D2.360           -401.50            1118.50           
D2.340           -361.50            1118.50           
D2.320           -291.50            1118.50           
2.050L           -541.50            1118.50           
D2.400           -481.50            1118.50           
D2.390           -451.50            1118.50           
34.00T           -631.50            1118.50           
D2.430           -571.50            1118.50           
D2.480           -691.50            1118.50           
D1.710           -101.50            1098.50           
D1.650           -71.50             1108.50           
D1.580           -41.50             1118.50           
2.060L           18.50              1098.50           
D2.300           -241.50            1118.50           
D2.330           -331.50            1118.50           
2.040J           -891.50            1118.50           
D2.560           -831.50            1118.50           
D2.540           -771.50            1118.50           
D2.510           -741.50            1118.50           
P9.100           -51.50             1288.50           
1.140L           -11.50             1268.50           
52.00T           48.50              1268.50           
P12.40           98.50              1268.50           
P13.00           148.50             1268.50           
P14.00           198.50             1268.50           
T16.00           288.50             1268.50           
T17.00           328.50             1268.50           
1.110L           378.50             1268.50           
T18.10           388.73             1238.58           
T18.30           408.50             1208.50           
H6.000           68.50              1178.50           
3.010T           -1.50              1208.50           
P9.000           -71.50             1318.50           
P8.900           -81.50             1358.50           
6.020L           388.50             248.50            
PH3.10           288.50             248.50            
PH2.1            248.50             248.50            
T32.50           68.50              458.50            
G3.100           328.50             138.50            
T33.10           68.50              368.50            
66.00C           828.50             -41.50            
65.01J           798.50             -21.50            
65.00C           828.50             -1.50             
13.00C           18.50              868.50            
2.000C           -921.50            1238.50           
2.010j           -921.50            1198.50           
21.00C           -951.50            1198.50           
2.020J           -921.50            1158.50           
23.00C           -951.50            1158.50           
2.030C           -921.50            1118.50           
25.00C           -961.50            1058.50           
25.01J           -941.50            1078.50           
24.00C           -961.50            1108.50           
25.02L           -911.50            1078.50           
3.000C           -31.50             1208.50           
48.00C           -141.50            1828.50           
9.040L           -1.50              -211.50           
L4.00            -51.50             -211.50           

[MAP]
DIMENSIONS -961.50 -731.50 1258.50 1938.50
Units      None

[REPORT]
SUBCATCHMENTS ALL
NODES ALL
LINKS ALL
