;; SWMM5 .inp converted from XPSWMM .xp file
;; Generated by XPSWMM Card Reader
;; Source format: XP_CARD | Original title: UPPER PARRAMATTA RIVER EXTRAN MODEL - 100YR FLOOD

[TITLE]
;;Project Title/Notes
UPPER PARRAMATTA RIVER EXTRAN MODEL - 100YR FLOOD

[OPTIONS]
FLOW_UNITS           CMS
INFILTRATION         HORTON
FLOW_ROUTING         DYNWAVE
LINK_OFFSETS         DEPTH
MIN_SLOPE            0.0
ALLOW_PONDING        NO
SKIP_STEADY_STATE    NO
ROUTING_STEP         00:00:20
VARIABLE_STEP        0.75
INERTIAL_DAMPING     PARTIAL
NORMAL_FLOW_LIMITED  BOTH
MAX_TRIALS           75
HEAD_TOLERANCE       .001
START_DATE           01/01/2001
START_TIME           00:00:00
REPORT_START_DATE    01/01/2001
REPORT_START_TIME    00:00:00
END_DATE             01/02/2001
END_TIME             00:00:00
SWEEP_START          01/01
SWEEP_END            12/31
DRY_DAYS             0
REPORT_STEP          00:15:00
WET_STEP             00:05:00
DRY_STEP             01:00:00

[JUNCTIONS]
;;Name           Elev       MaxDepth   InitDepth  SurDepth   Aponded
;;-------------- ---------- ---------- ---------- ---------- ----------
10926            70.00      0          0          0          0
10801            70.00      0          0          0          0
10749            70.00      0          0          0          0
10619            70.00      0          0          0          0
10535            70.00      0          0          0          0
10460            70.00      0          0          0          0
10350            70.00      0          0          0          0
10205            70.00      0          0          0          0
10155            70.00      0          0          0          0
9600             70.00      0          0          0          0
9000             70.00      0          0          0          0
8650             70.00      0          0          0          0
8400             70.00      0          0          0          0
8250             70.00      0          0          0          0
7700             70.00      0          0          0          0
7580             70.00      0          0          0          0
7400             70.00      0          0          0          0
7120             70.00      0          0          0          0
7000             70.00      0          0          0          0
6900             70.00      0          0          0          0
6250             70.00      0          0          0          0
5990             70.00      0          0          0          0
5500             70.00      0          0          0          0
5000             70.00      0          0          0          0
10000            70.00      0          0          0          0
10320            70.00      0          0          0          0
P13              9.10       0          0          0          0
P2               1.56       0          0          0          0
P8               2.30       0          0          0          0
P5.1             0.07       0          0          0          0

[OUTFALLS]
;;Name           Elev       Type       Stage      Gated
;;-------------- ---------- ---------- ---------- -----
10856            70.00      FREE                  NO

[STORAGE]
;;Name           Elev       MaxDepth   InitDepth  Shape      Curve/Params
;;-------------- ---------- ---------- ---------- ---------- ----------
10976            70.00      10.00      1.00       FUNCTIONAL 1000.00 0          0

[CONDUITS]
;;Name           From             To               Length     Roughness  InOffset   OutOffset  InitFlow   MaxFlow
;;-------------- ---------------- ---------------- ---------- ---------- ---------- ---------- ---------- ----------
P13.1            P13              10801            55.00      0.0140     9.10       9.10       0          0
P2.1             P2               10155            50.00      0.0130     1.56       1.56       0          0
180              10976            10926            50.00      0.0130     0.56       0.40       0          0
181              10926            10856            70.00      0.0130     0.40       0.35       0          0
183              10801            10749            52.00      0.0130     0.30       0.25       0          0
184              10749            10619            130.00     0.0130     0.25       0.20       0          0
185              10619            10535            84.00      0.0130     0.20       0.18       0          0
240              9600             9000             600.00     0.0130     0          0          0          0
241              9000             8650             350.00     0.0130     0          0          0          0
242              8650             8400             250.00     0.0130     0          0          0          0
243              8400             8250             150.00     0.0130     0          0          0          0
244              8250             7700             470.00     0.0130     0          0          0          0
245              7700             7580             200.00     0.0130     0          0          0          0
246              7580             7400             180.00     0.0130     0          0          0          0
247              7400             7120             200.00     0.0130     0          0          0          0
248              7120             7000             200.00     0.0130     0          0          0          0
249              7000             6900             150.00     0.0130     0          0          0          0
250              6900             6250             600.00     0.0130     0          0          0          0
251              6250             5990             260.00     0.0130     0          0          0          0
266              5990             5500             490.00     0.0130     0          0          0          0
267              5500             5000             500.00     0.0130     0          0          0          0
276              10000            9600             580.00     0.0130     0          0          0          0
191              10155            10000            161.00     0.0130     0          0          0          0
187              10460            10350            107.00     0.0130     0.17       0.07       0          0
P8.1             P8               10460            75.00      0.0130     2.30       2.30       0          0
P5               P5.1             10320            30.00      0.0500     0.07       0.07       0          0
291              10320            10205            118.00     0.0130     0.07       0.05       0          0

[XSECTIONS]
;;Link           Shape        Geom1      Geom2      Geom3      Geom4      Barrels
;;-------------- ------------ ---------- ---------- ---------- ---------- ----------
P13.1            TRAPEZOIDAL  30.00      10.00      2          2          1
P2.1             TRAPEZOIDAL  30.00      10.00      2          2          1
180              TRAPEZOIDAL  30.00      10.00      2          2          1
181              TRAPEZOIDAL  30.00      10.00      2          2          1
183              TRAPEZOIDAL  30.00      10.00      2          2          1
184              TRAPEZOIDAL  30.00      10.00      2          2          1
185              TRAPEZOIDAL  30.00      10.00      2          2          1
240              TRAPEZOIDAL  25.00      10.00      2          2          1
241              TRAPEZOIDAL  25.00      10.00      2          2          1
242              TRAPEZOIDAL  25.00      10.00      2          2          1
243              TRAPEZOIDAL  25.00      10.00      2          2          1
244              TRAPEZOIDAL  25.00      10.00      2          2          1
245              TRAPEZOIDAL  25.00      10.00      2          2          1
246              TRAPEZOIDAL  25.00      10.00      2          2          1
247              TRAPEZOIDAL  25.00      10.00      2          2          1
248              TRAPEZOIDAL  25.00      10.00      2          2          1
249              TRAPEZOIDAL  25.00      10.00      2          2          1
250              TRAPEZOIDAL  25.00      10.00      2          2          1
251              TRAPEZOIDAL  25.00      10.00      2          2          1
266              TRAPEZOIDAL  25.00      10.00      2          2          1
267              TRAPEZOIDAL  25.00      10.00      2          2          1
276              TRAPEZOIDAL  25.00      10.00      2          2          1
191              TRAPEZOIDAL  25.00      10.00      2          2          1
187              TRAPEZOIDAL  30.00      10.00      2          2          1
P8.1             TRAPEZOIDAL  30.00      10.00      2          2          1
P5               RECT_CLOSED  5.60       55.40      0          0          1
291              TRAPEZOIDAL  30.00      10.00      2          2          1

[LOSSES]
;;Link           Inlet      Outlet     Average    Flap Gate
;;-------------- ---------- ---------- ---------- ----------
P13.1            0          0          0          NO
P2.1             0          0          0          NO
180              0          0          0          NO
181              0          0          0          NO
183              0          0          0          NO
184              0          0          0          NO
185              0          0          0          NO
240              0          0          0          NO
241              0          0          0          NO
242              0          0          0          NO
243              0          0          0          NO
244              0          0          0          NO
245              0          0          0          NO
246              0          0          0          NO
247              0          0          0          NO
248              0          0          0          NO
249              0          0          0          NO
250              0          0          0          NO
251              0          0          0          NO
266              0          0          0          NO
267              0          0          0          NO
276              0          0          0          NO
191              0          0          0          NO
187              0          0          0          NO
P8.1             0          0          0          NO
P5               0          0          0          NO
291              0          0          0          NO

[COORDINATES]
;;Node           X-Coord            Y-Coord
;;-------------- ------------------ ------------------
10976            45.23              -396.43           
10926            47.47              -370.84           
10856            42.19              -352.44           
10801            43.49              -334.92           
10749            43.92              -314.68           
10619            45.23              -297.94           
10535            46.09              -276.92           
10460            43.89              -253.56           
10350            44.05              -227.26           
10205            42.91              -187.93           
10155            43.20              -167.63           
9600             59.89              -111.82           
9000             79.65              -63.24            
8650             80.12              -27.27            
8400             65.84              8.96              
8250             85.25              41.75             
7700             72.81              76.71             
7580             95.04              117.89            
7400             97.37              143.82            
7120             99.70              165.99            
7000             106.32             188.27            
6900             111.82             210.75            
6250             114.15             232.50            
5990             114.62             254.67            
5500             103.23             274.14            
5000             114.62             300.27            
10000            49.40              -146.51           
10320            59.66              -209.61           

[MAP]
DIMENSIONS 42.19 -396.43 114.62 300.27
Units      None

[REPORT]
SUBCATCHMENTS ALL
NODES ALL
LINKS ALL
