;; SWMM5 .inp converted from XPSWMM .xp file
;; Generated by XPSWMM Card Reader
;; Source format: XP_CARD | Original title: Sample Sewer Network for Testing Sensitivity Analysis

[TITLE]
;;Project Title/Notes
Sample Sewer Network for Testing Sensitivity Analysis

[OPTIONS]
FLOW_UNITS           CFS
INFILTRATION         HORTON
FLOW_ROUTING         DYNWAVE
LINK_OFFSETS         DEPTH
MIN_SLOPE            0.0
ALLOW_PONDING        NO
SKIP_STEADY_STATE    NO
ROUTING_STEP         00:01:00
VARIABLE_STEP        0.75
INERTIAL_DAMPING     PARTIAL
NORMAL_FLOW_LIMITED  BOTH
MAX_TRIALS           50
START_DATE           01/01/2001
START_TIME           00:00:00
REPORT_START_DATE    01/01/2001
REPORT_START_TIME    00:00:00
END_DATE             01/02/2001
END_TIME             00:00:00
SWEEP_START          01/01
SWEEP_END            12/31
DRY_DAYS             0
REPORT_STEP          00:15:00
WET_STEP             00:05:00
DRY_STEP             01:00:00

[JUNCTIONS]
;;Name           Elev       MaxDepth   InitDepth  SurDepth   Aponded
;;-------------- ---------- ---------- ---------- ---------- ----------
Catch1           0          0          0          0          0
TJunc1           0          0          0          0          0
Tjunc2           0          0          0          0          0
Catch2           0          0          0          0          0
Tjunc3           0          0          0          0          0

[OUTFALLS]
;;Name           Elev       Type       Stage      Gated
;;-------------- ---------- ---------- ---------- -----
Catch3           0          FREE                  NO

[STORAGE]
;;Name           Elev       MaxDepth   InitDepth  Shape      Curve/Params
;;-------------- ---------- ---------- ---------- ---------- ----------
JuncT/E          23.00      10.00      0          FUNCTIONAL 18.00 0          0
LFJUNC1          22.00      10.00      0          FUNCTIONAL 18.00 0          0
LFJUNC2          22.00      10.00      0          FUNCTIONAL 18.00 0          0
PumpUS           21.00      10.00      0          FUNCTIONAL 100.00 0          0
Outfall          18.00      10.00      0          FUNCTIONAL 18.00 0          0
PumpDS           30.00      10.00      0          FUNCTIONAL 18.00 0          0
23               20.00      10.00      0          FUNCTIONAL 18.00 0          0
Outfall_2        19.00      10.00      0          FUNCTIONAL 18.00 0          0

[CONDUITS]
;;Name           From             To               Length     Roughness  InOffset   OutOffset  InitFlow   MaxFlow
;;-------------- ---------------- ---------------- ---------- ---------- ---------- ---------- ---------- ----------
201              Catch1           TJunc1           500.00     0.0140     0          0          0          0
202              TJunc1           Tjunc2           400.00     0.0140     0          0          0          0
204              Tjunc2           JuncT/E          375.00     0.0140     0          0          0          0
208              Catch2           Tjunc3           250.00     0.0140     0          0          0          0
209              Tjunc3           Tjunc2           350.00     0.0140     0          0          0          0
206              JuncT/E          LFJUNC1          150.00     0.0140     18.00      17.00      0          0
215.1            LFJUNC1          LFJUNC2          500.00     0.0130     18.00      16.00      0          0
214              LFJUNC2          PumpUS           300.00     0.0130     16.00      15.00      0          0
216              PumpUS           Outfall          100.00     0.0140     14.00      13.00      0          0
206_2            JuncT/E          PumpUS           800.00     0.0140     20.00      17.00      0          0
221              PumpDS           23               200.00     0.0130     24.00      14.50      0          0
223              23               Outfall          200.00     0.0130     14.00      13.00      0          0
234              Catch3           TJunc1           300.00     0.0140     0          0          0          0

[PUMPS]
;;Name           From             To               PumpCurve  Status   Startup    Shutoff
;;-------------- ---------------- ---------------- ---------- -------- ---------- ----------
222.1            PumpUS           PumpDS           PC_222_1   ON       17.00      14.50     

[CURVES]
;;Name           Type       X-Value    Y-Value
;;-------------- ---------- ---------- ----------
;; Synthesized generic pump curves — replace with actual pump data
PC_222_1         Pump1      0          5
PC_222_1                    10         10

[XSECTIONS]
;;Link           Shape        Geom1      Geom2      Geom3      Geom4      Barrels
;;-------------- ------------ ---------- ---------- ---------- ---------- ----------
201              CIRCULAR     2.50       0          0          0          1
202              CIRCULAR     2.50       0          0          0          1
204              CIRCULAR     3.00       0          0          0          1
208              CIRCULAR     2.00       0          0          0          1
209              CIRCULAR     2.50       0          0          0          1
206              CIRCULAR     0.50       0          0          0          1
215.1            CIRCULAR     3.00       0          0          0          1
214              CIRCULAR     3.00       0          0          0          1
216              CIRCULAR     1.00       0          0          0          1
206_2            CIRCULAR     2.00       0          0          0          1
221              CIRCULAR     3.00       0          0          0          1
223              CIRCULAR     3.00       0          0          0          1
234              CIRCULAR     1.50       0          0          0          1

[LOSSES]
;;Link           Inlet      Outlet     Average    Flap Gate
;;-------------- ---------- ---------- ---------- ----------
201              0          0          0          NO
202              0          0          0          NO
204              0          0          0          NO
208              0          0          0          NO
209              0          0          0          NO
206              0          0          0          NO
215.1            0          0          0          NO
214              0          0          0          NO
216              0          0          0          NO
206_2            0          0          0          NO
221              0          0          0          NO
223              0          0          0          NO
234              0          0          0          NO

[COORDINATES]
;;Node           X-Coord            Y-Coord
;;-------------- ------------------ ------------------
Catch1           39.78              40.05             
TJunc1           39.78              80.90             
Tjunc2           39.78              120.16            
JuncT/E          69.60              120.16            
Catch2           14.21              153.94            
Tjunc3           39.78              153.94            
LFJUNC1          69.60              93.07             
LFJUNC2          96.11              93.07             
PumpUS           96.11              120.20            
Outfall          119.31             120.20            
PumpDS           96.11              142.59            
23               96.11              164.58            
Outfall_2        117.41             164.58            
Catch3           16.11              80.90             

[MAP]
DIMENSIONS 14.21 40.05 119.31 164.58
Units      None

[REPORT]
SUBCATCHMENTS ALL
NODES ALL
LINKS ALL
