;; SWMM5 .inp converted from XPSWMM .xp file
;; Generated by XPSWMM Card Reader
;; Source format: XP_CARD | Original title: (none)
;; Links parsed from source: 12 | Routable in this .inp: 12

[TITLE]
;;Project Title/Notes
Converted from XPSWMM .xp file

[OPTIONS]
FLOW_UNITS           CFS
INFILTRATION         HORTON
FLOW_ROUTING         DYNWAVE
LINK_OFFSETS         DEPTH
MIN_SLOPE            0.0
ALLOW_PONDING        NO
SKIP_STEADY_STATE    NO
ROUTING_STEP         00:00:10
VARIABLE_STEP        0.75
INERTIAL_DAMPING     PARTIAL
NORMAL_FLOW_LIMITED  BOTH
MAX_TRIALS           50
START_DATE           01/01/2001
START_TIME           00:00:00
REPORT_START_DATE    01/01/2001
REPORT_START_TIME    00:00:00
END_DATE             01/02/2001
END_TIME             00:00:00
SWEEP_START          01/01
SWEEP_END            12/31
DRY_DAYS             0
REPORT_STEP          00:15:00
WET_STEP             00:05:00
DRY_STEP             01:00:00

[JUNCTIONS]
;;Name           Elev       MaxDepth   InitDepth  SurDepth   Aponded
;;-------------- ---------- ---------- ---------- ---------- ----------
201              200.00     0          0          0          0
202              200.00     0          0          0          0
204              5.00       0          0          0          0
206              5.00       0          0          0          0
208              5.00       0          0          0          0
210              200.00     0          0          0          0
212              200.00     0          0          0          0
214              200.00     0          0          0          0
216              200.00     0          0          0          0
220              200.00     0          0          0          0

[OUTFALLS]
;;Name           Elev       Type       Stage      Gated
;;-------------- ---------- ---------- ---------- -----
Outfall          200.00     FREE                  NO

[STORAGE]
;;Name           Elev       MaxDepth   InitDepth  Shape      Curve/Params
;;-------------- ---------- ---------- ---------- ---------- ----------
225              200.00     10.00      0          FUNCTIONAL 1000.00 0          0
227              200.00     10.00      0          FUNCTIONAL 1000.00 0          0

[CONDUITS]
;;Name           From             To               Length     Roughness  InOffset   OutOffset  InitFlow   MaxFlow
;;-------------- ---------------- ---------------- ---------- ---------- ---------- ---------- ---------- ----------
FM1              201              202              50.00      0.0110     0          0          0          0
fm3              202              204              50.00      0.0110     0          0          0          0
ss1              204              206              50.00      0.0110     0          0          0          0
ss2              206              208              50.00      0.0110     0          0          0          0
fm6              208              210              50.00      0.0110     0          0          0          0
FM7              210              212              50.00      0.0110     0          0          0          0
fm8              212              214              50.00      0.0110     0          0          0          0
fm9              214              216              50.00      0.0110     0          0          0          0
FM11             216              Outfall          50.00      0.0110     0          0          0          0
fm2              220              202              50.00      0.0110     0          0          0          0

[PUMPS]
;;Name           From             To               PumpCurve  Status   Startup    Shutoff
;;-------------- ---------------- ---------------- ---------- -------- ---------- ----------
P1               225              201              PC_P1      ON       1.00       0         
P2               227              220              PC_P2      ON       1.00       0         

[CURVES]
;;Name           Type       X-Value    Y-Value
;;-------------- ---------- ---------- ----------
;; Synthesized generic pump curves — replace with actual pump data
PC_P1            Pump1      0          5
PC_P1                       10         10
PC_P2            Pump1      0          5
PC_P2                       10         10

[XSECTIONS]
;;Link           Shape        Geom1      Geom2      Geom3      Geom4      Barrels
;;-------------- ------------ ---------- ---------- ---------- ---------- ----------
FM1              CIRCULAR     2.00       0          0          0          1
fm3              CIRCULAR     2.00       0          0          0          1
ss1              CIRCULAR     2.00       0          0          0          1
ss2              CIRCULAR     2.00       0          0          0          1
fm6              CIRCULAR     2.00       0          0          0          1
FM7              CIRCULAR     2.00       0          0          0          1
fm8              CIRCULAR     2.00       0          0          0          1
fm9              CIRCULAR     2.00       0          0          0          1
FM11             CIRCULAR     2.00       0          0          0          1
fm2              CIRCULAR     2.00       0          0          0          1

[LOSSES]
;;Link           Inlet      Outlet     Average    Flap Gate
;;-------------- ---------- ---------- ---------- ----------
FM1              0          0          0          NO
fm3              0          0          0          NO
ss1              0          0          0          NO
ss2              0          0          0          NO
fm6              0          0          0          NO
FM7              0          0          0          NO
fm8              0          0          0          NO
fm9              0          0          0          NO
FM11             0          0          0          NO
fm2              0          0          0          NO

[INFLOWS]
;;Node           Constituent  Time Series      Type     Mfactor  Sfactor  Baseline Pattern
;;-------------- ------------ ---------------- -------- -------- -------- -------- --------
;; SYNTHETIC TEST INFLOWS — the source .xp carried no constant inflows
;; and RUNF hydrology is not converted; 1.00 CFS is applied at each
;; headwater node so the network runs wet for QA. Replace with real
;; hydrology or inflow hydrographs before using results.
225              FLOW         ""               FLOW     1.0      1.0      1.00
227              FLOW         ""               FLOW     1.0      1.0      1.00

[COORDINATES]
;;Node           X-Coord            Y-Coord
;;-------------- ------------------ ------------------
201              17.64              17.64             
202              37.64              37.64             
204              37.64              57.64             
206              37.64              76.78             
208              37.64              97.64             
210              37.64              117.64            
212              37.64              137.64            
214              37.64              157.64            
216              37.64              177.64            
Outfall          37.64              197.64            
220              57.64              17.64             
225              -2.36              -2.36             
227              77.64              -2.36             

[MAP]
DIMENSIONS -2.36 -2.36 77.64 197.64
Units      None

[REPORT]
SUBCATCHMENTS ALL
NODES ALL
LINKS ALL
