;; SWMM5 .inp converted from XPSWMM .xp file
;; Generated by XPSWMM Card Reader
;; Source format: XP_CARD | Original title: (none)
;; Links parsed from source: 8 | Routable in this .inp: 8

[TITLE]
;;Project Title/Notes
Converted from XPSWMM .xp file

[OPTIONS]
FLOW_UNITS           CFS
INFILTRATION         HORTON
FLOW_ROUTING         DYNWAVE
LINK_OFFSETS         DEPTH
MIN_SLOPE            0.0
ALLOW_PONDING        NO
SKIP_STEADY_STATE    NO
ROUTING_STEP         00:05:00
VARIABLE_STEP        0.75
INERTIAL_DAMPING     PARTIAL
NORMAL_FLOW_LIMITED  BOTH
START_DATE           01/01/2001
START_TIME           00:00:00
REPORT_START_DATE    01/01/2001
REPORT_START_TIME    00:00:00
END_DATE             01/02/2001
END_TIME             00:00:00
SWEEP_START          01/01
SWEEP_END            12/31
DRY_DAYS             0
REPORT_STEP          00:15:00
WET_STEP             00:05:00
DRY_STEP             01:00:00

[JUNCTIONS]
;;Name           Elev       MaxDepth   InitDepth  SurDepth   Aponded
;;-------------- ---------- ---------- ---------- ---------- ----------
1                22.00      0          0          0          0
2                21.80      0          0          0          0
3                20.40      0          0          0          0
4                20.80      0          0          0          0
5                19.70      0          0          0          0
6                19.70      0          0          0          0
7                17.50      0          0          0          0
8                17.00      0          0          0          0

[OUTFALLS]
;;Name           Elev       Type       Stage      Gated
;;-------------- ---------- ---------- ---------- -----
9                15.70      FREE                  NO

[CONDUITS]
;;Name           From             To               Length     Roughness  InOffset   OutOffset  InitFlow   MaxFlow
;;-------------- ---------------- ---------------- ---------- ---------- ---------- ---------- ---------- ----------
L1-2             1                2                3300.00    0.0200     15.00      14.80      0          0
L2-3             2                3                3400.00    0.0200     14.80      12.40      0          0
L3-4             3                4                5500.00    0.0200     12.40      11.80      0          0
L4-5             4                5                4000.00    0.0200     11.80      10.70      0          0
L5-6             5                6                2800.00    0.0200     10.70      7.70       0          0
L6-7             6                7                3500.00    0.0200     7.70       5.50       0          0
L7-8             7                8                2000.00    0.0200     5.50       5.00       0          0
L8-9             8                9                2000.00    0.0200     5.00       3.70       0          0

[XSECTIONS]
;;Link           Shape        Geom1      Geom2      Geom3      Geom4      Barrels
;;-------------- ------------ ---------- ---------- ---------- ---------- ----------
L1-2             TRAPEZOIDAL  7.00       16.00      1          1          1
L2-3             TRAPEZOIDAL  7.00       20.00      1          1          1
L3-4             TRAPEZOIDAL  8.00       30.00      1          1          1
L4-5             TRAPEZOIDAL  9.00       40.00      1          1          1
L5-6             TRAPEZOIDAL  8.00       50.00      1          1          1
L6-7             TRAPEZOIDAL  12.00      50.00      1          1          1
L7-8             TRAPEZOIDAL  12.00      60.00      1          1          1
L8-9             TRAPEZOIDAL  12.00      60.00      1          1          1

[LOSSES]
;;Link           Inlet      Outlet     Average    Flap Gate
;;-------------- ---------- ---------- ---------- ----------
L1-2             0          0          0          NO
L2-3             0          0          0          NO
L3-4             0          0          0          NO
L4-5             0          0          0          NO
L5-6             0          0          0          NO
L6-7             0          0          0          NO
L7-8             0          0          0          NO
L8-9             0          0          0          NO

[INFLOWS]
;;Node           Constituent  Time Series      Type     Mfactor  Sfactor  Baseline Pattern
;;-------------- ------------ ---------------- -------- -------- -------- -------- --------
;; SYNTHETIC TEST INFLOWS — the source .xp carried no constant inflows
;; and RUNF hydrology is not converted; 1.00 CFS is applied at each
;; headwater node so the network runs wet for QA. Replace with real
;; hydrology or inflow hydrographs before using results.
1                FLOW         ""               FLOW     1.0      1.0      1.00

[COORDINATES]
;;Node           X-Coord            Y-Coord
;;-------------- ------------------ ------------------
1                -1110289.92        482551.42         
2                -1114360.11        485692.47         
3                -1119432.91        487097.12         
4                -1123466.60        487605.32         
5                -1126069.73        488079.82         
6                -1128540.92        488206.77         
7                -1130374.48        488545.63         
8                -1131368.32        491887.99         
9                -1132373.10        494028.83         

[MAP]
DIMENSIONS -1132373.10 482551.42 -1110289.92 494028.83
Units      None

[REPORT]
SUBCATCHMENTS ALL
NODES ALL
LINKS ALL
