;; SWMM5 .inp converted from XPSWMM .xp file
;; Generated by XPSWMM Card Reader
;; Source format: XP_CARD | Original title: CITY OF PLYMOUTH COMBINED SEWER OPERATIONAL PLAN
;; Links parsed from source: 119 | Routable in this .inp: 119

[TITLE]
;;Project Title/Notes
CITY OF PLYMOUTH COMBINED SEWER OPERATIONAL PLAN

[OPTIONS]
FLOW_UNITS           CFS
INFILTRATION         HORTON
FLOW_ROUTING         DYNWAVE
LINK_OFFSETS         DEPTH
MIN_SLOPE            0.0
ALLOW_PONDING        NO
SKIP_STEADY_STATE    NO
ROUTING_STEP         00:00:10
VARIABLE_STEP        0.75
INERTIAL_DAMPING     PARTIAL
NORMAL_FLOW_LIMITED  BOTH
MAX_TRIALS           100
HEAD_TOLERANCE       0.0033
START_DATE           01/01/2001
START_TIME           00:00:00
REPORT_START_DATE    01/01/2001
REPORT_START_TIME    00:00:00
END_DATE             01/02/2001
END_TIME             00:00:00
SWEEP_START          01/01
SWEEP_END            12/31
DRY_DAYS             0
REPORT_STEP          00:15:00
WET_STEP             00:05:00
DRY_STEP             01:00:00

[JUNCTIONS]
;;Name           Elev       MaxDepth   InitDepth  SurDepth   Aponded
;;-------------- ---------- ---------- ---------- ---------- ----------
12-20            787.09     0          0          0          0
12-17            788.34     0          0          0          0
12-7             784.64     0          0          0          0
8-63             779.84     0          0          0          0
8-62             776.03     0          0          0          0
8-61             776.13     0          0          0          0
8-60             780.05     0          0          0          0
8-24A            778.48     0          0          0          0
8-63A            779.85     0          0          0          0
CSO005           775.00     0          0          0          0
CSO004           775.00     0          0          0          0
12-21            786.96     0          0          0          0
12-27            791.61     0          0          0          0
12-6             784.51     0          0          0          0
8-63B            779.84     0          0          0          0
8-23A            778.20     0          0          0          0
8-23B            778.37     0          0          0          0
CSO007           775.00     0          0          0          0
8-24             778.41     0          0          0          0
8-11             778.12     0          0          0          0
8-10             777.86     0          0          0          0
8-10A            778.86     0          0          0          0
8-2              780.55     0          0          0          0
8-1              778.93     0          0          0          0
5-80             778.53     0          0          0          0
5-83             776.11     0          0          0          0
5-22             779.89     0          0          0          0
5-23             779.67     0          0          0          0
5-3              776.10     0          0          0          0
6-2              775.42     0          0          0          0
6-1              775.87     0          0          0          0
HDWRK            780.00     0          0          0          0
6-3              775.86     0          0          0          0
6-3A             775.77     0          0          0          0
6-3B             775.89     0          0          0          0
CSO010           775.00     0          0          0          0
7-3              777.64     0          0          0          0
7-1              774.65     0          0          0          0
7-56             783.08     0          0          0          0
7-41             783.32     0          0          0          0
7-69             793.56     0          0          0          0
7-56A            787.27     0          0          0          0
7-70             794.80     0          0          0          0
7-58A            785.06     0          0          0          0
9-13             802.89     0          0          0          0
9-12             800.67     0          0          0          0
9-10             800.74     0          0          0          0
9-3              799.58     0          0          0          0
9-25             802.93     0          0          0          0
9-22             800.68     0          0          0          0
9-22A            801.44     0          0          0          0
9-34             799.13     0          0          0          0
9-31             796.08     0          0          0          0
13-1             800.21     0          0          0          0
10-12            803.34     0          0          0          0
10-7             800.57     0          0          0          0
10-5             797.80     0          0          0          0
10-4             797.82     0          0          0          0
10-1             796.33     0          0          0          0
6-6              781.97     0          0          0          0
6-4              775.54     0          0          0          0
6-4A             775.60     0          0          0          0
CSO009           775.00     0          0          0          0
5-18A            775.58     0          0          0          0
5-20             777.32     0          0          0          0
5-21             775.00     0          0          0          0
5-21A            777.55     0          0          0          0
3-15             792.92     0          0          0          0
3-4              792.00     0          0          0          0
3-1              785.99     0          0          0          0
3-5              795.34     0          0          0          0
3-2              792.92     0          0          0          0
8-5              789.60     0          0          0          0
8-4              789.60     0          0          0          0
8-3              787.54     0          0          0          0
8-6              789.60     0          0          0          0
CSO008           789.60     0          0          0          0
8-7              791.76     0          0          0          0
8-14             778.37     0          0          0          0
8-15             778.35     0          0          0          0
8-12             776.99     0          0          0          0
CSO011           775.00     0          0          0          0
8-22             784.19     0          0          0          0
8-47             791.09     0          0          0          0
8-32             789.75     0          0          0          0
8-64             787.37     0          0          0          0
8-64B            787.34     0          0          0          0
CSO006           775.00     0          0          0          0
11-18            794.24     0          0          0          0
11-5             793.35     0          0          0          0
11-2             791.60     0          0          0          0
11-1             790.75     0          0          0          0
8-65             791.20     0          0          0          0
2-1              785.12     0          0          0          0
8-18A            787.17     0          0          0          0
STMCHN           786.00     0          0          0          0
P-2              780.00     0          0          0          0
CSO002           772.00     0          0          0          0
PCLAR            784.32     0          0          0          0
P-1              776.04     0          0          0          0
P-1A             776.04     0          0          0          0
7-40             783.00     0          0          0          0
1-1              778.00     0          0          0          0
5-1              773.00     0          0          0          0
5-21L            772.00     0          0          0          0
5-88             779.87     0          0          0          0
5-21H            776.00     0          0          0          0
9-1              793.43     0          0          0          0
PUMP2            0          0          0          0          0
PUMP3            0          0          0          0          0

[OUTFALLS]
;;Name           Elev       Type       Stage      Gated
;;-------------- ---------- ---------- ---------- -----
CSO003           775.00     FREE                  NO

[STORAGE]
;;Name           Elev       MaxDepth   InitDepth  Shape      Curve/Params
;;-------------- ---------- ---------- ---------- ---------- ----------
RAWPMP           754.40     10.00      0          FUNCTIONAL 1000.00 0          0
STMRET           786.03     10.00      0          FUNCTIONAL 3850.00 0          0

[CONDUITS]
;;Name           From             To               Length     Roughness  InOffset   OutOffset  InitFlow   MaxFlow
;;-------------- ---------------- ---------------- ---------- ---------- ---------- ---------- ---------- ----------
201              12-20            12-17            375.00     0.0140     777.49     776.39     0          0
202              12-17            12-7             640.00     0.0140     776.35     774.94     0          0
204              12-7             8-63             500.00     0.0140     774.89     773.20     0          0
208              8-62             8-61             350.00     0.0140     770.00     769.26     0          0
212              8-60             8-24A            900.00     0.0140     768.25     766.59     0          0
219              8-63A            8-62             280.00     0.0150     771.75     770.63     0          0
SIPHON           8-61             8-60             240.00     0.0120     768.98     768.30     0          0
242              8-63B            CSO005           300.00     0.0140     774.21     771.87     0          0
240              12-6             CSO004           350.00     0.0140     776.95     770.00     0          0
233              12-21            CSO003           300.00     0.0140     779.62     770.32     0          0
238              12-27            12-20            580.00     0.0140     783.37     777.71     0          0
249              8-23B            CSO007           300.00     0.0140     770.69     768.19     0          0
255              8-24             8-24A            20.00      0.0120     768.35     768.16     0          0
214              8-24A            8-11             300.00     0.0140     766.59     766.28     0          0
258              8-11             8-10             20.00      0.0140     766.26     765.80     0          0
260              8-10             8-2              180.00     0.0120     765.36     765.12     0          0
262              8-10A            8-2              180.00     0.0120     765.46     765.16     0          0
264              8-2              8-1              200.00     0.0140     764.82     764.81     0          0
267              8-1              5-80             260.00     0.0140     764.75     764.63     0          0
269              5-80             5-83             500.00     0.0140     764.61     764.07     0          0
279              5-22             5-23             260.00     0.0140     761.82     761.47     0          0
281              5-23             5-3              1040.00    0.0140     761.45     760.15     0          0
289              6-2              6-1              500.00     0.0140     758.40     757.72     0          0
291              6-1              P-1              420.00     0.0140     757.59     755.54     0          0
285              5-3              5-1              680.00     0.0140     760.10     759.35     0          0
297              6-3              6-2              20.00      0.0140     763.36     759.65     0          0
301              6-3B             CSO010           200.00     0.0140     766.13     763.89     0          0
305              7-3              7-1              300.00     0.0140     768.59     767.65     0          0
306              7-1              6-3A             480.00     0.0140     767.34     766.31     0          0
309              7-56             7-41             300.00     0.0140     770.93     769.93     0          0
310              7-41             7-40             80.00      0.0140     769.24     769.11     0          0
313              7-69             7-56A            850.00     0.0140     774.86     771.77     0          0
314              7-56A            7-56             150.00     0.0140     771.77     771.12     0          0
313_2            7-69             7-70             670.00     0.0140     786.94     784.79     0          0
317              7-70             7-58A            500.00     0.0140     782.90     778.13     0          0
319              7-58A            7-56A            350.00     0.0140     776.24     774.85     0          0
322              9-13             9-12             170.00     0.0140     782.57     781.22     0          0
323              9-12             9-10             350.00     0.0140     781.17     779.95     0          0
325              9-10             9-3              330.00     0.0140     779.86     778.28     0          0
327              9-3              9-1              540.00     0.0140     778.08     776.47     0          0
330              9-25             9-22             580.00     0.0140     787.03     784.28     0          0
331              9-22             9-22A            230.00     0.0140     784.26     783.25     0          0
333              9-22A            9-13             360.00     0.0140     783.25     782.61     0          0
336              9-34             9-31             1270.00    0.0140     790.03     788.39     0          0
337              9-31             9-25             1080.00    0.0140     788.37     787.73     0          0
340              13-1             9-25             200.00     0.0140     787.96     787.13     0          0
342              10-12            10-7             360.00     0.0140     790.42     789.44     0          0
343              10-7             10-5             170.00     0.0140     789.42     788.57     0          0
345              10-5             10-4             350.00     0.0140     788.31     787.76     0          0
347              10-4             10-1             260.00     0.0140     788.03     787.33     0          0
349              10-1             7-69             230.00     0.0140     787.32     786.18     0          0
333_2            9-22A            10-12            750.00     0.0140     793.12     790.79     0          0
322_2            9-13             10-7             750.00     0.0140     795.40     790.26     0          0
323_2            9-12             10-5             750.00     0.0140     793.78     788.86     0          0
325_2            9-10             10-4             750.00     0.0140     792.04     789.62     0          0
327_2            9-3              10-1             750.00     0.0140     790.70     787.33     0          0
357              6-6              6-4              800.00     0.0140     772.77     767.62     0          0
358              6-4              6-3A             600.00     0.0140     767.37     765.65     0          0
361              6-4A             CSO009           200.00     0.0140     767.95     765.99     0          0
365              5-18A            5-20             350.00     0.0140     771.14     769.12     0          0
366              5-20             5-21             100.00     0.0140     769.10     769.00     0          0
368              5-21             5-21A            25.00      0.0140     769.00     768.92     0          0
370              5-21A            5-22             175.00     0.0140     762.32     761.89     0          0
373              3-15             3-4              200.00     0.0140     784.25     783.46     0          0
374              3-4              3-1              380.00     0.0140     783.44     777.04     0          0
376              3-1              5-18A            400.00     0.0140     777.01     771.20     0          0
379              3-5              3-4              350.00     0.0140     783.74     783.50     0          0
379_2            3-5              3-2              380.00     0.0140     782.83     780.83     0          0
381              3-2              3-1              380.00     0.0140     780.92     780.14     0          0
393              8-4              8-3              330.00     0.0140     775.86     774.35     0          0
395              8-3              8-2              260.00     0.0140     774.29     773.15     0          0
398              8-6              CSO008           50.00      0.0140     776.62     776.11     0          0
402              8-7              8-5              150.00     0.0140     777.67     776.08     0          0
404              8-14             8-12             310.00     0.0140     769.11     767.79     0          0
409              8-12             8-11             280.00     0.0140     767.77     766.31     0          0
407              8-15             CSO011           50.00      0.0140     771.74     770.07     0          0
414              8-22             8-23A            550.00     0.0140     776.35     770.80     0          0
416              8-47             8-32             500.00     0.0140     780.64     779.79     0          0
417              8-32             8-22             550.00     0.0140     779.68     776.35     0          0
420              8-64             8-62             240.00     0.0140     771.43     770.06     0          0
422              8-64B            CSO006           500.00     0.0140     771.38     766.80     0          0
426              11-18            11-5             300.00     0.0140     786.42     784.70     0          0
427              11-5             11-2             300.00     0.0140     784.64     783.61     0          0
429              11-2             11-1             150.00     0.0140     783.61     782.50     0          0
431              11-1             8-65             510.00     0.0140     776.85     773.66     0          0
433              8-65             8-64             200.00     0.0140     773.54     771.44     0          0
436              2-1              5-20             650.00     0.0140     774.92     769.45     0          0
438              8-18A            8-14             350.00     0.0140     777.65     771.95     0          0
293              HDWRK            RAWPMP           170.00     0.0120     752.00     749.58     0          0
448              P-2              CSO002           295.00     0.0140     769.44     769.00     0          0
442              STMCHN           PCLAR            150.00     0.0120     782.15     777.00     0          0
293_2            HDWRK            P-2              20.00      0.0120     770.00     770.00     0          0
460              STMRET           P-2              220.00     0.0120     783.00     773.00     0          0
467              P-1A             HDWRK            450.00     0.0140     754.84     753.89     0          0
470              7-40             7-3              270.00     0.0100     769.40     768.98     0          0
473              1-1              P-1              330.00     0.0140     760.56     759.64     0          0
475              5-1              6-2              820.00     0.0140     759.35     758.40     0          0
271              5-83             5-21L            260.00     0.0140     764.07     763.82     0          0
477              5-21L            5-21H            675.00     0.0140     763.82     763.04     0          0
480              5-88             5-21H            350.00     0.0140     775.46     771.66     0          0
482              5-21H            5-21A            715.00     0.0140     763.04     762.32     0          0
484              9-1              7-69             330.00     0.0140     776.45     774.86     0          0

[ORIFICES]
;;Name           From             To               Type       Offset     Qcoeff     Gated    CloseTime
;;-------------- ---------------- ---------------- ---------- ---------- ---------- -------- ----------
OR005            8-63             8-63A            SIDE       772.72     0.650      NO       0
OR007            8-23A            8-24             SIDE       0          0.650      NO       0
OR010            6-3A             6-3              SIDE       0          0.650      NO       0
OR008            8-5              8-4              SIDE       0          0.650      NO       0
ORP1             P-1              P-1A             SIDE       0          0.650      NO       0

[WEIRS]
;;Name           From             To               Type       CrestHt    Qcoeff     Gated    EndCon   EndCoeff   Surcharge
;;-------------- ---------------- ---------------- ---------- ---------- ---------- -------- -------- ---------- ----------
WR003            12-20            12-21            V-NOTCH    779.69     1.840      NO       0        0          YES
WR004            12-7             12-6             V-NOTCH    777.01     1.840      NO       0        0          YES
WR005            8-63             8-63B            V-NOTCH    774.54     1.840      NO       0        0          YES
WR007            8-23A            8-23B            V-NOTCH    771.10     1.840      NO       0        0          YES
WR8/10           8-10             8-10A            V-NOTCH    766.82     1.840      NO       0        0          YES
WR010            6-3A             6-3B             V-NOTCH    766.01     1.840      NO       0        0          YES
WR090            6-4              6-4A             V-NOTCH    768.39     1.840      NO       0        0          YES
WR008            8-5              8-6              V-NOTCH    776.62     1.840      NO       0        0          YES
WR011            8-14             8-15             V-NOTCH    772.15     1.840      NO       0        0          YES
WR006            8-64             8-64B            V-NOTCH    773.53     1.840      NO       0        0          YES
WRRET            STMCHN           STMRET           TRANSVERSE 783.92     1.840      NO       0        0          YES

[PUMPS]
;;Name           From             To               PumpCurve  Status   Startup    Shutoff
;;-------------- ---------------- ---------------- ---------- -------- ---------- ----------
PUMP1            PUMP2            PUMP3            PC_PUMP1   ON       747.67     746.34    

[CURVES]
;;Name           Type       X-Value    Y-Value
;;-------------- ---------- ---------- ----------
;; Synthesized generic pump curves — replace with actual pump data
PC_PUMP1         Pump1      0          5
PC_PUMP1                    10         10

[XSECTIONS]
;;Link           Shape        Geom1      Geom2      Geom3      Geom4      Barrels
;;-------------- ------------ ---------- ---------- ---------- ---------- ----------
201              CIRCULAR     1.25       0          0          0          1
202              CIRCULAR     1.25       0          0          0          1
204              CIRCULAR     1.25       0          0          0          1
208              CIRCULAR     1.25       0          0          0          1
212              CIRCULAR     1.50       0          0          0          1
219              CIRCULAR     1.00       0          0          0          1
SIPHON           CIRCULAR     0.63       0          0          0          2
242              CIRCULAR     1.25       0          0          0          1
240              CIRCULAR     0.83       0          0          0          1
233              CIRCULAR     1.25       0          0          0          1
238              CIRCULAR     1.25       0          0          0          1
249              CIRCULAR     1.25       0          0          0          1
255              CIRCULAR     0.67       0          0          0          1
214              CIRCULAR     1.75       0          0          0          1
258              CIRCULAR     1.75       0          0          0          1
260              CIRCULAR     0.33       0          0          0          1
262              CIRCULAR     1.00       0          0          0          1
264              CIRCULAR     1.75       0          0          0          1
267              CIRCULAR     1.75       0          0          0          1
269              CIRCULAR     1.75       0          0          0          1
279              CIRCULAR     1.75       0          0          0          1
281              CIRCULAR     1.75       0          0          0          1
289              CIRCULAR     3.00       0          0          0          1
291              CIRCULAR     3.00       0          0          0          1
285              CIRCULAR     2.00       0          0          0          1
297              CIRCULAR     1.00       0          0          0          1
301              CIRCULAR     2.50       0          0          0          1
305              CIRCULAR     3.00       0          0          0          1
306              CIRCULAR     2.50       0          0          0          1
309              CIRCULAR     4.00       0          0          0          1
310              CIRCULAR     3.00       0          0          0          1
313              CIRCULAR     4.00       0          0          0          1
314              CIRCULAR     4.00       0          0          0          1
313_2            CIRCULAR     1.50       0          0          0          1
317              CIRCULAR     1.75       0          0          0          1
319              CIRCULAR     1.50       0          0          0          1
322              CIRCULAR     3.00       0          0          0          1
323              CIRCULAR     3.00       0          0          0          1
325              CIRCULAR     3.00       0          0          0          1
327              CIRCULAR     3.00       0          0          0          1
330              CIRCULAR     2.50       0          0          0          1
331              CIRCULAR     2.50       0          0          0          1
333              CIRCULAR     2.50       0          0          0          1
336              CIRCULAR     1.50       0          0          0          1
337              CIRCULAR     1.50       0          0          0          1
340              CIRCULAR     1.00       0          0          0          1
342              CIRCULAR     1.25       0          0          0          1
343              CIRCULAR     1.25       0          0          0          1
345              CIRCULAR     1.50       0          0          0          1
347              CIRCULAR     1.50       0          0          0          1
349              CIRCULAR     1.50       0          0          0          1
333_2            CIRCULAR     1.00       0          0          0          1
322_2            CIRCULAR     0.83       0          0          0          1
323_2            CIRCULAR     0.83       0          0          0          1
325_2            CIRCULAR     0.83       0          0          0          1
327_2            CIRCULAR     0.67       0          0          0          1
357              CIRCULAR     1.25       0          0          0          1
358              CIRCULAR     0.67       0          0          0          1
361              CIRCULAR     1.25       0          0          0          1
365              CIRCULAR     2.50       0          0          0          1
366              CIRCULAR     2.50       0          0          0          1
368              CIRCULAR     1.75       0          0          0          1
370              CIRCULAR     1.75       0          0          0          1
373              CIRCULAR     2.00       0          0          0          1
374              CIRCULAR     2.00       0          0          0          1
376              CIRCULAR     2.25       0          0          0          1
379              CIRCULAR     1.25       0          0          0          1
379_2            CIRCULAR     0.83       0          0          0          1
381              CIRCULAR     0.83       0          0          0          1
393              CIRCULAR     0.67       0          0          0          1
395              CIRCULAR     0.67       0          0          0          1
398              CIRCULAR     1.25       0          0          0          1
402              CIRCULAR     1.25       0          0          0          1
404              CIRCULAR     0.67       0          0          0          1
409              CIRCULAR     0.83       0          0          0          1
407              CIRCULAR     1.00       0          0          0          1
414              CIRCULAR     2.00       0          0          0          1
416              CIRCULAR     1.25       0          0          0          1
417              CIRCULAR     2.00       0          0          0          1
420              CIRCULAR     0.67       0          0          0          1
422              CIRCULAR     3.00       0          0          0          1
426              CIRCULAR     1.75       0          0          0          1
427              CIRCULAR     2.00       0          0          0          1
429              CIRCULAR     2.00       0          0          0          1
431              CIRCULAR     3.00       0          0          0          1
433              CIRCULAR     3.00       0          0          0          1
436              CIRCULAR     0.83       0          0          0          1
438              CIRCULAR     1.00       0          0          0          1
293              CIRCULAR     2.50       0          0          0          1
448              CIRCULAR     1.50       0          0          0          1
442              CIRCULAR     1.33       0          0          0          2
293_2            CIRCULAR     1.50       0          0          0          1
460              CIRCULAR     1.00       0          0          0          1
467              CIRCULAR     2.50       0          0          0          1
470              CIRCULAR     2.42       0          0          0          1
473              CIRCULAR     0.83       0          0          0          1
475              CIRCULAR     2.50       0          0          0          1
271              CIRCULAR     1.75       0          0          0          1
477              CIRCULAR     1.75       0          0          0          1
480              CIRCULAR     1.00       0          0          0          1
482              CIRCULAR     1.75       0          0          0          1
484              CIRCULAR     3.00       0          0          0          1
OR005            RECT_CLOSED  0.33       0.33       0          0
OR007            RECT_CLOSED  0.33       0.33       0          0
OR010            RECT_CLOSED  0.67       0.67       0          0
OR008            RECT_CLOSED  0.33       0.33       0          0
ORP1             RECT_CLOSED  1.00       1.00       0          0
WR003            TRIANGULAR   1.00       0.98       0          0
WR004            TRIANGULAR   1.00       0.65       0          0
WR005            TRIANGULAR   1.00       0.98       0          0
WR007            TRIANGULAR   1.00       0.79       0          0
WR8/10           TRIANGULAR   1.00       2.00       0          0
WR010            TRIANGULAR   1.00       1.57       0          0
WR090            TRIANGULAR   1.00       0.98       0          0
WR008            TRIANGULAR   1.00       0.79       0          0
WR011            TRIANGULAR   1.00       0.65       0          0
WR006            TRIANGULAR   1.00       0.92       0          0
WRRET            RECT_OPEN    1.00       27.00      0          0

[LOSSES]
;;Link           Inlet      Outlet     Average    Flap Gate
;;-------------- ---------- ---------- ---------- ----------
201              0          0          0          NO
202              0          0          0          NO
204              0          0          0          NO
208              0          0          0          NO
212              0          0          0          NO
219              0          0          0          NO
SIPHON           0          0          0          NO
242              0          0          0          NO
240              0          0          0          NO
233              0          0          0          NO
238              0          0          0          NO
249              0          0          0          NO
255              0          0          0          NO
214              0          0          0          NO
258              0          0          0          NO
260              0          0          0          NO
262              0          0          0          NO
264              0          0          0          NO
267              0          0          0          NO
269              0          0          0          NO
279              0          0          0          NO
281              0          0          0          NO
289              0          0          0          NO
291              0          0          0          NO
285              0          0          0          NO
297              0          0          0          NO
301              0          0          0          NO
305              0          0          0          NO
306              0          0          0          NO
309              0          0          0          NO
310              0          0          0          NO
313              0          0          0          NO
314              0          0          0          NO
313_2            0          0          0          NO
317              0          0          0          NO
319              0          0          0          NO
322              0          0          0          NO
323              0          0          0          NO
325              0          0          0          NO
327              0          0          0          NO
330              0          0          0          NO
331              0          0          0          NO
333              0          0          0          NO
336              0          0          0          NO
337              0          0          0          NO
340              0          0          0          NO
342              0          0          0          NO
343              0          0          0          NO
345              0          0          0          NO
347              0          0          0          NO
349              0          0          0          NO
333_2            0          0          0          NO
322_2            0          0          0          NO
323_2            0          0          0          NO
325_2            0          0          0          NO
327_2            0          0          0          NO
357              0          0          0          NO
358              0          0          0          NO
361              0          0          0          NO
365              0          0          0          NO
366              0          0          0          NO
368              0          0          0          NO
370              0          0          0          NO
373              0          0          0          NO
374              0          0          0          NO
376              0          0          0          NO
379              0          0          0          NO
379_2            0          0          0          NO
381              0          0          0          NO
393              0          0          0          NO
395              0          0          0          NO
398              0          0          0          NO
402              0          0          0          NO
404              0          0          0          NO
409              0          0          0          NO
407              0          0          0          NO
414              0          0          0          NO
416              0          0          0          NO
417              0          0          0          NO
420              0          0          0          NO
422              0          0          0          NO
426              0          0          0          NO
427              0          0          0          NO
429              0          0          0          NO
431              0          0          0          NO
433              0          0          0          NO
436              0          0          0          NO
438              0          0          0          NO
293              0          0          0          NO
448              0          0          0          NO
442              0          0          0          NO
293_2            0          0          0          NO
460              0          0          0          NO
467              0          0          0          NO
470              0          0          0          NO
473              0          0          0          NO
475              0          0          0          NO
271              0          0          0          NO
477              0          0          0          NO
480              0          0          0          NO
482              0          0          0          NO
484              0          0          0          NO

[INFLOWS]
;;Node           Constituent  Time Series      Type     Mfactor  Sfactor  Baseline Pattern
;;-------------- ------------ ---------------- -------- -------- -------- -------- --------
12-20            FLOW         ""               FLOW     1.0      1.0      0.06566
12-17            FLOW         ""               FLOW     1.0      1.0      0.01837
8-63             FLOW         ""               FLOW     1.0      1.0      0.01445
8-62             FLOW         ""               FLOW     1.0      1.0      0.03644
8-61             FLOW         ""               FLOW     1.0      1.0      0.00171
8-60             FLOW         ""               FLOW     1.0      1.0      0.03869
8-24A            FLOW         ""               FLOW     1.0      1.0      0.02184
12-27            FLOW         ""               FLOW     1.0      1.0      0.23178
8-24             FLOW         ""               FLOW     1.0      1.0      0.03303
8-11             FLOW         ""               FLOW     1.0      1.0      0.00232
8-2              FLOW         ""               FLOW     1.0      1.0      0.00197
8-1              FLOW         ""               FLOW     1.0      1.0      0.00241
5-80             FLOW         ""               FLOW     1.0      1.0      0.01538
5-22             FLOW         ""               FLOW     1.0      1.0      0.00527
5-23             FLOW         ""               FLOW     1.0      1.0      0.00463
5-3              FLOW         ""               FLOW     1.0      1.0      0.08950
6-2              FLOW         ""               FLOW     1.0      1.0      0.00219
6-1              FLOW         ""               FLOW     1.0      1.0      0.00219
6-3A             FLOW         ""               FLOW     1.0      1.0      0.01097
7-3              FLOW         ""               FLOW     1.0      1.0      0.11546
7-1              FLOW         ""               FLOW     1.0      1.0      0.00230
7-56             FLOW         ""               FLOW     1.0      1.0      0.00795
7-41             FLOW         ""               FLOW     1.0      1.0      0.07892
7-69             FLOW         ""               FLOW     1.0      1.0      0.00587
7-56A            FLOW         ""               FLOW     1.0      1.0      0.02388
7-70             FLOW         ""               FLOW     1.0      1.0      0.12140
7-58A            FLOW         ""               FLOW     1.0      1.0      0.01926
9-13             FLOW         ""               FLOW     1.0      1.0      0.03778
9-12             FLOW         ""               FLOW     1.0      1.0      0.00253
9-10             FLOW         ""               FLOW     1.0      1.0      0.01081
9-3              FLOW         ""               FLOW     1.0      1.0      0.04103
9-25             FLOW         ""               FLOW     1.0      1.0      0.02974
9-22             FLOW         ""               FLOW     1.0      1.0      0.06234
9-22A            FLOW         ""               FLOW     1.0      1.0      0.00512
9-34             FLOW         ""               FLOW     1.0      1.0      0.64712
9-31             FLOW         ""               FLOW     1.0      1.0      0.02637
13-1             FLOW         ""               FLOW     1.0      1.0      0.29785
10-12            FLOW         ""               FLOW     1.0      1.0      0.03532
10-7             FLOW         ""               FLOW     1.0      1.0      0.03861
10-5             FLOW         ""               FLOW     1.0      1.0      0.01081
10-4             FLOW         ""               FLOW     1.0      1.0      0.01509
10-1             FLOW         ""               FLOW     1.0      1.0      0.01191
6-6              FLOW         ""               FLOW     1.0      1.0      0.04790
6-4              FLOW         ""               FLOW     1.0      1.0      0.01744
5-18A            FLOW         ""               FLOW     1.0      1.0      0.00983
5-20             FLOW         ""               FLOW     1.0      1.0      0.02577
5-21             FLOW         ""               FLOW     1.0      1.0      0.00292
5-21A            FLOW         ""               FLOW     1.0      1.0      0.01112
3-15             FLOW         ""               FLOW     1.0      1.0      0.28241
3-4              FLOW         ""               FLOW     1.0      1.0      0.00464
3-1              FLOW         ""               FLOW     1.0      1.0      0.00345
3-5              FLOW         ""               FLOW     1.0      1.0      0.02058
3-2              FLOW         ""               FLOW     1.0      1.0      0.01116
8-5              FLOW         ""               FLOW     1.0      1.0      0.00203
8-3              FLOW         ""               FLOW     1.0      1.0      0.00342
8-7              FLOW         ""               FLOW     1.0      1.0      0.02105
8-12             FLOW         ""               FLOW     1.0      1.0      0.00381
8-22             FLOW         ""               FLOW     1.0      1.0      0.00957
8-47             FLOW         ""               FLOW     1.0      1.0      0.04042
8-32             FLOW         ""               FLOW     1.0      1.0      0.06598
8-64             FLOW         ""               FLOW     1.0      1.0      0.01383
11-18            FLOW         ""               FLOW     1.0      1.0      0.10927
11-5             FLOW         ""               FLOW     1.0      1.0      0.03892
11-2             FLOW         ""               FLOW     1.0      1.0      0.03378
11-1             FLOW         ""               FLOW     1.0      1.0      0.00105
8-65             FLOW         ""               FLOW     1.0      1.0      0.00966
2-1              FLOW         ""               FLOW     1.0      1.0      0.15747
8-18A            FLOW         ""               FLOW     1.0      1.0      0.03075
7-40             FLOW         ""               FLOW     1.0      1.0      0.01527
1-1              FLOW         ""               FLOW     1.0      1.0      0.08636
5-1              FLOW         ""               FLOW     1.0      1.0      0.00484
5-21L            FLOW         ""               FLOW     1.0      1.0      0.15764
5-88             FLOW         ""               FLOW     1.0      1.0      0.26747
5-21H            FLOW         ""               FLOW     1.0      1.0      0.01719
9-1              FLOW         ""               FLOW     1.0      1.0      0.01547

[COORDINATES]
;;Node           X-Coord            Y-Coord
;;-------------- ------------------ ------------------
12-20            13.27              166.90            
12-17            52.08              166.90            
12-7             101.32             166.90            
8-63             130.20             167.29            
8-62             167.59             166.90            
8-61             189.84             166.90            
8-60             213.51             166.90            
8-24A            258.96             166.90            
CSO003           13.66              224.23            
8-63A            145.52             166.90            
CSO005           130.28             225.01            
CSO004           100.90             225.01            
12-21            13.20              188.89            
12-27            13.20              124.09            
12-6             101.09             189.28            
8-63B            130.44             190.85            
8-23A            278.36             196.74            
8-23B            278.36             171.21            
CSO007           278.36             122.52            
8-24             258.95             196.74            
8-11             313.39             166.90            
8-10             326.23             167.29            
8-10A            326.70             140.58            
8-2              362.20             167.68            
8-1              381.84             190.46            
5-80             408.82             190.46            
5-83             450.80             190.46            
5-22             510.88             69.11             
5-23             510.88             42.41             
5-3              565.39             14.92             
6-2              565.39             -93.82            
6-1              565.39             -144.22           
HDWRK            676.16             -144.22           
6-3              585.37             -93.48            
6-3A             585.37             -117.04           
6-3B             606.26             -117.04           
CSO010           623.78             -117.04           
7-3              502.68             -116.98           
7-1              529.66             -116.98           
7-56             440.82             -116.46           
7-41             464.49             -116.46           
7-69             385.43             -162.80           
7-56A            423.31             -116.46           
7-70             385.43             -81.90            
7-58A            423.31             -81.90            
9-13             298.68             -203.25           
9-12             318.56             -203.25           
9-10             350.75             -203.25           
9-3              369.21             -203.25           
9-25             178.48             -203.10           
9-22             233.39             -203.10           
9-22A            259.90             -203.10           
9-34             132.90             -117.89           
9-31             178.34             -117.89           
13-1             148.43             -202.71           
10-12            260.31             -162.66           
10-7             299.13             -162.66           
10-5             318.53             -162.66           
10-4             350.73             -162.66           
10-1             369.17             -162.66           
6-6              499.72             -196.04           
6-4              585.40             -196.04           
6-4A             606.23             -196.04           
CSO009           634.36             -196.04           
5-18A            494.70             186.80            
5-20             512.22             154.21            
5-21             523.11             132.22            
5-21A            510.80             112.59            
3-15             580.73             236.39            
3-4              552.33             219.90            
3-1              526.76             205.76            
3-5              533.86             253.67            
3-2              508.30             239.53            
8-5              301.52             75.94             
8-4              321.41             75.94             
8-3              362.12             75.94             
8-6              301.52             98.32             
CSO008           301.52             126.60            
8-7              301.52             38.46             
8-14             348.86             250.12            
8-15             361.65             235.98            
8-12             313.36             213.99            
CSO011           377.74             216.74            
8-22             278.18             248.55            
8-47             278.66             325.36            
8-32             278.66             288.06            
8-64             167.48             122.92            
8-64B            183.10             122.92            
CSO006           239.43             122.92            
11-18            137.65             -9.81             
11-5             137.65             24.74             
11-2             137.65             58.51             
11-1             137.65             90.32             
8-65             137.65             122.92            
2-1              558.74             182.10            
8-18A            324.92             280.12            
RAWPMP           702.95             -144.44           
STMCHN           702.95             -218.26           
P-2              675.96             -180.56           
CSO002           652.29             -180.56           
PCLAR            702.95             -249.29           
STMRET           675.96             -218.26           
P-1              629.94             -144.14           
P-1A             647.93             -144.14           
7-40             480.62             -116.61           
1-1              641.72             -91.12            
5-1              565.48             -38.60            
5-21L            450.72             166.05            
5-88             472.85             169.47            
5-21H            472.92             129.73            
9-1              385.73             -203.50           

[MAP]
DIMENSIONS 13.20 -249.29 702.95 325.36
Units      None

[REPORT]
SUBCATCHMENTS ALL
NODES ALL
LINKS ALL
