;; SWMM5 .inp converted from XPSWMM .xp file
;; Generated by XPSWMM Card Reader
;; Source format: XP_CARD | Original title: (none)
;; Links parsed from source: 8 | Routable in this .inp: 8

[TITLE]
;;Project Title/Notes
Converted from XPSWMM .xp file

[OPTIONS]
FLOW_UNITS           CFS
INFILTRATION         HORTON
FLOW_ROUTING         DYNWAVE
LINK_OFFSETS         DEPTH
MIN_SLOPE            0.0
ALLOW_PONDING        NO
SKIP_STEADY_STATE    NO
ROUTING_STEP         00:05:00
VARIABLE_STEP        0.75
INERTIAL_DAMPING     PARTIAL
NORMAL_FLOW_LIMITED  BOTH
MAX_TRIALS           50
HEAD_TOLERANCE       0.0033
START_DATE           01/01/2001
START_TIME           00:00:00
REPORT_START_DATE    01/01/2001
REPORT_START_TIME    00:00:00
END_DATE             01/02/2001
END_TIME             00:00:00
SWEEP_START          01/01
SWEEP_END            12/31
DRY_DAYS             0
REPORT_STEP          00:15:00
WET_STEP             00:05:00
DRY_STEP             01:00:00

[JUNCTIONS]
;;Name           Elev       MaxDepth   InitDepth  SurDepth   Aponded
;;-------------- ---------- ---------- ---------- ---------- ----------
RUNOFF           20.00      0          0          0          0
KINEMATIC        0          0          0          0          0
SBUH             0          0          0          0          0
RATIONAL         0          0          0          0          0
TRIANGULAR       0          0          0          0          0
SCS-DEPTH        0          0          0          0          0
timearea         0          0          0          0          0

[OUTFALLS]
;;Name           Elev       Type       Stage      Gated
;;-------------- ---------- ---------- ---------- -----
LAURENSON        15.00      FREE                  NO

[STORAGE]
;;Name           Elev       MaxDepth   InitDepth  Shape      Curve/Params
;;-------------- ---------- ---------- ---------- ---------- ----------
SCS              15.00      10.00      0          FUNCTIONAL 1000.00 0          0

[CONDUITS]
;;Name           From             To               Length     Roughness  InOffset   OutOffset  InitFlow   MaxFlow
;;-------------- ---------------- ---------------- ---------- ---------- ---------- ---------- ---------- ----------
Conduit          RUNOFF           SCS              200.00     0.0140     10.00      9.80       0          0
pipe             SCS              LAURENSON        200.00     0.0140     9.80       9.60       0          0
215              SCS              KINEMATIC        100.00     0.0130     0          0          0          0
217              SCS              SBUH             100.00     0.0130     0          0          0          0
219              SCS              RATIONAL         100.00     0.0130     0          0          0          0
221              SCS              TRIANGULAR       100.00     0.0130     0          0          0          0
223              SCS              SCS-DEPTH        100.00     0.0130     0          0          0          0
225              timearea         SCS              100.00     0.0130     0          0          0          0

[XSECTIONS]
;;Link           Shape        Geom1      Geom2      Geom3      Geom4      Barrels
;;-------------- ------------ ---------- ---------- ---------- ---------- ----------
Conduit          CIRCULAR     3.00       0          0          0          2
pipe             CIRCULAR     3.00       3.00       0          0          1
215              CIRCULAR     1.00       0          0          0          1
217              CIRCULAR     1.00       0          0          0          1
219              CIRCULAR     1.00       0          0          0          1
221              CIRCULAR     1.00       0          0          0          1
223              CIRCULAR     1.00       0          0          0          1
225              CIRCULAR     1.00       0          0          0          1

[LOSSES]
;;Link           Inlet      Outlet     Average    Flap Gate
;;-------------- ---------- ---------- ---------- ----------
Conduit          0          0          0          NO
pipe             0          0          0          NO
215              0          0          0          NO
217              0          0          0          NO
219              0          0          0          NO
221              0          0          0          NO
223              0          0          0          NO
225              0          0          0          NO

[INFLOWS]
;;Node           Constituent  Time Series      Type     Mfactor  Sfactor  Baseline Pattern
;;-------------- ------------ ---------------- -------- -------- -------- -------- --------
;; SYNTHETIC TEST INFLOWS — the source .xp carried no constant inflows
;; and RUNF hydrology is not converted; 1.00 CFS is applied at each
;; headwater node so the network runs wet for QA. Replace with real
;; hydrology or inflow hydrographs before using results.
RUNOFF           FLOW         ""               FLOW     1.0      1.0      1.00
timearea         FLOW         ""               FLOW     1.0      1.0      1.00

[COORDINATES]
;;Node           X-Coord            Y-Coord
;;-------------- ------------------ ------------------
RUNOFF           22.94              55.92             
SCS              37.36              56.37             
LAURENSON        22.95              68.91             
KINEMATIC        20.03              64.85             
SBUH             28.00              68.79             
RATIONAL         32.45              72.39             
TRIANGULAR       41.53              74.64             
SCS-DEPTH        33.15              45.50             
timearea         40.22              46.92             

[MAP]
DIMENSIONS 20.03 45.50 41.53 74.64
Units      None

[REPORT]
SUBCATCHMENTS ALL
NODES ALL
LINKS ALL
