;; SWMM5 .inp converted from XPSWMM .xp file
;; Generated by XPSWMM Card Reader
;; Source format: XP_CARD | Original title: SWMM  simulation of High Density Residential (HDR)
;; NOTE: 1 link(s) dropped (missing endpoint): 234

[TITLE]
;;Project Title/Notes
SWMM  simulation of High Density Residential (HDR)

[OPTIONS]
FLOW_UNITS           CFS
INFILTRATION         HORTON
FLOW_ROUTING         DYNWAVE
LINK_OFFSETS         DEPTH
MIN_SLOPE            0.0
ALLOW_PONDING        NO
SKIP_STEADY_STATE    NO
ROUTING_STEP         00:00:20
VARIABLE_STEP        0.75
INERTIAL_DAMPING     PARTIAL
NORMAL_FLOW_LIMITED  BOTH
START_DATE           01/01/2001
START_TIME           00:00:00
REPORT_START_DATE    01/01/2001
REPORT_START_TIME    00:00:00
END_DATE             01/02/2001
END_TIME             00:00:00
SWEEP_START          01/01
SWEEP_END            12/31
DRY_DAYS             0
REPORT_STEP          00:15:00
WET_STEP             00:05:00
DRY_STEP             01:00:00

[JUNCTIONS]
;;Name           Elev       MaxDepth   InitDepth  SurDepth   Aponded
;;-------------- ---------- ---------- ---------- ---------- ----------
113              9.45       0          0          0          0
313              9.45       0          0          0          0
312              9.15       0          0          0          0
111              8.80       0          0          0          0
105              9.30       0          0          0          0
101              9.30       0          0          0          0
900              9.30       0          0          0          0
110              9.19       0          0          0          0
109              9.40       0          0          0          0
107              8.77       0          0          0          0
106              9.14       0          0          0          0
104              9.24       0          0          0          0
102              9.80       0          0          0          0
103              9.47       0          0          0          0
112              9.15       0          0          0          0
Rain_RTC         11.00      0          0          0          0
Dummy_out        11.00      0          0          0          0
outfall          9.30       0          0          0          0

[OUTFALLS]
;;Name           Elev       Type       Stage      Gated
;;-------------- ---------- ---------- ---------- -----
108              8.48       FREE                  NO

[CONDUITS]
;;Name           From             To               Length     Roughness  InOffset   OutOffset  InitFlow   MaxFlow
;;-------------- ---------------- ---------------- ---------- ---------- ---------- ---------- ---------- ----------
201              113              313              110.00     0.0220     4.32       3.57       0          0
202              313              312              205.00     0.0220     3.57       3.08       0          0
204              312              111              175.00     0.0220     3.08       2.67       0          0
206              111              105              165.00     0.0220     2.67       2.50       0          0
208              105              101              240.00     0.0130     2.50       2.11       0          0
210              113              900              220.00     0.0130     2.11       1.00       0          0
214              101              109              210.00     0.0220     6.20       5.89       0          0
215              109              108              165.00     0.0220     5.89       5.26       0          0
217              105              107              40.00      0.0220     5.26       4.31       0          0
219              107              106              90.00      0.0220     4.31       3.66       0          0
221              111              105              40.00      0.0220     3.66       2.50       0          0
224              312              102              105.00     0.0220     3.10       3.06       0          0
225              313              101              32.00      0.0220     3.06       2.11       0          0
228              103              102              105.00     0.0220     3.14       3.06       0          0
230              900              312              110.00     0.0220     3.17       3.08       0          0
emerg            105              outfall          100.00     0.0130     2.50       2.50       0          0

[XSECTIONS]
;;Link           Shape        Geom1      Geom2      Geom3      Geom4      Barrels
;;-------------- ------------ ---------- ---------- ---------- ---------- ----------
201              CIRCULAR     1.75       0          0          0          1
202              CIRCULAR     2.50       0          0          0          1
204              CIRCULAR     2.50       0          0          0          1
206              CIRCULAR     2.50       0          0          0          1
208              CIRCULAR     3.00       0          0          0          1
210              CIRCULAR     4.00       0          0          0          1
214              CIRCULAR     2.00       0          0          0          1
215              CIRCULAR     2.25       0          0          0          1
217              CIRCULAR     2.50       0          0          0          1
219              CIRCULAR     3.00       0          0          0          1
221              CIRCULAR     3.00       0          0          0          1
224              CIRCULAR     1.50       0          0          0          1
225              CIRCULAR     1.50       0          0          0          1
228              CIRCULAR     1.50       0          0          0          1
230              CIRCULAR     1.75       0          0          0          1
emerg            CIRCULAR     3.00       0          0          0          1

[LOSSES]
;;Link           Inlet      Outlet     Average    Flap Gate
;;-------------- ---------- ---------- ---------- ----------
201              0          0          0          NO
202              0          0          0          NO
204              0          0          0          NO
206              0          0          0          NO
208              0          0          0          NO
210              0          0          0          NO
214              0          0          0          NO
215              0          0          0          NO
217              0          0          0          NO
219              0          0          0          NO
221              0          0          0          NO
224              0          0          0          NO
225              0          0          0          NO
228              0          0          0          NO
230              0          0          0          NO
emerg            0          0          0          NO

[COORDINATES]
;;Node           X-Coord            Y-Coord
;;-------------- ------------------ ------------------
113              28.25              28.25             
313              8.25               48.25             
312              28.25              68.25             
111              48.25              88.25             
105              78.60              88.08             
101              108.25             88.25             
900              138.25             88.25             
110              -1.75              148.25            
109              18.25              148.25            
108              38.25              148.25            
107              58.25              148.25            
106              68.25              118.25            
104              88.25              128.25            
102              108.25             128.25            
103              128.25             128.25            
112              48.25              48.25             
Rain_RTC         41.70              -3.26             
Dummy_out        41.70              18.13             
outfall          100.60             51.58             

[MAP]
DIMENSIONS -1.75 -3.26 138.25 148.25
Units      None

[REPORT]
SUBCATCHMENTS ALL
NODES ALL
LINKS ALL
