;; SWMM5 .inp converted from XPSWMM .xp file
;; Generated by XPSWMM Card Reader
;; Source format: XP_CARD | Original title: Greenway Flood

[TITLE]
;;Project Title/Notes
Greenway Flood

[OPTIONS]
FLOW_UNITS           CMS
INFILTRATION         HORTON
FLOW_ROUTING         DYNWAVE
LINK_OFFSETS         DEPTH
MIN_SLOPE            0.0
ALLOW_PONDING        NO
SKIP_STEADY_STATE    NO
ROUTING_STEP         00:00:03
VARIABLE_STEP        0.75
INERTIAL_DAMPING     PARTIAL
NORMAL_FLOW_LIMITED  BOTH
START_DATE           01/01/2001
START_TIME           00:00:00
REPORT_START_DATE    01/01/2001
REPORT_START_TIME    00:00:00
END_DATE             01/02/2001
END_TIME             00:00:00
SWEEP_START          01/01
SWEEP_END            12/31
DRY_DAYS             0
REPORT_STEP          00:15:00
WET_STEP             00:05:00
DRY_STEP             01:00:00

[JUNCTIONS]
;;Name           Elev       MaxDepth   InitDepth  SurDepth   Aponded
;;-------------- ---------- ---------- ---------- ---------- ----------
G0               100.00     0          0          0          0
G166             100.00     0          0          0          0
G362             100.00     0          0          0          0
G582             100.00     0          0          0          0
G809             46.00      0          0          0          0
G1055            44.00      0          0          0          0
G1274            43.00      0          0          0          0
G1302            42.00      0          0          0          0
G1461            40.00      0          0          0          0
G1702            100.00     0          0          0          0
G1865            100.00     0          0          0          0
G1991            100.00     0          0          0          0
G2026            100.00     0          0          0          0
G2211            100.00     0          0          0          0
G2366            100.00     0          0          0          0
Out              100.00     0          0          0          0
Pipe             44.00      0          0          0          0
Box              43.47      0          0          0          0

[OUTFALLS]
;;Name           Elev       Type       Stage      Gated
;;-------------- ---------- ---------- ---------- -----
G143             100.00     FREE                  NO

[CONDUITS]
;;Name           From             To               Length     Roughness  InOffset   OutOffset  InitFlow   MaxFlow
;;-------------- ---------------- ---------------- ---------- ---------- ---------- ---------- ---------- ----------
204              G0               G143             148.00     0.0600     43.00      41.69      0          0
CowRd            Pipe             Box              23.36      0.0600     44.00      43.47      0          0
207              G166             G362             200.00     0.0600     41.57      40.25      0          0
209              G362             G582             219.48     0.0700     40.25      38.15      0          0
211              G582             G809             227.35     0.0600     38.15      36.00      0          0
213              G809             G1055            245.63     0.0700     36.00      35.00      0          0
215              G1055            G1274            228.38     0.0600     35.00      32.50      0          0
217              G1274            G1302            10.00      0.0600     32.50      32.50      0          0
219              G1302            G1461            168.65     0.0600     32.50      32.30      0          0
221              G1461            G1702            240.60     0.0600     32.30      29.90      0          0
223              G1702            G1865            163.46     0.0450     29.90      28.70      0          0
225              G1865            G1991            136.35     0.0450     28.70      28.00      0          0
227              G1991            G2026            13.00      0.0600     28.00      28.00      0          0
229              G2026            G2211            196.04     0.0600     28.00      28.00      0          0
231              G2211            G2366            155.57     0.0600     28.00      27.20      0          0
233              G2366            Out              10.00      0.0600     27.20      27.14      0          0

[XSECTIONS]
;;Link           Shape        Geom1      Geom2      Geom3      Geom4      Barrels
;;-------------- ------------ ---------- ---------- ---------- ---------- ----------
204              TRAPEZOIDAL  1.00       10.00      2          2          1
CowRd            TRAPEZOIDAL  1.00       10.00      2          2          3
207              TRAPEZOIDAL  1.00       10.00      2          2          1
209              TRAPEZOIDAL  1.00       10.00      2          2          1
211              TRAPEZOIDAL  1.00       10.00      2          2          1
213              TRAPEZOIDAL  1.00       10.00      2          2          1
215              TRAPEZOIDAL  1.00       10.00      2          2          1
217              TRAPEZOIDAL  1.00       10.00      2          2          1
219              TRAPEZOIDAL  1.00       10.00      2          2          1
221              TRAPEZOIDAL  1.00       10.00      2          2          1
223              TRAPEZOIDAL  1.00       10.00      2          2          1
225              TRAPEZOIDAL  1.00       10.00      2          2          1
227              TRAPEZOIDAL  1.00       10.00      2          2          1
229              TRAPEZOIDAL  1.00       10.00      2          2          1
231              TRAPEZOIDAL  1.00       10.00      2          2          1
233              TRAPEZOIDAL  1.00       10.00      2          2          1

[LOSSES]
;;Link           Inlet      Outlet     Average    Flap Gate
;;-------------- ---------- ---------- ---------- ----------
204              0          0          0          NO
CowRd            0          0          0          NO
207              0          0          0          NO
209              0          0          0          NO
211              0          0          0          NO
213              0          0          0          NO
215              0          0          0          NO
217              0          0          0          NO
219              0          0          0          NO
221              0          0          0          NO
223              0          0          0          NO
225              0          0          0          NO
227              0          0          0          NO
229              0          0          0          NO
231              0          0          0          NO
233              0          0          0          NO

[COORDINATES]
;;Node           X-Coord            Y-Coord
;;-------------- ------------------ ------------------
G0               217.09             250.26            
G143             206.78             330.10            
G166             208.16             345.65            
G362             165.53             448.81            
G582             168.28             573.88            
G809             85.09              672.80            
G1055            -1.53              786.57            
G1274            -103.28            828.96            
G1302            -115.66            831.08            
G1461            -199.53            869.24            
G1702            -229.78            1005.61           
G1865            -277.22            1087.58           
G1991            -235.28            1143.40           
G2026            -212.59            1156.82           
G2211            -148.66            1242.32           
G2366            -75.78             1289.66           
Out              -51.38             1297.08           

[MAP]
DIMENSIONS -277.22 250.26 217.09 1297.08
Units      None

[REPORT]
SUBCATCHMENTS ALL
NODES ALL
LINKS ALL
