;; SWMM5 .inp converted from XPSWMM .xp file
;; Generated by XPSWMM Card Reader
;; Source format: XP_CARD | Original title: Example 1
;; Links parsed from source: 9 | Routable in this .inp: 9

[TITLE]
;;Project Title/Notes
Example 1

[OPTIONS]
FLOW_UNITS           CFS
INFILTRATION         HORTON
FLOW_ROUTING         DYNWAVE
LINK_OFFSETS         DEPTH
MIN_SLOPE            0.0
ALLOW_PONDING        NO
SKIP_STEADY_STATE    NO
ROUTING_STEP         00:02:00
VARIABLE_STEP        0.75
INERTIAL_DAMPING     PARTIAL
NORMAL_FLOW_LIMITED  BOTH
MAX_TRIALS           50
HEAD_TOLERANCE       .0001
START_DATE           01/01/2001
START_TIME           00:00:00
REPORT_START_DATE    01/01/2001
REPORT_START_TIME    00:00:00
END_DATE             01/02/2001
END_TIME             00:00:00
SWEEP_START          01/01
SWEEP_END            12/31
DRY_DAYS             0
REPORT_STEP          00:15:00
WET_STEP             00:05:00
DRY_STEP             01:00:00

[JUNCTIONS]
;;Name           Elev       MaxDepth   InitDepth  SurDepth   Aponded
;;-------------- ---------- ---------- ---------- ---------- ----------
mh               138.00     0          0          0          0
mh_2             135.10     0          0          0          0
mh_3             155.00     0          0          0          0
mh_4             125.00     0          0          0          0
mh_5             120.00     0          0          0          0
mh_6             111.00     0          0          0          0
mh_7             143.00     0          0          0          0
mh_8             132.00     0          0          0          0
mh_9             125.00     0          0          0          0

[OUTFALLS]
;;Name           Elev       Type       Stage      Gated
;;-------------- ---------- ---------- ---------- -----
outlet           100.00     FREE                  NO

[CONDUITS]
;;Name           From             To               Length     Roughness  InOffset   OutOffset  InitFlow   MaxFlow
;;-------------- ---------------- ---------------- ---------- ---------- ---------- ---------- ---------- ----------
153              mh               mh               1800.00    0.0150     124.60     118.30     0          0
154              mh               mh               2075.00    0.0150     118.30     114.50     0          0
156              mh               mh               5000.00    0.0340     112.30     102.80     0          0
158              mh               mh               500.00     0.0150     102.80     102.00     0          0
160              mh               mh               300.00     0.0150     102.00     101.60     0          0
162              mh               outlet           140.00     0.0160     101.60     89.90      0          0
166              mh               mh               5100.00    0.0150     128.20     117.50     0          0
167              mh               mh               3500.00    0.0150     117.50     111.50     0          0
169              mh               mh               5000.00    0.0154     111.50     102.00     0          0

[XSECTIONS]
;;Link           Shape        Geom1      Geom2      Geom3      Geom4      Barrels
;;-------------- ------------ ---------- ---------- ---------- ---------- ----------
153              CIRCULAR     4.00       0          0          0          1
154              CIRCULAR     4.50       0          0          0          1
156              CIRCULAR     5.00       0          0          0          1
158              CIRCULAR     6.00       0          0          0          1
160              TRAPEZOIDAL  9.00       1.00       1          1          1
162              TRAPEZOIDAL  9.00       10.00      2          2          1
166              CIRCULAR     4.00       0          0          0          20
167              CIRCULAR     4.50       0          0          0          1
169              CIRCULAR     5.50       0          0          0          1

[LOSSES]
;;Link           Inlet      Outlet     Average    Flap Gate
;;-------------- ---------- ---------- ---------- ----------
153              0          0          0          NO
154              0          0          0          NO
156              0          0          0          NO
158              0          0          0          NO
160              0          0          0          NO
162              0          0          0          NO
166              0          0          0          NO
167              0          0          0          NO
169              0          0          0          NO

[INFLOWS]
;;Node           Constituent  Time Series      Type     Mfactor  Sfactor  Baseline Pattern
;;-------------- ------------ ---------------- -------- -------- -------- -------- --------
;; SYNTHETIC TEST INFLOWS — the source .xp carried no constant inflows
;; and RUNF hydrology is not converted; 1.00 CFS is applied at each
;; headwater node so the network runs wet for QA. Replace with real
;; hydrology or inflow hydrographs before using results.
mh               FLOW         ""               FLOW     1.0      1.0      1.00

[COORDINATES]
;;Node           X-Coord            Y-Coord
;;-------------- ------------------ ------------------
mh               23.54              28.09             
mh_2             23.32              61.75             
mh_3             68.31              61.33             
mh_4             103.31             61.07             
mh_5             103.05             103.32            
mh_6             103.29             143.08            
outlet           102.79             213.97            
mh_7             71.05              212.53            
mh_8             71.05              153.50            
mh_9             71.05              103.50            

[MAP]
DIMENSIONS 23.32 28.09 103.31 213.97
Units      None

[REPORT]
SUBCATCHMENTS ALL
NODES ALL
LINKS ALL
