;; SWMM5 .inp converted from XPSWMM .xp file
;; Generated by XPSWMM Card Reader
;; Source format: XP_CARD | Original title: FORT WAYNE CSO IMPACT CHARACT. STUDY   C:\XPS\RudSyp1.XP
;; Links parsed from source: 395 | Routable in this .inp: 395

[TITLE]
;;Project Title/Notes
FORT WAYNE CSO IMPACT CHARACT. STUDY   C:\XPS\RudSyp1.XP

[OPTIONS]
FLOW_UNITS           CFS
INFILTRATION         HORTON
FLOW_ROUTING         DYNWAVE
LINK_OFFSETS         DEPTH
MIN_SLOPE            0.0
ALLOW_PONDING        NO
SKIP_STEADY_STATE    NO
ROUTING_STEP         00:00:05
VARIABLE_STEP        0.75
INERTIAL_DAMPING     PARTIAL
NORMAL_FLOW_LIMITED  BOTH
MAX_TRIALS           50
START_DATE           01/01/2001
START_TIME           00:00:00
REPORT_START_DATE    01/01/2001
REPORT_START_TIME    00:00:00
END_DATE             01/02/2001
END_TIME             00:00:00
SWEEP_START          01/01
SWEEP_END            12/31
DRY_DAYS             0
REPORT_STEP          00:15:00
WET_STEP             00:05:00
DRY_STEP             01:00:00

[JUNCTIONS]
;;Name           Elev       MaxDepth   InitDepth  SurDepth   Aponded
;;-------------- ---------- ---------- ---------- ---------- ----------
M06711           763.20     0          0          0          0
R46011           765.00     0          0          0          0
M14085           754.97     0          0          0          0
M10310           756.60     0          0          0          0
Reg12            756.59     0          0          0          0
M10251           755.80     0          0          0          0
M10250           758.20     0          0          0          0
M10130           754.57     0          0          0          0
M10121           757.20     0          0          0          0
M10120           755.60     0          0          0          0
L06087           755.50     0          0          0          0
L06438           766.30     0          0          0          0
L06040           766.71     0          0          0          0
M06055           770.60     0          0          0          0
N06007           784.10     0          0          0          0
K06290           767.30     0          0          0          0
N14360           754.00     0          0          0          0
O06017           770.85     0          0          0          0
P06119           768.50     0          0          0          0
O10241           747.50     0          0          0          0
O10240           747.50     0          0          0          0
O10239           747.00     0          0          0          0
O10101           747.03     0          0          0          0
P06014(R7)       754.80     0          0          0          0
P10037           749.00     0          0          0          0
P10034           749.30     0          0          0          0
P10033           749.50     0          0          0          0
Q10062           750.00     0          0          0          0
Q10061           745.10     0          0          0          0
Q06059           750.00     0          0          0          0
Q06061           745.00     0          0          0          0
Q06060           748.00     0          0          0          0
Q06058           749.13     0          0          0          0
Q06050           750.00     0          0          0          0
Q06037           751.00     0          0          0          0
Q06002           753.50     0          0          0          0
Q14154           760.00     0          0          0          0
Q14025           760.00     0          0          0          0
Q10060(R5)       745.00     0          0          0          0
K02051           761.74     0          0          0          0
P50009           778.00     0          0          0          0
L18129           766.20     0          0          0          0
L18088           762.60     0          0          0          0
M18272           756.20     0          0          0          0
M18261           766.10     0          0          0          0
M18260           766.00     0          0          0          0
M18256           755.30     0          0          0          0
M18237           765.07     0          0          0          0
M18010           764.00     0          0          0          0
M18232           762.50     0          0          0          0
M18231           763.00     0          0          0          0
N18183           765.00     0          0          0          0
M22135           765.00     0          0          0          0
N18182           758.10     0          0          0          0
N22146           752.10     0          0          0          0
N22147           760.00     0          0          0          0
N22016           775.01     0          0          0          0
N26203           771.60     0          0          0          0
N26202           773.26     0          0          0          0
S02008           754.10     0          0          0          0
O22059           753.30     0          0          0          0
O22058           753.20     0          0          0          0
O26013           763.00     0          0          0          0
R06001           745.50     0          0          0          0
U14042           775.00     0          0          0          0
V14003           776.00     0          0          0          0
J22054           776.40     0          0          0          0
Q26015           764.00     0          0          0          0
Q26011           771.50     0          0          0          0
P30011           763.50     0          0          0          0
Q34023           780.50     0          0          0          0
Q38055           766.00     0          0          0          0
Q42065           759.00     0          0          0          0
Q42064           760.00     0          0          0          0
P34101           765.00     0          0          0          0
N30190           775.00     0          0          0          0
N30193           774.50     0          0          0          0
N30186           775.50     0          0          0          0
K26001           787.00     0          0          0          0
K30047           797.00     0          0          0          0
K30019           787.00     0          0          0          0
J34002           798.00     0          0          0          0
J34001           799.50     0          0          0          0
J38012           802.50     0          0          0          0
J38005           802.50     0          0          0          0
J38004           800.50     0          0          0          0
V10001           740.50     0          0          0          0
I18051           784.80     0          0          0          0
I18031           783.00     0          0          0          0
I18032           783.00     0          0          0          0
I18012           782.90     0          0          0          0
I34019           814.00     0          0          0          0
H18028           789.00     0          0          0          0
P30001           763.00     0          0          0          0
P30010           764.50     0          0          0          0
P30005           760.50     0          0          0          0
P30004           757.50     0          0          0          0
N58027           798.00     0          0          0          0
P54003           789.50     0          0          0          0
P46004           774.00     0          0          0          0
P66001           826.00     0          0          0          0
L58008           817.00     0          0          0          0
X30001           779.15     0          0          0          0
S23024           768.00     0          0          0          0
R19074           774.00     0          0          0          0
S19006           767.90     0          0          0          0
T14038           763.00     0          0          0          0
T14065           759.50     0          0          0          0
T10006           757.00     0          0          0          0
T10007           757.50     0          0          0          0
R27014           770.70     0          0          0          0
T02006           753.30     0          0          0          0
X22045           773.42     0          0          0          0
X22046           772.39     0          0          0          0
X26001           775.14     0          0          0          0
X18001           762.26     0          0          0          0
X18037           762.26     0          0          0          0
W18003           774.00     0          0          0          0
J42005           813.00     0          0          0          0
U02022           760.60     0          0          0          0
U05004           762.30     0          0          0          0
U02015           762.90     0          0          0          0
T06006           740.10     0          0          0          0
S06002           746.00     0          0          0          0
S06003           744.60     0          0          0          0
V11005           759.10     0          0          0          0
W10005           765.30     0          0          0          0
T46008           774.50     0          0          0          0
S46002           767.00     0          0          0          0
S46003           774.60     0          0          0          0
J46004           825.00     0          0          0          0
K58001           820.00     0          0          0          0
U15004           765.50     0          0          0          0
S15012           768.50     0          0          0          0
K66003           846.10     0          0          0          0
T54008           776.00     0          0          0          0
T54004           764.00     0          0          0          0
U54008           769.50     0          0          0          0
U54006           770.00     0          0          0          0
S50002           765.60     0          0          0          0
R50005           764.50     0          0          0          0
R50074           774.50     0          0          0          0
Reg8             768.93     0          0          0          0
Reg8-OR1         768.93     0          0          0          0
Reg8-W1          768.93     0          0          0          0
Reg8-OUT         768.93     0          0          0          0
P06124           768.93     0          0          0          0
Reg11            780.00     0          0          0          0
Reg11-OR1        780.00     0          0          0          0
Reg11-W1         780.00     0          0          0          0
Reg11-OUT        780.00     0          0          0          0
N06102           780.00     0          0          0          0
Reg3             756.00     0          0          0          0
Reg3-OR1         756.00     0          0          0          0
Reg12C           760.00     0          0          0          0
Reg12C-W1        760.00     0          0          0          0
Reg12C-OUT       760.00     0          0          0          0
L06112           760.00     0          0          0          0
Reg15-1          760.00     0          0          0          0
K06066           760.00     0          0          0          0
Reg15-W1         760.00     0          0          0          0
Reg15-OUT        760.00     0          0          0          0
Reg15            760.00     0          0          0          0
Reg14-OR1        753.07     0          0          0          0
Reg15-OR1        760.00     0          0          0          0
R14075           780.00     0          0          0          0
Reg30            780.00     0          0          0          0
R14033           780.00     0          0          0          0
Reg31            785.00     0          0          0          0
Reg31-W1         783.00     0          0          0          0
Reg31-OUT        783.00     0          0          0          0
Reg30-W1         780.00     0          0          0          0
Reg30-OUT        780.00     0          0          0          0
R18182           780.00     0          0          0          0
S18081           787.00     0          0          0          0
Q06038           750.00     0          0          0          0
Reg4             750.00     0          0          0          0
Reg4-OUT         750.00     0          0          0          0
Reg10            760.00     0          0          0          0
Reg10-W1         760.00     0          0          0          0
Reg10-OUT        760.00     0          0          0          0
O10295           760.00     0          0          0          0
Reg10-OR1        760.00     0          0          0          0
Reg14            753.07     0          0          0          0
K06250           753.07     0          0          0          0
Reg12A           758.00     0          0          0          0
Reg12B           763.20     0          0          0          0
L06086           755.50     0          0          0          0
Reg12D           755.50     0          0          0          0
L06079           756.80     0          0          0          0
Reg12E           755.00     0          0          0          0
Reg12F           752.40     0          0          0          0
L06172           760.00     0          0          0          0
L06140           755.00     0          0          0          0
L06069           756.70     0          0          0          0
M10252           755.80     0          0          0          0
M10237           755.00     0          0          0          0
LS23-W1          755.00     0          0          0          0
M10234           755.00     0          0          0          0
Reg12A-W2        758.00     0          0          0          0
Reg12A-OUT       758.00     0          0          0          0
Reg12-OR1        756.59     0          0          0          0
M06251           758.00     0          0          0          0
Reg12A-OR1       758.20     0          0          0          0
R12&12AOUT       750.00     0          0          0          0
R12B-W1          763.20     0          0          0          0
R12B-OR1         763.20     0          0          0          0
R12B-OUT         763.20     0          0          0          0
M06098           763.20     0          0          0          0
R12D-W1          755.50     0          0          0          0
R12D-OUT         755.50     0          0          0          0
R12E-OR1         755.00     0          0          0          0
R12F-OUT         752.40     0          0          0          0
Reg24-W1         755.00     0          0          0          0
Reg24-OUT        755.00     0          0          0          0
L18064           755.00     0          0          0          0
Reg24            755.00     0          0          0          0
N22092           763.11     0          0          0          0
Reg26            763.90     0          0          0          0
Reg26A           762.80     0          0          0          0
Reg26-OUT        763.00     0          0          0          0
Reg26A-OUT       762.00     0          0          0          0
N22101           763.00     0          0          0          0
Reg35            776.25     0          0          0          0
M18271           758.00     0          0          0          0
Reg34A           763.70     0          0          0          0
O22092           760.74     0          0          0          0
O22071           764.74     0          0          0          0
Reg35-OUT        765.00     0          0          0          0
Reg34            760.80     0          0          0          0
P22157           776.00     0          0          0          0
O22100           762.00     0          0          0          0
Reg34-OUT        760.00     0          0          0          0
Reg34-W1         761.00     0          0          0          0
Reg34A-W1        763.00     0          0          0          0
Reg34A-OUT       763.00     0          0          0          0
Reg35-W1         776.00     0          0          0          0
Reg28            758.00     0          0          0          0
Reg28-W1         758.00     0          0          0          0
Reg28-OUT        758.00     0          0          0          0
LS23/DISCH       758.00     0          0          0          0
Reg23-OR1        754.00     0          0          0          0
Reg23            754.00     0          0          0          0
Reg23-OUT        754.00     0          0          0          0
M10101           754.00     0          0          0          0
LS22/DISCH       759.57     0          0          0          0
M10140           754.00     0          0          0          0
LS10/OUT1        751.00     0          0          0          0
J66008           851.00     0          0          0          0
P66038           822.00     0          0          0          0
T58003           785.50     0          0          0          0
T58007           786.00     0          0          0          0
S58003           787.50     0          0          0          0
V46001           784.00     0          0          0          0
O38175           798.90     0          0          0          0
R26001           779.50     0          0          0          0
Q34003           781.00     0          0          0          0
R34042           774.70     0          0          0          0
N34201           799.57     0          0          0          0
H30006           831.00     0          0          0          0
H34012           819.50     0          0          0          0
L42009           826.50     0          0          0          0
L38009           806.70     0          0          0          0
L34023           812.00     0          0          0          0
V34032           804.06     0          0          0          0
V34016           802.04     0          0          0          0
T14015           775.00     0          0          0          0
T14018           775.40     0          0          0          0
T14011           774.00     0          0          0          0
R18002           780.00     0          0          0          0
W02011           763.00     0          0          0          0
Reg4-OR1         750.00     0          0          0          0
SWB4             745.00     0          0          0          0
SWB5             748.00     0          0          0          0
SWB3             742.00     0          0          0          0
SWB2             756.00     0          0          0          0
SWB1             756.00     0          0          0          0
SWFINFLOW        755.25     0          0          0          0
Reg9             760.00     0          0          0          0
Reg9-OUT         750.00     0          0          0          0
Reg9-OR1         765.00     0          0          0          0
LS10-W1          747.00     0          0          0          0
LS10/OUT2        751.00     0          0          0          0
O10090           747.00     0          0          0          0
O10082           747.00     0          0          0          0
LS10-W3          747.00     0          0          0          0
LS10/OUT3        756.08     0          0          0          0
LS10/OUT4        756.00     0          0          0          0
Reg13            766.30     0          0          0          0
L06293           768.00     0          0          0          0
LS22-OUT         759.00     0          0          0          0
LS23-OUT         756.00     0          0          0          0
LS23-S           758.00     0          0          0          0
LS23-S2          758.00     0          0          0          0
SWF-OUT          755.25     0          0          0          0
WWTP             760.00     0          0          0          0
WWTP-OUT         760.00     0          0          0          0
STR#1            772.00     0          0          0          0
X22052           784.00     0          0          0          0
STJ#1            765.00     0          0          0          0
STJ#14           774.00     0          0          0          0
STJ#13           772.00     0          0          0          0
STJ#12           766.50     0          0          0          0
STJ#11           766.50     0          0          0          0
STJ#10           770.00     0          0          0          0
STJ#4(IN)        765.00     0          0          0          0
STJ#3(OUT)       764.00     0          0          0          0
STJ#2            764.00     0          0          0          0
Q06005           760.71     0          0          0          0
R02033           760.62     0          0          0          0
R06030           760.76     0          0          0          0
R02069           789.43     0          0          0          0
REG38-W1         760.00     0          0          0          0
REG38OUT         760.00     0          0          0          0
Q03089           795.00     0          0          0          0
Q07122           793.00     0          0          0          0
Q07123           797.00     0          0          0          0
REG36            796.00     0          0          0          0
REG36-W1         796.00     0          0          0          0
REG36OUT         796.00     0          0          0          0
R7OFMH           752.30     0          0          0          0
Q19044           785.00     0          0          0          0
Q19PUMPS         785.00     0          0          0          0
T46012           777.50     0          0          0          0
T46OUT           775.00     0          0          0          0
K07026           755.67     0          0          0          0
J03012           748.71     0          0          0          0
K02047           759.07     0          0          0          0
J02099           751.50     0          0          0          0
J02089           751.00     0          0          0          0
K11023           752.29     0          0          0          0
K11011           748.32     0          0          0          0
K11009           749.63     0          0          0          0
K11010           748.57     0          0          0          0
K11008           760.07     0          0          0          0
K11005           752.00     0          0          0          0
K11004           760.00     0          0          0          0
I02004           754.15     0          0          0          0
H03072           755.18     0          0          0          0
H03001           763.60     0          0          0          0
H02079           756.30     0          0          0          0
H02078           756.40     0          0          0          0
G07003           764.80     0          0          0          0
G02009           778.40     0          0          0          0
E11017           764.20     0          0          0          0
E11016           764.40     0          0          0          0
D11042           762.60     0          0          0          0
D11035           761.60     0          0          0          0
Reg19-OR1        760.00     0          0          0          0
Reg19            760.00     0          0          0          0
Reg19-1          760.00     0          0          0          0
Reg19-W1         760.00     0          0          0          0
Reg19-OUT        760.00     0          0          0          0
K11117           760.00     0          0          0          0
Reg16-OR1        751.00     0          0          0          0
Reg16            751.00     0          0          0          0
Reg16-W1         751.00     0          0          0          0
Reg16-OUT        751.00     0          0          0          0
J02075           751.00     0          0          0          0
Reg18            753.00     0          0          0          0
K07029           753.00     0          0          0          0
Reg18-W1         753.00     0          0          0          0
Reg18-OUT        753.00     0          0          0          0
Reg18-OR2        753.00     0          0          0          0
Reg18-OR1        753.00     0          0          0          0
LS18/REG         755.80     0          0          0          0
LS18-OR1         755.80     0          0          0          0
K05093           755.80     0          0          0          0
J05291           755.80     0          0          0          0
LS18/OUT         763.33     0          0          0          0
G02008           791.00     0          0          0          0
F02013           793.50     0          0          0          0
E03032           783.90     0          0          0          0
E03002           794.00     0          0          0          0
E02053           792.50     0          0          0          0
E02002           810.50     0          0          0          0
LS18-OUT         762.00     0          0          0          0
LS18-S           763.25     0          0          0          0
J02116           750.07     0          0          0          0
J02115           750.07     0          0          0          0
3814             755.20     0          0          0          0
3820             767.90     0          0          0          0
K07027           747.07     0          0          0          0
HW_992LReg8-OR1  752.01     0          0          0          0
HW_003LReg11-OR1 759.57     0          0          0          0
HW_016LReg3-OR1  736.47     0          0          0          0
HW_035LReg12COR1 745.77     0          0          0          0
HW_051LReg15-OR1 732.60     0          0          0          0
HW_44            744.48     0          0          0          0
HW_156LS10NSAN   0          0          0          0          0
HW_65            737.12     0          0          0          0
HW_19            737.39     0          0          0          0
HW_02            738.56     0          0          0          0
HW_224LL06086    738.58     0          0          0          0
HW_240LM10252    737.57     0          0          0          0
HW_254LReg12-OR1 728.26     0          0          0          0
HW_270LR12B-OR1  746.41     0          0          0          0
HW_306Reg24-OR   0          0          0          0          0
HW_311LN22092    749.44     0          0          0          0
HW_344LS3_PUMPS  0          0          0          0          0
R23-18"          732.15     0          0          0          0
HW_139LO54003    781.11     0          0          0          0
HW_150LP46004    758.83     0          0          0          0
S4610"           763.00     0          0          0          0
HW_976LR50005    757.05     0          0          0          0
Q42-12           752.87     0          0          0          0
Q42A24           752.07     0          0          0          0
P3016"           749.51     0          0          0          0
P3012"           747.83     0          0          0          0
P30-2            751.86     0          0          0          0
O2224"           743.16     0          0          0          0
O2214"           742.16     0          0          0          0
HW_056LO22059    742.08     0          0          0          0
N2224"           741.54     0          0          0          0
N2214"           738.90     0          0          0          0
HW_69            738.63     0          0          0          0
HW_000LN22016    753.93     0          0          0          0
HW_84            753.48     0          0          0          0
M1814"           755.09     0          0          0          0
M1810"           753.24     0          0          0          0
HW_93            753.24     0          0          0          0
N1814"           750.69     0          0          0          0
N1810"           737.42     0          0          0          0
HW_36            755.67     0          0          0          0
L1814"           756.94     0          0          0          0
L1810"           755.67     0          0          0          0
HW_190LJ22054    763.57     0          0          0          0
J3416"           793.96     0          0          0          0
J3412"           793.61     0          0          0          0
J3812"           796.99     0          0          0          0
HW_48            736.90     0          0          0          0
HW_39            736.09     0          0          0          0
HW_53            735.14     0          0          0          0
HW_06            728.58     0          0          0          0
HW_17            740.49     0          0          0          0
HW_54            726.54     0          0          0          0
HW_73            725.92     0          0          0          0
HW_02_2          730.15     0          0          0          0
HW_46            729.39     0          0          0          0
HW_10            728.62     0          0          0          0
HW_08            727.92     0          0          0          0
HW_67            727.84     0          0          0          0
HW_20            725.14     0          0          0          0
HW_74            728.03     0          0          0          0
HW_86            728.82     0          0          0          0
HW_49            741.07     0          0          0          0
HW_64            744.31     0          0          0          0
HW_56            746.33     0          0          0          0
HW_82            752.75     0          0          0          0
HW_34            724.34     0          0          0          0
HW_80            722.84     0          0          0          0
X1824"           752.50     0          0          0          0
S0624"           730.60     0          0          0          0
S0620"           728.47     0          0          0          0
T1018"           749.30     0          0          0          0
T1010"           748.90     0          0          0          0
HW_109LR06001    723.42     0          0          0          0
HW_35            749.24     0          0          0          0
HW_120LR14075    761.97     0          0          0          0
HW_645LReg4-OR1  734.00     0          0          0          0
HW_28            731.12     0          0          0          0
HW_33            732.17     0          0          0          0
HW_84_2          722.54     0          0          0          0
HW_46_2          721.93     0          0          0          0
SWF96B           716.39     0          0          0          0
HW_757LReg9-OR1  736.54     0          0          0          0
HW_776Reg13-OR   0          0          0          0          0
Q1060E2          721.55     0          0          0          0
17.76"           754.00     0          0          0          0
H0212"           748.58     0          0          0          0
E1114B           753.64     0          0          0          0
K1118"           741.27     0          0          0          0
K1124"a          739.53     0          0          0          0
LJ02116_30       733.05     0          0          0          0
HW_40163816      738.80     0          0          0          0
HW_40173822      756.53     0          0          0          0
K0708"           742.47     0          0          0          0
HW_886LK02047    730.93     0          0          0          0

[OUTFALLS]
;;Name           Elev       Type       Stage      Gated
;;-------------- ---------- ---------- ---------- -----
M10127           755.08     FREE                  NO

[STORAGE]
;;Name           Elev       MaxDepth   InitDepth  Shape      Curve/Params
;;-------------- ---------- ---------- ---------- ---------- ----------
WWTPINFLOW       750.00     10.00      0          FUNCTIONAL 295.00 0          0
LS10/WELL        747.00     10.00      0          FUNCTIONAL 444.00 0          0
LS23/WELL        758.00     10.00      0          FUNCTIONAL 289.00 0          0
LS3/WELL         758.00     10.00      0          FUNCTIONAL 97.00 0          0
LS22/WELL        754.00     10.00      0          FUNCTIONAL 1660.00 0          0
LS10-W2          747.00     10.00      0          FUNCTIONAL 800.00 0          0
T46WELL          775.00     10.00      0          FUNCTIONAL 247.00 0          0
LS18/WELL        763.25     10.00      0          FUNCTIONAL 896.00 0          0

[CONDUITS]
;;Name           From             To               Length     Roughness  InOffset   OutOffset  InitFlow   MaxFlow
;;-------------- ---------------- ---------------- ---------- ---------- ---------- ---------- ---------- ----------
261              M10310           Reg12            27.46      0.0140     735.67     735.66     0          0
264              M10251           M10250           285.81     0.0140     737.53     737.29     0          0
402              O10241           O10240           40.00      0.0140     731.72     728.68     0          0
404              O10240           O10239           840.69     0.0140     728.68     728.58     0          0
471              P10034           P10033           424.76     0.0140     725.97     725.92     0          0
505              Q06061           Q06060           505.36     0.0140     721.49     721.33     0          0
506              Q06060           Q06059           339.63     0.0140     721.33     721.23     0          0
499              Q06059           Q06050           230.42     0.0140     721.19     721.11     0          0
508              Q06058           Q06059           65.39      0.0140     721.23     721.19     0          0
510              Q06050           WWTPINFLOW       18.68      0.0140     721.11     721.05     0          0
493              Q10061           Q10062           534.57     0.0140     721.70     721.60     0          0
573              Q10060(R5)       Q10061           125.72     0.0140     732.00     729.70     0          0
758              M18260           M18261           104.65     0.0140     746.40     746.33     0          0
791              M18010           N18183           194.31     0.0140     750.75     750.69     0          0
1010LN26202      N26202           N26203           130.10     0.0140     763.79     762.51     0          0
1393LJ38005      J38005           J38012           471.47     0.0140     796.44     795.80     0          0
1485LI18031      I18031           I18032           119.36     0.0140     771.18     771.12     0          0
2066LP30001      P30001           O26013           737.28     0.0140     745.42     745.00     0          0
2602LS06003      S06003           R06001           300.57     0.0140     723.79     723.42     0          0
2995LReg8-1      P06124           Reg8             100.00     0.0140     754.18     754.14     0          0
2993LReg8-W1     Reg8-W1          Reg8-OUT         100.00     0.0140     754.17     750.00     0          0
992LReg8-OR1     HW_992LReg8-OR1  P06119           199.91     0.0140     752.01     729.56     0          0
3006LReg11-1     N06102           Reg11            100.00     0.0140     761.61     761.57     0          0
3004LReg11-W1    Reg11-W1         Reg11-OUT        100.00     0.0140     761.57     760.00     0          0
003LReg11-OR1    HW_003LReg11-OR1 N06007           128.32     0.0140     759.57     731.34     0          0
016LReg3-OR1     HW_016LReg3-OR1  Q06002           8.18       0.0140     736.47     734.67     0          0
3037LReg12C-W1   Reg12C-W1        Reg12C-OUT       39.00      0.0140     745.77     745.73     0          0
035LReg12COR1    HW_035LReg12COR1 L06087           25.95      0.0140     745.77     740.06     0          0
3039LL06112      L06112           Reg12C           900.00     0.0140     746.22     745.77     0          0
3050LReg14-OR1   Reg14-OR1        Reg15-OR1        100.00     0.0140     734.15     734.07     0          0
051LReg15-OR1    HW_051LReg15-OR1 K06290           11.18      0.0140     732.60     730.14     0          0
3046LReg15-2     K06066           Reg15-1          100.00     0.0140     739.85     739.81     0          0
3045LReg15-1     Reg15-1          Reg15            5.00       0.0140     739.81     739.81     0          0
3047LReg15-W1    Reg15-W1         Reg15-OUT        100.00     0.0140     739.81     739.77     0          0
44               HW_44            Q10060(R5)       3142.00    0.0140     744.48     732.00     0          0
3127Reg31-DIV    Reg31            R14033           361.00     0.0140     775.98     770.00     0          0
3138LReg30-1     R18182           Reg30            100.00     0.0140     762.71     762.67     0          0
3136LReg30-W1    Reg30-W1         Reg30-OUT        100.00     0.0140     762.67     762.63     0          0
3139LReg31-1     S18081           Reg31            100.00     0.0140     777.24     777.20     0          0
3134LReg31-W1    Reg31-W1         Reg31-OUT        100.00     0.0140     776.76     776.72     0          0
3158LQ06038      Q06038           Reg4             100.00     0.0140     740.37     740.25     0          0
3159LReg4        Reg4             Reg4-OUT         100.00     0.0140     740.25     740.25     0          0
3172LReg10-1     O10295           Reg10            100.00     0.0140     741.64     741.57     0          0
3169Reg10-OR     Reg10            Reg10-OR1        2300.00    0.0140     741.27     740.50     0          0
3170LReg10-W1    Reg10-W1         Reg10-OUT        100.00     0.0140     741.57     741.50     0          0
3180Reg14-W      Reg14            Reg15-W1         10.00      0.0140     743.66     743.50     0          0
3181LReg14-1     K06250           Reg14            100.00     0.0140     743.90     743.66     0          0
65               HW_65            M10310           433.00     0.0140     737.12     736.86     0          0
19               HW_19            M10310           875.00     0.0140     737.39     737.04     0          0
02               HW_02            M06711           1300.00    0.0140     738.56     737.89     0          0
224LL06086       HW_224LL06086    L06087           40.00      0.0140     738.58     738.56     0          0
3227LL06079      L06079           L06086           1238.00    0.0140     739.82     738.58     0          0
3233LL06073      Reg12F           L06079           320.00     0.0140     743.08     741.00     0          0
3236LL06069      L06069           Reg12F           230.00     0.0140     746.74     746.00     0          0
3235LL06140      L06140           Reg12E           340.00     0.0140     742.61     741.73     0          0
3234LL06172      L06172           Reg12D           950.00     0.0140     752.64     747.85     0          0
3244LM10234      M10234           LS23-W1          240.00     0.0140     738.13     737.99     0          0
3242LLS23-W1     LS23-W1          M10237           20.00      0.0140     737.99     737.97     0          0
3241LM10237      M10237           M10252           400.00     0.0140     737.97     737.57     0          0
240LM10252       HW_240LM10252    M10251           220.00     0.0140     737.57     737.53     0          0
3255LM06251      M06251           Reg12A           100.00     0.0140     748.60     748.51     0          0
3251LR12A-W2     Reg12A-W2        Reg12A-OUT       360.00     0.0140     748.51     746.16     0          0
262LR12A-OR1     Reg12            M10250           20.00      0.0140     748.51     748.41     0          0
254LReg12-OR1    HW_254LReg12-OR1 M10130           10.00      0.0140     728.26     727.84     0          0
3252LR12&12A     Reg12A-OUT       R12&12AOUT       230.00     0.0140     744.10     744.00     0          0
3272LM06098      M06098           Reg12B           100.00     0.0140     746.46     746.41     0          0
3269LR12B-W1     R12B-W1          R12B-OUT         575.00     0.0140     746.41     746.12     0          0
270LR12B-OR1     HW_270LR12B-OR1  M06711           15.00      0.0140     746.41     738.39     0          0
3225LR12D-OR1    Reg12D           L06086           10.00      0.0140     747.85     740.08     0          0
3278LR12D-W1     R12D-W1          R12D-OUT         48.00      0.0140     747.85     745.73     0          0
3229Reg12E-OR    Reg12E           R12E-OR1         10.00      0.0140     741.73     741.70     0          0
3287LR12E-OR1    R12E-OR1         L06079           150.00     0.0140     741.70     739.82     0          0
3233R12F-W       Reg12F           R12F-OUT         100.00     0.0140     744.50     742.00     0          0
3299LL18064      L18064           Reg24            100.00     0.0140     748.70     748.52     0          0
3296LReg24-W1    Reg24-W1         Reg24-OUT        80.00      0.0140     748.42     748.00     0          0
311LN22092       HW_311LN22092    M18261           1536.06    0.0140     749.44     746.75     0          0
3318LN22101      N22101           Reg26A           100.00     0.0140     753.50     753.26     0          0
3314R26A-W       Reg26A           Reg26A-OUT       100.00     0.0140     753.26     752.86     0          0
3314R26A-D       Reg26A           Reg26            460.00     0.0140     752.80     751.86     0          0
3313Reg26-W      Reg26            Reg26-OUT        100.00     0.0140     752.89     752.75     0          0
3330LO22071      O22071           O22092           1800.00    0.0140     756.40     749.99     0          0
3329LO22092      O22092           Reg34A           760.00     0.0140     749.99     749.05     0          0
3328LO22085      Reg34A           M18271           4810.00    0.0140     749.00     741.06     0          0
3347LReg34-W1    Reg34-W1         Reg34-OUT        425.00     0.0140     754.01     753.80     0          0
3345LO22100      O22100           Reg34            165.00     0.0140     754.13     754.01     0          0
3352LR34A-W1     Reg34A-W1        Reg34A-OUT       180.00     0.0140     749.00     748.53     0          0
3343LP22157      P22157           Reg35            100.00     0.0140     762.02     761.90     0          0
3358LReg35-W1    Reg35-W1         Reg35-OUT        635.00     0.0140     762.71     757.00     0          0
3362LReg28-W1    Reg28-W1         Reg28-OUT        100.00     0.0140     738.07     737.95     0          0
3327LM18271      M18271           Reg28            33.00      0.0140     741.06     740.98     0          0
380LREG23-OR1    O06017           M10120           540.00     0.0140     732.80     732.15     0          0
3384LM10090B     M10101           LS22/WELL        200.00     0.0140     735.06     734.27     0          0
R23-30"          R23-18"          M10121           227.00     0.0140     732.15     728.82     0          0
3384LM10090A     M10101           Reg23            180.00     0.0140     735.06     734.97     0          0
3395LM10140      M10140           Reg23            200.00     0.0140     735.05     734.97     0          0
3382Reg23-W      Reg23            Reg23-OUT        100.00     0.0140     734.97     734.92     0          0
3415LJ66008      J66008           K66003           3207.00    0.0140     838.08     833.77     0          0
2896LK66003      K66003           K58001           8984.00    0.0140     833.01     814.00     0          0
2821LK58001      K58001           L58008           3388.00    0.0140     812.30     801.10     0          0
2252LL58008      L58008           N58027           3663.00    0.0140     800.82     789.21     0          0
2118LN58027      N58027           P54003           3149.00    0.0140     787.91     781.11     0          0
139LO54003       HW_139LO54003    P50009           4967.00    0.0140     781.11     765.00     0          0
721              P50009           P46004           2353.00    0.0140     764.88     759.51     0          0
150LP46004       HW_150LP46004    R46011           4284.00    0.0140     758.83     755.00     0          0
3433LP66038      P66038           P66001           1970.00    0.0140     815.00     812.73     0          0
2985LR50074      R50074           R50005           1382.00    0.0140     761.73     759.00     0          0
2237LP66001      P66001           R50074           15596.00   0.0140     812.37     763.07     0          0
2921LT54008      T54008           T54004           1812.00    0.0140     761.30     759.50     0          0
3441LS58003      S58003           T58007           494.00     0.0140     778.01     777.11     0          0
3440LT58007      T58007           T58003           565.00     0.0140     775.16     774.00     0          0
3439LT58003      T58003           T54008           2525.00    0.0140     773.87     762.30     0          0
2944LU54008      U54008           T54004           3163.00    0.0140     759.85     758.84     0          0
2950LU54006      U54006           U54008           1192.00    0.0140     760.23     759.85     0          0
3448LV46001      V46001           T46008           4096.00    0.0140     776.78     766.95     0          0
2754LT46008      T46008           S46003           2909.00    0.0140     765.30     763.00     0          0
S468"            S4610"           S46002           348.00     0.0140     763.00     759.76     0          0
2776LS46002      S46002           S50002           1472.00    0.0140     759.75     758.81     0          0
2928LT54004      T54004           S50002           3892.00    0.0140     758.84     757.76     0          0
2963LS50002      S50002           R50005           2923.00    0.0140     757.76     757.05     0          0
976LR50005       HW_976LR50005    R46011           4369.00    0.0140     757.05     754.42     0          0
229              R46011           Q42064           2287.00    0.0140     754.42     753.02     0          0
Q42B24           Q42-12           Q42A24           90.00      0.0140     752.87     752.07     0          0
1261LQ42065      Q42065           Q38055           2314.00    0.0140     751.72     750.35     0          0
1249LQ38055      Q38055           STJ#1            892.00     0.0140     750.35     749.77     0          0
3460LO38175      O38175           P34101           4187.00    0.0140     770.04     757.63     0          0
1269LP34101      P34101           P30001           3050.00    0.0140     747.70     745.92     0          0
P3024"           P3016"           P3012"           408.00     0.0140     749.51     747.83     0          0
2077LP30004      P30004           P30001           1652.00    0.0140     747.33     746.49     0          0
1210LQ26015      Q26015           P30005           1050.00    0.0140     751.10     749.76     0          0
1218LQ26011      Q26011           Q26015           1541.00    0.0140     755.99     751.52     0          0
3470LR26001      R26001           Q26011           1526.00    0.0140     766.21     756.71     0          0
2068LP30010      P30010           P30005           1096.00    0.0140     751.31     750.01     0          0
P30-1            P30-2            P30010           91.00      0.0140     751.86     751.41     0          0
1240LQ34023      Q34023           P30011           2977.00    0.0140     755.99     752.02     0          0
3475LQ34003      Q34003           Q34023           1827.00    0.0140     759.00     756.25     0          0
3476LR34042      R34042           STJ#14           1975.00    0.0140     761.98     759.70     0          0
1304LN30193      N30193           O26013           3717.00    0.0140     764.42     748.70     0          0
1309LN30186      N30186           N30190           448.00     0.0140     765.20     765.00     0          0
1295LN30190      N30190           N30193           227.00     0.0140     765.00     764.62     0          0
3482LN34201      N34201           N30186           2761.00    0.0140     792.41     766.27     0          0
O2230"           O2224"           O2214"           60.00      0.0140     743.16     742.16     0          0
056LO22059       HW_056LO22059    N22146           720.00     0.0140     742.08     741.54     0          0
N2230"           N2224"           N2214"           182.00     0.0140     741.54     738.90     0          0
1066LO26013      O26013           O22058           4617.00    0.0140     745.00     743.16     0          0
69               HW_69            N18182           2842.28    0.0140     738.63     737.42     0          0
1008LN26203      N26203           N22016           608.55     0.0140     762.51     760.23     0          0
000LN22016       HW_000LN22016    M18237           4530.00    0.0140     753.93     752.75     0          0
84               HW_84            M18237           611.96     0.0140     753.48     752.75     0          0
M1818"           M1814"           M1810"           134.73     0.0140     755.09     753.24     0          0
93               HW_93            M18010           1322.66    0.0140     753.24     750.75     0          0
N1818"           N1814"           N1810"           350.00     0.0140     750.69     737.42     0          0
36               HW_36            M18231           1367.51    0.0140     755.67     755.09     0          0
L1818"           L1814"           L1810"           90.00      0.0140     756.94     755.67     0          0
190LJ22054       HW_190LJ22054    L18129           5807.00    0.0140     763.57     756.94     0          0
1320LK26001      K26001           J22054           4298.00    0.0140     774.04     764.07     0          0
1335LK30019      K30019           K26001           1143.41    0.0140     775.47     774.04     0          0
1322LK30047      K30047           K30019           2047.00    0.0140     780.00     775.72     0          0
1369LJ34002      J34002           K30047           4392.00    0.0140     793.33     780.40     0          0
J3424"           J3416"           J3412"           60.00      0.0140     793.96     793.61     0          0
1379LJ38012      J38012           J34001           702.00     0.0140     795.00     794.16     0          0
2512LJ42005      J42005           J38012           4292.00    0.0140     805.06     795.75     0          0
2802LJ46004      J46004           J42005           1517.00    0.0140     810.90     805.86     0          0
J3818"           J3812"           J38005           65.00      0.0140     796.99     796.69     0          0
1520LI34019      I34019           J38004           2979.00    0.0140     804.59     797.28     0          0
3514LH30006      H30006           H34012           1951.00    0.0140     813.69     810.34     0          0
3515LH34012      H34012           I34019           2072.00    0.0140     810.24     805.49     0          0
3518LL42009      L42009           L38009           2252.00    0.0140     810.38     799.99     0          0
3519LL38009      L38009           L34023           2213.00    0.0140     799.78     795.99     0          0
3520LL34023      L34023           K30047           5043.00    0.0140     795.21     781.49     0          0
1580LH18028      H18028           I18012           2202.00    0.0140     774.98     772.75     0          0
1490LI18012      I18012           I18031           802.00     0.0140     771.58     771.18     0          0
I1824"           I18032           I18051           130.00     0.0140     771.12     771.05     0          0
1483LI18051      I18051           J22054           5279.00    0.0140     771.05     763.57     0          0
48               HW_48            M18272           1199.67    0.0140     736.90     736.09     0          0
39               HW_39            N14360           3058.62    0.0140     736.09     735.14     0          0
53               HW_53            O10241           5254.67    0.0140     735.14     731.72     0          0
06               HW_06            P10037           2345.38    0.0140     728.58     726.45     0          0
17               HW_17            P10037           2281.00    0.0140     740.49     735.93     0          0
54               HW_54            P10034           586.04     0.0140     726.54     725.97     0          0
73               HW_73            Q10062           793.10     0.0140     725.92     725.70     0          0
02_2             HW_02_2          K06290           792.26     0.0140     730.15     730.14     0          0
46               HW_46            L06040           1684.77    0.0140     729.39     728.62     0          0
10               HW_10            L06438           1146.43    0.0140     728.62     728.09     0          0
08               HW_08            M06055           2196.94    0.0140     727.92     726.64     0          0
67               HW_67            M06055           1564.99    0.0140     727.84     726.72     0          0
20               HW_20            N06007           2288.78    0.0140     725.14     724.34     0          0
74               HW_74            M10130           288.80     0.0140     728.03     727.84     0          0
86               HW_86            M10127           1214.44    0.0140     728.82     728.03     0          0
49               HW_49            M10120           2755.83    0.0140     741.07     732.15     0          0
64               HW_64            M14085           1350.00    0.0140     744.31     741.07     0          0
56               HW_56            M14085           2346.12    0.0140     746.33     741.77     0          0
82               HW_82            M18256           2182.69    0.0140     752.75     744.31     0          0
34               HW_34            O06017           3516.35    0.0140     724.34     722.84     0          0
80               HW_80            P06119           625.33     0.0140     722.84     722.56     0          0
3595LV34032      V34032           V34016           2289.00    0.0140     790.96     786.64     0          0
3596LV34016      V34016           X30001           8383.00    0.0140     786.28     768.25     0          0
2283LX30001      X30001           X26001           3315.00    0.0140     768.20     761.89     0          0
2389LX26001      X26001           STR#1            331.55     0.0140     761.89     761.48     0          0
X2224"           X22046           X22045           205.00     0.0140     761.39     760.66     0          0
X1812"           X1824"           X18037           68.00      0.0140     752.50     752.38     0          0
2381LX22045      X22045           X18001           4583.00    0.0140     760.66     752.61     0          0
2441LX18037      X18037           W10005           6423.93    0.0140     752.38     741.37     0          0
2727LW10005      W10005           V10001           1454.09    0.0140     739.32     729.00     0          0
1402LV10001      V10001           T06006           8664.00    0.0140     729.00     726.39     0          0
2578LT06006      T06006           S06003           3175.00    0.0140     726.39     725.40     0          0
S0636"           S0624"           S0620"           409.00     0.0140     730.60     728.47     0          0
2328LT10006      T10006           R06001           6091.00    0.0140     748.68     737.62     0          0
T1024"           T1018"           T1010"           41.00      0.0140     749.30     748.90     0          0
2321LT14065      T14065           T10007           1102.00    0.0140     751.01     749.40     0          0
2310LT14036      T14038           T14065           1530.00    0.0140     753.62     751.06     0          0
1129LU14042      U14042           T14038           4217.00    0.0140     760.67     754.40     0          0
1170LV14083      V14003           U14042           641.00     0.0140     761.62     760.67     0          0
2447LW18003      W18003           V14003           4068.79    0.0140     767.32     761.62     0          0
3619LT14018      T14018           T14015           319.00     0.0140     760.40     759.93     0          0
3618LT14015      T14015           T14038           1424.00    0.0140     759.93     757.65     0          0
3620LT14011      T14011           T14015           537.00     0.0140     761.90     759.93     0          0
109LR06001       HW_109LR06001    Q10061           4724.00    0.0140     723.42     721.70     0          0
35               HW_35            Q14025           1199.00    0.0140     749.24     744.80     0          0
120LR14075       HW_120LR14075    Q14154           3198.00    0.0140     761.97     749.24     0          0
3126LR14033      R14033           R18002           550.00     0.0140     770.00     768.08     0          0
3627LR18002      R18002           R14075           1235.00    0.0140     768.08     765.12     0          0
1040LS02008      S02008           S06002           1620.00    0.0140     732.12     730.60     0          0
2350LT02006      T02006           S02008           6067.00    0.0140     741.17     732.12     0          0
2533LU02022      U02022           T02006           2458.00    0.0140     742.70     741.17     0          0
2555LU02015      U02015           U02022           668.00     0.0140     743.52     742.70     0          0
3634LW02011      W02011           U02015           3961.00    0.0140     755.57     745.27     0          0
2539LU05004      U05004           U02022           1068.00    0.0140     742.83     742.70     0          0
2637LV11005      V11005           U05004           4934.00    0.0140     744.37     742.83     0          0
2865LU15004      U15004           V11005           4039.00    0.0140     746.16     744.72     0          0
2887LS15012      S15012           U15004           5792.00    0.0140     747.94     746.16     0          0
2305LS19006      S19006           S15012           3106.00    0.0140     748.74     747.94     0          0
2301LR19074      R19074           S19006           1500.00    0.0140     752.43     749.06     0          0
2286LR23024      S23024           S19006           491.00     0.0140     749.34     748.99     0          0
2343LR27014      R27014           S23024           4955.00    0.0140     756.15     750.66     0          0
645LReg4-OR1     HW_645LReg4-OR1  Q06037           100.00     0.0140     734.00     732.78     0          0
28               HW_28            Q06050           1334.58    0.0140     731.12     729.25     0          0
33               HW_33            Q06037           883.56     0.0140     732.17     731.12     0          0
84_2             HW_84_2          P06014(R7)       1206.50    0.0140     722.54     722.01     0          0
46_2             HW_46_2          Q06058           1262.10    0.0140     721.93     721.23     0          0
3865BYPASS1      R7OFMH           SWB1             100.00     0.0140     732.51     732.28     0          0
3656LSWB1        SWB1             SWB2             500.00     0.0140     731.27     730.66     0          0
3655LSWB2        SWB2             SWB3             300.00     0.0140     730.66     729.52     0          0
3654LSWB3        SWB3             SWB5             650.00     0.0140     726.84     724.06     0          0
508_2            Q06058           SWB4             950.00     0.0140     731.50     730.40     0          0
3652LSWB4        SWB4             SWB5             275.00     0.0140     730.00     727.06     0          0
SWF96A           SWF96B           SWFINFLOW        500.00     0.0140     716.39     713.84     0          0
3173LReg10-OR1   Reg10-OR1        Reg9             200.00     0.0140     740.35     740.30     0          0
757LReg9-OR1     HW_757LReg9-OR1  O06017           500.00     0.0140     736.54     735.24     0          0
3748Reg9-W       Reg9             Reg9-OUT         180.00     0.0140     740.30     739.50     0          0
3760LLS10-W1     LS10-W1          O10082           125.50     0.0140     732.02     731.84     0          0
3766LO10090      O10090           LS10-W1          107.70     0.0140     732.25     732.08     0          0
3768LO10082      O10082           LS10/WELL        11.00      0.0140     731.84     728.95     0          0
3770LLS10W3      LS10-W3          LS10-W2          10.00      0.0140     722.26     722.25     0          0
3762LLS10/O2     LS10/OUT2        LS10/OUT3        65.00      0.0140     744.76     744.50     0          0
3398LLS10/O1     LS10/OUT1        LS10/OUT4        75.00      0.0140     745.18     744.50     0          0
3776LReg13       Reg13            L06112           590.00     0.0140     753.25     746.22     0          0
3777LLO6293      L06293           Reg13            200.00     0.0140     753.35     753.25     0          0
3326Reg35-OR     Reg35            O22071           650.00     0.0140     761.87     756.40     0          0
3389LS22-D       LS22/DISCH       LS22-OUT         100.00     0.0140     752.58     752.48     0          0
3372LS23-D       LS23/DISCH       LS23-OUT         100.00     0.0140     752.00     751.74     0          0
3788LLS23-S      LS23-S           LS23/WELL        5.00       0.0140     737.99     737.98     0          0
3790LLS23-s2     LS23-S2          LS3/WELL         5.00       0.0140     737.57     737.56     0          0
Q1060E1          Q1060E2          Q06061           295.41     0.0140     721.55     721.49     0          0
3657LSWF         SWFINFLOW        SWF-OUT          10.00      0.0140     713.84     713.80     0          0
3798LWWTP        WWTP             WWTP-OUT         10.00      0.0140     752.00     751.99     0          0
262_2            Reg12            Reg12A-OUT       700.00     0.0140     746.74     746.16     0          0
3805LSTR#1       STR#1            X22046           72.78      0.0140     761.48     761.39     0          0
3807LX22052      X22052           STR#1            3990.00    0.0140     766.29     761.50     0          0
3809LSTJ#1       STJ#1            P34101           3200.00    0.0140     749.77     747.70     0          0
3811LSTJ#14      STJ#14           STJ#13           205.00     0.0120     759.10     758.69     0          0
3812LSTJ#13      STJ#13           STJ#12           122.22     0.0120     758.26     758.04     0          0
3813LSTJ#12      STJ#12           STJ#11           40.00      0.0120     758.04     757.94     0          0
3814LSTJ#11      STJ#11           STJ#10           137.50     0.0120     754.93     754.82     0          0
3815LSTJ#10      STJ#10           STJ#4(IN)        525.00     0.0120     754.82     754.40     0          0
3817LSTJ#3       STJ#3(OUT)       STJ#2            25.00      0.0120     752.23     752.19     0          0
3818LSTJ#2       STJ#2            STJ#1            200.00     0.0120     752.19     751.77     0          0
11.30"           17.76"           STJ#3(OUT)       433.00     0.0120     754.00     752.50     0          0
3829LR02033      R02033           R06030           220.00     0.0140     750.88     749.72     0          0
3830LR06030      R06030           Q06005           265.00     0.0140     749.72     748.81     0          0
3832LREG38-W1    REG38-W1         REG38OUT         265.00     0.0140     749.72     749.27     0          0
3828LQ06005      Q06005           Reg3             771.00     0.0140     747.81     739.41     0          0
3831LR02069      R02069           Q06005           2274.00    0.0140     766.15     747.81     0          0
3834LQ03089      Q03089           R02069           3447.00    0.0140     781.25     766.15     0          0
3835LQ07122      Q07122           Q03089           499.00     0.0140     783.44     781.25     0          0
3836LQ07123      Q07123           REG36            125.00     0.0140     791.38     790.50     0          0
3837LREG36       REG36            Q07122           150.00     0.0140     790.50     787.50     0          0
3838LREG36-W1    REG36-W1         REG36OUT         500.00     0.0140     786.00     781.00     0          0
3867LQ19OF       Q19044           Q19PUMPS         8.00       0.0140     778.14     778.04     0          0
3867LQ19044      Q19044           S15012           8655.00    0.0140     776.89     750.48     0          0
3872LT46OF       T46012           T46OUT           30.00      0.0140     773.00     772.00     0          0
3872LT46012      T46012           T46WELL          30.00      0.0140     772.00     770.50     0          0
3891LK11009      K11009           K11010           260.00     0.0140     742.25     741.54     0          0
3893LK11008      K11008           K11010           262.00     0.0140     742.17     741.54     0          0
3894LK11005      K11005           K11010           10.00      0.0140     741.28     741.27     0          0
3895LK11004      K11004           K11005           219.11     0.0140     741.38     741.28     0          0
3949LReg19-OR1   Reg19-OR1        K11009           200.00     0.0140     742.55     742.25     0          0
3951LReg19-1     Reg19-1          Reg19            10.00      0.0140     744.06     743.06     0          0
3954LReg19-2     K11117           Reg19-1          100.00     0.0140     744.07     744.06     0          0
3952LReg19-W1    Reg19-W1         Reg19-OUT        46.00      0.0140     744.06     744.00     0          0
3972LReg16-OR3   Reg16-OR1        J02089           1.00       0.0140     737.15     737.14     0          0
3974LReg16-W1    Reg16-W1         Reg16-OUT        100.00     0.0140     739.59     739.47     0          0
3976LJ02075      J02075           Reg16            100.00     0.0140     739.71     739.59     0          0
3979LReg18-W1    Reg18-W1         Reg18-OUT        100.00     0.0140     743.75     743.00     0          0
3978LK07029      K07029           Reg18            100.00     0.0140     743.83     743.75     0          0
3977LReg18       Reg18            Reg18-OR1        48.00      0.0140     742.97     742.47     0          0
3987LJ05291      J05291           LS18/REG         60.00      0.0140     738.53     738.50     0          0
3986LK05093      K05093           LS18/REG         10.00      0.0140     738.51     738.50     0          0
3985LLS18-OR1    LS18-OR1         J03012           40.00      0.0140     738.00     735.40     0          0
3896LI02004      I02004           J02099           4925.00    0.0140     738.68     734.85     0          0
3908LH02079      H02079           I02004           1718.00    0.0140     748.05     745.85     0          0
H0218"           H0212"           H02079           20.00      0.0140     748.58     748.05     0          0
3907LH03001      H03001           H02078           2726.00    0.0140     751.85     748.58     0          0
3911LG02009      G02009           H03001           2614.00    0.0140     763.70     752.95     0          0
3991LF02013      F02013           G02008           1668.00    0.0140     782.48     778.00     0          0
3990LG02008      G02008           G02009           291.00     0.0140     774.25     765.20     0          0
3910LG07003      G07003           H03072           4705.00    0.0140     747.91     743.16     0          0
E1114A           E1114B           E11017           31.17      0.0140     753.64     753.40     0          0
3912LE11017      E11017           G07003           6730.00    0.0140     753.49     747.91     0          0
3914LD11042      D11042           E11016           1331.00    0.0140     754.70     753.62     0          0
3915LD11035      D11035           D11042           799.00     0.0140     755.34     754.70     0          0
3995LE02002      E02002           E02053           1457.00    0.0140     795.77     783.80     0          0
3994LE02053      E02053           E03002           222.00     0.0140     783.56     782.25     0          0
3993LE03002      Reg11            E03032           1254.00    0.0140     783.15     780.98     0          0
K1124"           K1118"           K1124"a          176.00     0.0200     741.27     739.53     0          0
3890LK11011      K11011           K11023           2156.00    0.0140     739.53     738.22     0          0
3889LK11023      K11023           K07026           925.00     0.0140     738.22     737.67     0          0
3883LK07026      K07026           J03012           2997.00    0.0140     737.67     735.28     0          0
3888LJ02089      J02089           J02099           272.00     0.0140     733.34     733.20     0          0
3884LJ03012      Reg3             J02089           2076.00    0.0140     735.28     733.29     0          0
3989LS18-D       LS18/OUT         LS18-OUT         100.00     0.0140     755.00     754.88     0          0
4013LLS18-S      LS18-S           LS18/WELL        12.00      0.0140     738.70     738.67     0          0
3887LJ02099      J02099           J02116           150.00     0.0140     733.20     733.05     0          0
4015LJ02115      J02115           K02047           1175.00    0.0140     731.65     730.93     0          0
LJ02116_24       LJ02116_30       J02115           200.00     0.0140     733.05     731.65     0          0
3906LH03072      H03072           3814             5006.00    0.0140     743.16     739.10     0          0
40163816         HW_40163816      I02004           154.00     0.0140     738.80     738.68     0          0
3992LE03032      E03032           3820             7539.00    0.0140     777.81     768.62     0          0
40173822         HW_40173822      D11035           655.00     0.0140     756.53     755.75     0          0
K0710"           K0708"           K07027           188.00     0.0140     742.47     740.37     0          0
4019LK07027      K07027           K07026           48.00      0.0140     740.37     740.25     0          0
886LK02047       HW_886LK02047    K02051           609.76     0.0140     730.93     730.15     0          0

[ORIFICES]
;;Name           From             To               Type       Offset     Qcoeff     Gated    CloseTime
;;-------------- ---------------- ---------------- ---------- ---------- ---------- -------- ----------
2991Reg8-OR      Reg8             Reg8-OR1         SIDE       0          0.650      NO       0
3002Reg11-OR     Reg11            Reg11-OR1        SIDE       0          0.650      NO       0
3012Reg3-OR      Reg3             Reg3-OR1         SIDE       0          0.650      NO       0
3049Reg15-OR     Reg15            Reg15-OR1        SIDE       0          0.650      NO       0
3125Reg30-OR     Reg30            R14075           SIDE       0          0.650      NO       0
3159Reg4-OR      Reg4             Reg4-OR1         SIDE       0          0.650      NO       0
3180Reg14-OR     Reg14            Reg14-OR1        SIDE       0          0.650      NO       0
262              Reg12            Reg12-OR1        SIDE       0          0.650      NO       0
3218Reg12A-OR    Reg12A           Reg12A-OR1       SIDE       0          0.650      NO       0
3220Reg12B-OR    Reg12B           R12B-OR1         SIDE       0          0.650      NO       0
306Reg24-OR      HW_306Reg24-OR   M18256           SIDE       0          0.650      NO       0
3313Reg26-OR     Reg26            N22092           SIDE       0          0.650      NO       0
3342Reg34-OR     Reg34            O22092           SIDE       0          0.650      NO       0
3361Reg28-OR     Reg28            LS23-S2          SIDE       0          0.650      NO       0
3361Reg28-W      Reg28            Reg28-W1         SIDE       0          0.650      NO       0
3382Reg23-OR     Reg23            Reg23-OR1        SIDE       0          0.650      NO       0
3748Reg9-OR      Reg9             Reg9-OR1         SIDE       0          0.650      NO       0
776Reg13-OR      HW_776Reg13-OR   L06438           SIDE       0          0.650      NO       0
446              P06014(R7)       R7OFMH           SIDE       0          0.650      NO       0
3950Reg19-OR     Reg19            Reg19-OR1        SIDE       0          0.650      NO       0
3973Reg16-OR     Reg16            Reg16-OR1        SIDE       0          0.650      NO       0
3982Reg18-OR     Reg18-OR1        Reg18-OR2        SIDE       0          0.650      NO       0
3984LS18-OR      LS18/REG         LS18-OR1         SIDE       0          0.650      NO       0

[WEIRS]
;;Name           From             To               Type       CrestHt    Qcoeff     Gated    EndCon   EndCoeff   Surcharge
;;-------------- ---------------- ---------------- ---------- ---------- ---------- -------- -------- ---------- ----------
2991Reg8-W       Reg8             Reg8-W1          TRANSVERSE 754.76     1.840      NO       0        0          YES
3002Reg11-W      Reg11            Reg11-W1         TRANSVERSE 762.57     1.840      NO       0        0          YES
3035Reg12C-W     Reg12C           Reg12C-W1        TRANSVERSE 746.77     1.840      NO       0        0          YES
3045Reg15-W      Reg15-1          Reg15-W1         TRANSVERSE 743.07     1.840      NO       0        0          YES
3125Reg30-W      Reg30            Reg30-W1         TRANSVERSE 763.24     1.840      NO       0        0          YES
3127Reg31-W      Reg31            Reg31-W1         TRANSVERSE 777.36     1.840      NO       0        0          YES
3169Reg10-W      Reg10            Reg10-W1         TRANSVERSE 742.57     1.840      NO       0        0          YES
3242LS23-W       LS23-W1          LS23-S           TRANSVERSE 741.99     1.840      NO       0        0          YES
3218Reg12A-W     Reg12A           Reg12A-W2        TRANSVERSE 749.51     1.840      NO       0        0          YES
3220Reg12B-W     Reg12B           R12B-W1          TRANSVERSE 747.74     1.840      NO       0        0          YES
3225Reg12D-W     Reg12D           R12D-W1          TRANSVERSE 749.02     1.840      NO       0        0          YES
3306Reg24-W      Reg24            Reg24-W1         TRANSVERSE 748.98     1.840      NO       0        0          YES
3342Reg34-W      Reg34            Reg34-W1         TRANSVERSE 754.67     1.840      NO       0        0          YES
3328Reg34A-W     Reg34A           Reg34A-W1        TRANSVERSE 749.87     1.840      NO       0        0          YES
3326Reg35-W      Reg35            Reg35-W1         TRANSVERSE 762.86     1.840      NO       0        0          YES
3760LS10-W       LS10-W1          LS10-W3          V-NOTCH    734.08     1.840      NO       0        0          YES
3830REG38-W      R06030           REG38-W1         TRANSVERSE 750.22     1.840      NO       0        0          YES
3837REG36-W      REG36            REG36-W1         TRANSVERSE 790.92     1.840      NO       0        0          YES
3951Reg19-W      Reg19-1          Reg19-W1         TRANSVERSE 745.06     1.840      NO       0        0          YES
3973Reg16-W      Reg16            Reg16-W1         TRANSVERSE 740.17     1.840      NO       0        0          YES
3977Reg18-W      Reg18            Reg18-W1         TRANSVERSE 744.57     1.840      NO       0        0          YES
3984LS18-W       LS18/REG         LS18-S           TRANSVERSE 741.00     1.840      NO       0        0          YES

[PUMPS]
;;Name           From             To               PumpCurve  Status   Startup    Shutoff
;;-------------- ---------------- ---------------- ---------- -------- ---------- ----------
156LS10NSAN      HW_156LS10NSAN   O10101           PC_156LS10NSAN ON       1.00       0         
344LS3/PUMPS     HW_344LS3_PUMPS  M18260           PC_344LS3_PUMPS ON       1.00       0         
3243LS23/PUMPS   LS23/WELL        LS23/DISCH       PC_3243LS23_PUMPS ON       1.00       0         
3387LS22/PUMPS   LS22/WELL        LS22/DISCH       PC_3387LS22_PUMPS ON       1.00       0         
3156LS10ESTORM   LS10/WELL        LS10/OUT1        PC_3156LS10ESTORM ON       1.00       0         
3761LS10NSTORM   LS10-W2          LS10/OUT2        PC_3761LS10NSTORM ON       1.00       0         
517              WWTPINFLOW       WWTP             PC_517     ON       1.00       0         
3874T46PUMPS     T46WELL          T46008           PC_3874T46PUMPS ON       1.00       0         
3988LS18/PUMPS   LS18/WELL        LS18/OUT         PC_3988LS18_PUMPS ON       1.00       0         

[CURVES]
;;Name           Type       X-Value    Y-Value
;;-------------- ---------- ---------- ----------
;; Synthesized generic pump curves — replace with actual pump data
PC_156LS10NSAN   Pump1      0          5
PC_156LS10NSAN              10         10
PC_344LS3_PUMPS  Pump1      0          5
PC_344LS3_PUMPS             10         10
PC_3243LS23_PUMPS Pump1      0          5
PC_3243LS23_PUMPS            10         10
PC_3387LS22_PUMPS Pump1      0          5
PC_3387LS22_PUMPS            10         10
PC_3156LS10ESTORM Pump1      0          5
PC_3156LS10ESTORM            10         10
PC_3761LS10NSTORM Pump1      0          5
PC_3761LS10NSTORM            10         10
PC_517           Pump1      0          5
PC_517                      10         10
PC_3874T46PUMPS  Pump1      0          5
PC_3874T46PUMPS             10         10
PC_3988LS18_PUMPS Pump1      0          5
PC_3988LS18_PUMPS            10         10

[XSECTIONS]
;;Link           Shape        Geom1      Geom2      Geom3      Geom4      Barrels
;;-------------- ------------ ---------- ---------- ---------- ---------- ----------
261              CIRCULAR     3.50       0          0          0          1
264              CIRCULAR     2.25       0          0          0          1
402              HORSESHOE    7.00       0          0          0          1
404              CIRCULAR     7.00       0          0          0          1
471              CIRCULAR     7.00       0          0          0          1
505              CIRCULAR     7.00       0          0          0          1
506              CIRCULAR     7.00       0          0          0          1
499              CIRCULAR     7.00       0          0          0          1
508              CIRCULAR     7.00       0          0          0          1
510              CIRCULAR     7.00       0          0          0          1
493              CIRCULAR     7.00       0          0          0          1
573              CIRCULAR     3.50       0          0          0          1
758              CIRCULAR     1.75       0          0          0          1
791              CIRCULAR     4.00       0          0          0          1
1010LN26202      CIRCULAR     2.25       0          0          0          1
1393LJ38005      CIRCULAR     1.75       0          0          0          1
1485LI18031      CIRCULAR     2.25       0          0          0          1
2066LP30001      CIRCULAR     5.00       0          0          0          1
2602LS06003      CIRCULAR     6.00       0          0          0          1
2995LReg8-1      CIRCULAR     4.00       0          0          0          1
2993LReg8-W1     CIRCULAR     4.00       0          0          0          1
992LReg8-OR1     RECT_CLOSED  2.00       2.00       0          0          1
3006LReg11-1     CIRCULAR     5.00       0          0          0          1
3004LReg11-W1    CIRCULAR     5.00       0          0          0          1
003LReg11-OR1    RECT_CLOSED  2.00       2.00       0          0          1
016LReg3-OR1     RECT_CLOSED  2.00       2.00       0          0          1
3037LReg12C-W1   CIRCULAR     6.00       0          0          0          1
035LReg12COR1    CIRCULAR     1.00       0          0          0          1
3039LL06112      CIRCULAR     6.00       0          0          0          1
3050LReg14-OR1   CIRCULAR     2.00       0          0          0          1
051LReg15-OR1    CIRCULAR     6.00       0          0          0          1
3046LReg15-2     CIRCULAR     6.00       0          0          0          1
3045LReg15-1     CIRCULAR     2.00       0          0          0          1
3047LReg15-W1    CIRCULAR     6.00       0          0          0          1
44               CIRCULAR     4.50       0          0          0          1
3127Reg31-DIV    CIRCULAR     1.25       0          0          0          1
3138LReg30-1     CIRCULAR     5.00       0          0          0          1
3136LReg30-W1    CIRCULAR     5.00       0          0          0          1
3139LReg31-1     CIRCULAR     4.00       0          0          0          1
3134LReg31-W1    CIRCULAR     4.00       0          0          0          1
3158LQ06038      CIRCULAR     2.00       0          0          0          1
3159LReg4        CIRCULAR     2.00       0          0          0          1
3172LReg10-1     CIRCULAR     3.00       0          0          0          1
3169Reg10-OR     CIRCULAR     1.50       0          0          0          1
3170LReg10-W1    CIRCULAR     3.00       0          0          0          1
3180Reg14-W      CIRCULAR     1.25       0          0          0          1
3181LReg14-1     CIRCULAR     1.25       0          0          0          1
65               CIRCULAR     2.50       0          0          0          1
19               CIRCULAR     3.25       0          0          0          1
02               CIRCULAR     2.50       0          0          0          1
224LL06086       CIRCULAR     2.50       0          0          0          1
3227LL06079      CIRCULAR     1.25       0          0          0          1
3233LL06073      CIRCULAR     1.00       0          0          0          1
3236LL06069      CIRCULAR     4.00       0          0          0          1
3235LL06140      CIRCULAR     1.50       0          0          0          1
3234LL06172      CIRCULAR     4.00       0          0          0          1
3244LM10234      CIRCULAR     3.50       0          0          0          1
3242LLS23-W1     CIRCULAR     3.50       0          0          0          1
3241LM10237      CIRCULAR     1.17       0          0          0          1
240LM10252       CIRCULAR     2.00       0          0          0          1
3255LM06251      CIRCULAR     3.50       0          0          0          1
3251LR12A-W2     CIRCULAR     3.50       0          0          0          1
262LR12A-OR1     CIRCULAR     1.00       0          0          0          1
254LReg12-OR1    RECT_CLOSED  6.00       4.00       0          0          1
3252LR12&12A     CIRCULAR     4.00       0          0          0          1
3272LM06098      CIRCULAR     5.00       0          0          0          1
3269LR12B-W1     CIRCULAR     5.00       0          0          0          1
270LR12B-OR1     CIRCULAR     1.50       0          0          0          1
3225LR12D-OR1    CIRCULAR     1.00       0          0          0          1
3278LR12D-W1     CIRCULAR     4.00       0          0          0          1
3229Reg12E-OR    CIRCULAR     1.00       0          0          0          1
3287LR12E-OR1    CIRCULAR     1.00       0          0          0          1
3233R12F-W       CIRCULAR     4.00       0          0          0          1
3299LL18064      CIRCULAR     2.00       0          0          0          1
3296LReg24-W1    CIRCULAR     2.00       0          0          0          1
311LN22092       CIRCULAR     1.75       0          0          0          1
3318LN22101      CIRCULAR     1.50       0          0          0          1
3314R26A-W       CIRCULAR     1.00       0          0          0          1
3314R26A-D       CIRCULAR     1.25       0          0          0          1
3313Reg26-W      CIRCULAR     1.00       0          0          0          1
3330LO22071      CIRCULAR     2.00       0          0          0          1
3329LO22092      CIRCULAR     2.00       0          0          0          1
3328LO22085      CIRCULAR     2.00       0          0          0          1
3347LReg34-W1    CIRCULAR     3.50       0          0          0          1
3345LO22100      CIRCULAR     4.00       0          0          0          1
3352LR34A-W1     CIRCULAR     1.50       0          0          0          1
3343LP22157      CIRCULAR     2.00       0          0          0          1
3358LReg35-W1    CIRCULAR     4.00       0          0          0          1
3362LReg28-W1    CIRCULAR     2.00       0          0          0          1
3327LM18271      CIRCULAR     2.00       0          0          0          1
380LREG23-OR1    CIRCULAR     2.50       0          0          0          1
3384LM10090B     CIRCULAR     9.00       0          0          0          1
R23-30"          CIRCULAR     2.50       0          0          0          1
3384LM10090A     CIRCULAR     6.00       0          0          0          1
3395LM10140      CIRCULAR     7.00       0          0          0          1
3382Reg23-W      CIRCULAR     6.00       0          0          0          1
3415LJ66008      CIRCULAR     1.50       0          0          0          1
2896LK66003      CIRCULAR     1.75       0          0          0          1
2821LK58001      CIRCULAR     1.75       0          0          0          1
2252LL58008      CIRCULAR     2.00       0          0          0          1
2118LN58027      CIRCULAR     2.25       0          0          0          1
139LO54003       CIRCULAR     2.25       0          0          0          1
721              CIRCULAR     2.50       0          0          0          1
150LP46004       CIRCULAR     3.00       0          0          0          1
3433LP66038      CIRCULAR     1.50       0          0          0          1
2985LR50074      CIRCULAR     2.00       0          0          0          1
2237LP66001      CIRCULAR     2.00       0          0          0          1
2921LT54008      CIRCULAR     2.00       0          0          0          1
3441LS58003      CIRCULAR     1.50       0          0          0          1
3440LT58007      CIRCULAR     1.25       0          0          0          1
3439LT58003      CIRCULAR     1.50       0          0          0          1
2944LU54008      CIRCULAR     4.00       0          0          0          1
2950LU54006      CIRCULAR     4.00       0          0          0          1
3448LV46001      CIRCULAR     1.25       0          0          0          1
2754LT46008      CIRCULAR     2.00       0          0          0          1
S468"            CIRCULAR     0.67       0          0          0          1
2776LS46002      CIRCULAR     2.00       0          0          0          1
2928LT54004      CIRCULAR     4.50       0          0          0          1
2963LS50002      CIRCULAR     4.50       0          0          0          1
976LR50005       CIRCULAR     4.50       0          0          0          1
229              CIRCULAR     4.50       0          0          0          1
Q42B24           CIRCULAR     2.00       0          0          0          1
1261LQ42065      CIRCULAR     4.50       0          0          0          1
1249LQ38055      CIRCULAR     4.50       0          0          0          1
3460LO38175      CIRCULAR     1.50       0          0          0          1
1269LP34101      CIRCULAR     4.50       0          0          0          1
P3024"           CIRCULAR     2.00       0          0          0          1
2077LP30004      CIRCULAR     2.75       0          0          0          1
1210LQ26015      CIRCULAR     2.25       0          0          0          1
1218LQ26011      CIRCULAR     1.75       0          0          0          1
3470LR26001      CIRCULAR     1.75       0          0          0          1
2068LP30010      CIRCULAR     1.75       0          0          0          1
P30-1            CIRCULAR     1.00       0          0          0          1
1240LQ34023      CIRCULAR     1.75       0          0          0          1
3475LQ34003      CIRCULAR     1.25       0          0          0          1
3476LR34042      CIRCULAR     1.50       0          0          0          1
1304LN30193      CIRCULAR     1.75       0          0          0          1
1309LN30186      CIRCULAR     1.75       0          0          0          1
1295LN30190      CIRCULAR     2.00       0          0          0          1
3482LN34201      CIRCULAR     1.50       0          0          0          1
O2230"           CIRCULAR     2.50       0          0          0          1
056LO22059       CIRCULAR     5.00       0          0          0          1
N2230"           CIRCULAR     2.50       0          0          0          1
1066LO26013      CIRCULAR     5.00       0          0          0          1
69               CIRCULAR     5.00       0          0          0          1
1008LN26203      CIRCULAR     2.25       0          0          0          1
000LN22016       CIRCULAR     2.50       0          0          0          1
84               CIRCULAR     2.50       0          0          0          1
M1818"           CIRCULAR     1.50       0          0          0          1
93               CIRCULAR     4.00       0          0          0          1
N1818"           CIRCULAR     1.50       0          0          0          1
36               CIRCULAR     4.00       0          0          0          1
L1818"           CIRCULAR     1.50       0          0          0          1
190LJ22054       CIRCULAR     4.00       0          0          0          1
1320LK26001      CIRCULAR     3.50       0          0          0          1
1335LK30019      CIRCULAR     3.50       0          0          0          1
1322LK30047      CIRCULAR     3.00       0          0          0          1
1369LJ34002      CIRCULAR     2.75       0          0          0          1
J3424"           CIRCULAR     2.00       0          0          0          1
1379LJ38012      CIRCULAR     2.75       0          0          0          1
2512LJ42005      CIRCULAR     2.00       0          0          0          1
2802LJ46004      CIRCULAR     1.75       0          0          0          1
J3818"           CIRCULAR     1.50       0          0          0          1
1520LI34019      CIRCULAR     1.75       0          0          0          1
3514LH30006      CIRCULAR     1.25       0          0          0          1
3515LH34012      CIRCULAR     1.50       0          0          0          1
3518LL42009      CIRCULAR     1.50       0          0          0          1
3519LL38009      CIRCULAR     1.50       0          0          0          1
3520LL34023      CIRCULAR     1.50       0          0          0          1
1580LH18028      CIRCULAR     2.25       0          0          0          1
1490LI18012      CIRCULAR     2.25       0          0          0          1
I1824"           CIRCULAR     2.00       0          0          0          1
1483LI18051      CIRCULAR     2.25       0          0          0          1
48               CIRCULAR     7.00       0          0          0          1
39               CIRCULAR     7.00       0          0          0          1
53               CIRCULAR     7.00       0          0          0          1
06               CIRCULAR     7.00       0          0          0          1
17               CIRCULAR     2.00       0          0          0          1
54               CIRCULAR     7.00       0          0          0          1
73               CIRCULAR     7.00       0          0          0          1
02_2             CIRCULAR     5.50       0          0          0          1
46               CIRCULAR     5.50       0          0          0          1
10               CIRCULAR     5.50       0          0          0          1
08               CIRCULAR     5.50       0          0          0          1
67               HORSESHOE    5.50       0          0          0          1
20               CIRCULAR     7.00       0          0          0          1
74               HORSESHOE    5.50       0          0          0          1
86               CIRCULAR     4.50       0          0          0          1
49               CIRCULAR     3.00       0          0          0          1
64               CIRCULAR     2.50       0          0          0          1
56               CIRCULAR     2.25       0          0          0          1
82               CIRCULAR     2.50       0          0          0          1
34               CIRCULAR     7.00       0          0          0          1
80               CIRCULAR     7.00       0          0          0          1
3595LV34032      CIRCULAR     1.50       0          0          0          1
3596LV34016      CIRCULAR     1.50       0          0          0          1
2283LX30001      CIRCULAR     2.00       0          0          0          1
2389LX26001      CIRCULAR     2.00       0          0          0          1
X2224"           CIRCULAR     2.00       0          0          0          1
X1812"           CIRCULAR     1.00       0          0          0          1
2381LX22045      CIRCULAR     2.00       0          0          0          1
2441LX18037      CIRCULAR     2.50       0          0          0          1
2727LW10005      CIRCULAR     4.00       0          0          0          1
1402LV10001      CIRCULAR     4.00       0          0          0          1
2578LT06006      CIRCULAR     4.00       0          0          0          1
S0636"           CIRCULAR     3.00       0          0          0          1
2328LT10006      CIRCULAR     3.00       0          0          0          1
T1024"           CIRCULAR     2.00       0          0          0          1
2321LT14065      CIRCULAR     3.00       0          0          0          1
2310LT14036      CIRCULAR     2.75       0          0          0          1
1129LU14042      CIRCULAR     2.50       0          0          0          1
1170LV14083      CIRCULAR     2.50       0          0          0          1
2447LW18003      CIRCULAR     2.50       0          0          0          1
3619LT14018      CIRCULAR     1.50       0          0          0          1
3618LT14015      CIRCULAR     1.50       0          0          0          1
3620LT14011      CIRCULAR     1.50       0          0          0          1
109LR06001       CIRCULAR     6.00       0          0          0          1
35               CIRCULAR     2.00       0          0          0          1
120LR14075       CIRCULAR     1.50       0          0          0          1
3126LR14033      CIRCULAR     1.25       0          0          0          1
3627LR18002      CIRCULAR     1.50       0          0          0          1
1040LS02008      CIRCULAR     4.00       0          0          0          1
2350LT02006      CIRCULAR     4.00       0          0          0          1
2533LU02022      CIRCULAR     4.00       0          0          0          1
2555LU02015      CIRCULAR     2.50       0          0          0          1
3634LW02011      CIRCULAR     1.50       0          0          0          1
2539LU05004      CIRCULAR     4.00       0          0          0          1
2637LV11005      CIRCULAR     4.00       0          0          0          1
2865LU15004      CIRCULAR     4.00       0          0          0          1
2887LS15012      CIRCULAR     4.00       0          0          0          1
2305LS19006      CIRCULAR     4.00       0          0          0          1
2301LR19074      CIRCULAR     2.50       0          0          0          1
2286LR23024      CIRCULAR     4.00       0          0          0          1
2343LR27014      CIRCULAR     1.75       0          0          0          1
645LReg4-OR1     CIRCULAR     0.83       0          0          0          1
28               CIRCULAR     2.50       0          0          0          1
33               CIRCULAR     2.50       0          0          0          1
84_2             CIRCULAR     7.00       0          0          0          1
46_2             CIRCULAR     7.00       0          0          0          1
3865BYPASS1      CIRCULAR     8.00       0          0          0          1
3656LSWB1        CIRCULAR     9.00       0          0          0          1
3655LSWB2        CIRCULAR     9.00       0          0          0          1
3654LSWB3        CIRCULAR     10.00      0          0          0          1
508_2            CIRCULAR     7.00       0          0          0          1
3652LSWB4        CIRCULAR     7.00       0          0          0          1
SWF96A           CIRCULAR     8.00       0          0          0          1
3173LReg10-OR1   CIRCULAR     2.00       0          0          0          1
757LReg9-OR1     CIRCULAR     1.50       0          0          0          1
3748Reg9-W       CIRCULAR     1.50       0          0          0          1
3760LLS10-W1     CIRCULAR     4.00       0          0          0          1
3766LO10090      CIRCULAR     5.50       0          0          0          1
3768LO10082      CIRCULAR     4.00       0          0          0          1
3770LLS10W3      RECT_CLOSED  12.00      40.00      0          0          1
3762LLS10/O2     CIRCULAR     5.00       0          0          0          1
3398LLS10/O1     CIRCULAR     3.50       0          0          0          1
3776LReg13       CIRCULAR     6.00       0          0          0          1
3777LLO6293      CIRCULAR     6.00       0          0          0          1
3326Reg35-OR     CIRCULAR     0.83       0          0          0          1
3389LS22-D       CIRCULAR     3.00       0          0          0          1
3372LS23-D       CIRCULAR     1.50       0          0          0          1
3788LLS23-S      RECT_CLOSED  10.00      17.33      0          0          1
3790LLS23-s2     RECT_CLOSED  5.00       7.00       0          0          1
Q1060E1          CIRCULAR     5.00       0          0          0          1
3657LSWF         RECT_CLOSED  10.00      20.00      0          0          1
3798LWWTP        RECT_CLOSED  7.00       8.00       0          0          1
262_2            CIRCULAR     3.50       0          0          0          1
3805LSTR#1       CIRCULAR     2.00       0          0          0          1
3807LX22052      CIRCULAR     1.50       0          0          0          1
3809LSTJ#1       CIRCULAR     4.50       0          0          0          1
3811LSTJ#14      CIRCULAR     1.75       0          0          0          1
3812LSTJ#13      CIRCULAR     1.75       0          0          0          1
3813LSTJ#12      CIRCULAR     1.67       0          0          0          1
3814LSTJ#11      CIRCULAR     2.25       0          0          0          1
3815LSTJ#10      CIRCULAR     2.25       0          0          0          1
3817LSTJ#3       CIRCULAR     2.25       0          0          0          1
3818LSTJ#2       CIRCULAR     2.25       0          0          0          1
11.30"           CIRCULAR     0.94       0          0          0          1
3829LR02033      CIRCULAR     3.50       0          0          0          1
3830LR06030      CIRCULAR     1.00       0          0          0          1
3832LREG38-W1    CIRCULAR     3.50       0          0          0          1
3828LQ06005      CIRCULAR     2.00       0          0          0          1
3831LR02069      CIRCULAR     2.00       0          0          0          1
3834LQ03089      CIRCULAR     2.00       0          0          0          1
3835LQ07122      CIRCULAR     2.00       0          0          0          1
3836LQ07123      CIRCULAR     1.25       0          0          0          1
3837LREG36       CIRCULAR     1.00       0          0          0          1
3838LREG36-W1    CIRCULAR     4.50       0          0          0          1
3867LQ19OF       CIRCULAR     1.50       0          0          0          1
3867LQ19044      CIRCULAR     1.25       0          0          0          1
3872LT46OF       CIRCULAR     1.00       0          0          0          1
3872LT46012      CIRCULAR     1.00       0          0          0          1
3891LK11009      CIRCULAR     3.50       0          0          0          1
3893LK11008      CIRCULAR     2.50       0          0          0          1
3894LK11005      CIRCULAR     2.50       0          0          0          1
3895LK11004      CIRCULAR     5.00       0          0          0          1
3949LReg19-OR1   CIRCULAR     2.50       0          0          0          1
3951LReg19-1     RECT_CLOSED  2.75       3.00       0          0          1
3954LReg19-2     CIRCULAR     10.50      0          0          0          1
3952LReg19-W1    HORSESHOE    10.50      0          0          0          1
3972LReg16-OR3   RECT_CLOSED  1.50       2.25       0          0          1
3974LReg16-W1    CIRCULAR     2.50       0          0          0          1
3976LJ02075      CIRCULAR     2.50       0          0          0          1
3979LReg18-W1    CIRCULAR     3.50       0          0          0          1
3978LK07029      CIRCULAR     3.50       0          0          0          1
3977LReg18       CIRCULAR     1.33       0          0          0          1
3987LJ05291      CIRCULAR     5.00       0          0          0          1
3986LK05093      CIRCULAR     3.50       0          0          0          1
3985LLS18-OR1    CIRCULAR     1.25       0          0          0          1
3896LI02004      CIRCULAR     2.25       0          0          0          1
3908LH02079      CIRCULAR     2.00       0          0          0          1
H0218"           CIRCULAR     1.50       0          0          0          1
3907LH03001      CIRCULAR     2.00       0          0          0          1
3911LG02009      CIRCULAR     1.75       0          0          0          1
3991LF02013      CIRCULAR     1.25       0          0          0          1
3990LG02008      CIRCULAR     1.50       0          0          0          1
3910LG07003      CIRCULAR     2.00       0          0          0          1
E1114A           CIRCULAR     1.17       0          0          0          1
3912LE11017      CIRCULAR     2.00       0          0          0          1
3914LD11042      CIRCULAR     2.00       0          0          0          1
3915LD11035      CIRCULAR     2.00       0          0          0          1
3995LE02002      CIRCULAR     1.25       0          0          0          1
3994LE02053      CIRCULAR     1.50       0          0          0          1
3993LE03002      CIRCULAR     1.50       0          0          0          1
K1124"           CIRCULAR     2.00       0          0          0          1
3890LK11011      CIRCULAR     4.00       0          0          0          1
3889LK11023      CIRCULAR     4.00       0          0          0          1
3883LK07026      CIRCULAR     4.00       0          0          0          1
3888LJ02089      CIRCULAR     4.50       0          0          0          1
3884LJ03012      CIRCULAR     4.00       0          0          0          1
3989LS18-D       CIRCULAR     2.50       0          0          0          1
4013LLS18-S      CIRCULAR     23.00      17.00      0          0          1
3887LJ02099      CIRCULAR     4.50       0          0          0          1
4015LJ02115      CIRCULAR     4.50       0          0          0          1
LJ02116_24       CIRCULAR     2.00       0          0          0          1
3906LH03072      CIRCULAR     2.00       0          0          0          1
40163816         CIRCULAR     2.25       0          0          0          1
3992LE03032      CIRCULAR     1.50       0          0          0          1
40173822         CIRCULAR     1.50       0          0          0          1
K0710"           CIRCULAR     0.83       0          0          0          1
4019LK07027      CIRCULAR     1.25       0          0          0          1
886LK02047       CIRCULAR     5.33       0          0          0          1
2991Reg8-OR      RECT_CLOSED  0.42       0.42       0          0
3002Reg11-OR     RECT_CLOSED  1.00       1.00       0          0
3012Reg3-OR      RECT_CLOSED  0.42       0.42       0          0
3049Reg15-OR     RECT_CLOSED  1.00       1.00       0          0
3125Reg30-OR     RECT_CLOSED  1.00       1.00       0          0
3159Reg4-OR      RECT_CLOSED  0.83       0.83       0          0
3180Reg14-OR     RECT_CLOSED  0.58       0.58       0          0
262              RECT_CLOSED  1.00       1.00       0          0
3218Reg12A-OR    RECT_CLOSED  1.00       1.00       0          0
3220Reg12B-OR    RECT_CLOSED  1.50       1.50       0          0
306Reg24-OR      RECT_CLOSED  0.42       0.42       0          0
3313Reg26-OR     RECT_CLOSED  0.42       0.42       0          0
3342Reg34-OR     RECT_CLOSED  0.83       0.83       0          0
3361Reg28-OR     RECT_CLOSED  1.00       1.00       0          0
3361Reg28-W      RECT_CLOSED  2.00       2.00       0          0
3382Reg23-OR     RECT_CLOSED  1.00       1.00       0          0
3748Reg9-OR      RECT_CLOSED  0.63       0.63       0          0
776Reg13-OR      RECT_CLOSED  1.00       1.00       0          0
446              RECT_CLOSED  6.00       6.00       0          0
3950Reg19-OR     RECT_CLOSED  1.33       1.33       0          0
3973Reg16-OR     RECT_CLOSED  1.00       1.00       0          0
3982Reg18-OR     RECT_CLOSED  0.63       0.63       0          0
3984LS18-OR      RECT_CLOSED  1.00       1.00       0          0
2991Reg8-W       RECT_OPEN    1.00       10.00      0          0
3002Reg11-W      RECT_OPEN    1.00       8.00       0          0
3035Reg12C-W     RECT_OPEN    1.00       4.47       0          0
3045Reg15-W      RECT_OPEN    1.00       6.00       0          0
3125Reg30-W      RECT_OPEN    1.00       3.00       0          0
3127Reg31-W      RECT_OPEN    1.00       2.86       0          0
3169Reg10-W      RECT_OPEN    1.00       4.00       0          0
3242LS23-W       RECT_OPEN    1.00       7.00       0          0
3218Reg12A-W     RECT_OPEN    1.00       3.00       0          0
3220Reg12B-W     RECT_OPEN    1.00       4.42       0          0
3225Reg12D-W     RECT_OPEN    1.00       3.64       0          0
3306Reg24-W      RECT_OPEN    1.00       2.00       0          0
3342Reg34-W      RECT_OPEN    1.00       2.75       0          0
3328Reg34A-W     RECT_OPEN    1.00       3.00       0          0
3326Reg35-W      RECT_OPEN    1.00       3.70       0          0
3760LS10-W       TRIANGULAR   1.00       40.00      0          0
3830REG38-W      RECT_OPEN    1.00       4.50       0          0
3837REG36-W      RECT_OPEN    1.00       10.00      0          0
3951Reg19-W      RECT_OPEN    1.00       6.16       0          0
3973Reg16-W      RECT_OPEN    1.00       4.00       0          0
3977Reg18-W      RECT_OPEN    1.00       3.00       0          0
3984LS18-W       RECT_OPEN    1.00       4.50       0          0

[LOSSES]
;;Link           Inlet      Outlet     Average    Flap Gate
;;-------------- ---------- ---------- ---------- ----------
261              0          0          0          NO
264              0          0          0          NO
402              0          0          0          NO
404              0          0          0          NO
471              0          0          0          NO
505              0          0          0          NO
506              0          0          0          NO
499              0          0          0          NO
508              0          0          0          NO
510              0          0          0          NO
493              0          0          0          NO
573              0          0          0          NO
758              0          0          0          NO
791              0          0          0          NO
1010LN26202      0          0          0          NO
1393LJ38005      0          0          0          NO
1485LI18031      0          0          0          NO
2066LP30001      0          0          0          NO
2602LS06003      0          0          0          NO
2995LReg8-1      0          0          0          NO
2993LReg8-W1     0          0          0          NO
992LReg8-OR1     0          0          0          NO
3006LReg11-1     0          0          0          NO
3004LReg11-W1    0          0          0          NO
003LReg11-OR1    0          0          0          NO
016LReg3-OR1     0          0          0          NO
3037LReg12C-W1   0          0          0          NO
035LReg12COR1    0          0          0          NO
3039LL06112      0          0          0          NO
3050LReg14-OR1   0          0          0          NO
051LReg15-OR1    0          0          0          NO
3046LReg15-2     0          0          0          NO
3045LReg15-1     0          0          0          NO
3047LReg15-W1    0          0          0          NO
44               0          0          0          NO
3127Reg31-DIV    0          0          0          NO
3138LReg30-1     0          0          0          NO
3136LReg30-W1    0          0          0          NO
3139LReg31-1     0          0          0          NO
3134LReg31-W1    0          0          0          NO
3158LQ06038      0          0          0          NO
3159LReg4        0          0          0          NO
3172LReg10-1     0          0          0          NO
3169Reg10-OR     0          0          0          NO
3170LReg10-W1    0          0          0          NO
3180Reg14-W      0          0          0          NO
3181LReg14-1     0          0          0          NO
65               0          0          0          NO
19               0          0          0          NO
02               0          0          0          NO
224LL06086       0          0          0          NO
3227LL06079      0          0          0          NO
3233LL06073      0          0          0          NO
3236LL06069      0          0          0          NO
3235LL06140      0          0          0          NO
3234LL06172      0          0          0          NO
3244LM10234      0          0          0          NO
3242LLS23-W1     0          0          0          NO
3241LM10237      0          0          0          NO
240LM10252       0          0          0          NO
3255LM06251      0          0          0          NO
3251LR12A-W2     0          0          0          NO
262LR12A-OR1     0          0          0          NO
254LReg12-OR1    0          0          0          NO
3252LR12&12A     0          0          0          NO
3272LM06098      0          0          0          NO
3269LR12B-W1     0          0          0          NO
270LR12B-OR1     0          0          0          NO
3225LR12D-OR1    0          0          0          NO
3278LR12D-W1     0          0          0          NO
3229Reg12E-OR    0          0          0          NO
3287LR12E-OR1    0          0          0          NO
3233R12F-W       0          0          0          NO
3299LL18064      0          0          0          NO
3296LReg24-W1    0          0          0          NO
311LN22092       0          0          0          NO
3318LN22101      0          0          0          NO
3314R26A-W       0          0          0          NO
3314R26A-D       0          0          0          NO
3313Reg26-W      0          0          0          NO
3330LO22071      0          0          0          NO
3329LO22092      0          0          0          NO
3328LO22085      0          0          0          NO
3347LReg34-W1    0          0          0          NO
3345LO22100      0          0          0          NO
3352LR34A-W1     0          0          0          NO
3343LP22157      0          0          0          NO
3358LReg35-W1    0          0          0          NO
3362LReg28-W1    0          0          0          NO
3327LM18271      0          0          0          NO
380LREG23-OR1    0          0          0          NO
3384LM10090B     0          0          0          NO
R23-30"          0          0          0          NO
3384LM10090A     0          0          0          NO
3395LM10140      0          0          0          NO
3382Reg23-W      0          0          0          NO
3415LJ66008      0          0          0          NO
2896LK66003      0          0          0          NO
2821LK58001      0          0          0          NO
2252LL58008      0          0          0          NO
2118LN58027      0          0          0          NO
139LO54003       0          0          0          NO
721              0          0          0          NO
150LP46004       0          0          0          NO
3433LP66038      0          0          0          NO
2985LR50074      0          0          0          NO
2237LP66001      0          0          0          NO
2921LT54008      0          0          0          NO
3441LS58003      0          0          0          NO
3440LT58007      0          0          0          NO
3439LT58003      0          0          0          NO
2944LU54008      0          0          0          NO
2950LU54006      0          0          0          NO
3448LV46001      0          0          0          NO
2754LT46008      0          0          0          NO
S468"            0          0          0          NO
2776LS46002      0          0          0          NO
2928LT54004      0          0          0          NO
2963LS50002      0          0          0          NO
976LR50005       0          0          0          NO
229              0          0          0          NO
Q42B24           0          0          0          NO
1261LQ42065      0          0          0          NO
1249LQ38055      0          0          0          NO
3460LO38175      0          0          0          NO
1269LP34101      0          0          0          NO
P3024"           0          0          0          NO
2077LP30004      0          0          0          NO
1210LQ26015      0          0          0          NO
1218LQ26011      0          0          0          NO
3470LR26001      0          0          0          NO
2068LP30010      0          0          0          NO
P30-1            0          0          0          NO
1240LQ34023      0          0          0          NO
3475LQ34003      0          0          0          NO
3476LR34042      0          0          0          NO
1304LN30193      0          0          0          NO
1309LN30186      0          0          0          NO
1295LN30190      0          0          0          NO
3482LN34201      0          0          0          NO
O2230"           0          0          0          NO
056LO22059       0          0          0          NO
N2230"           0          0          0          NO
1066LO26013      0          0          0          NO
69               0          0          0          NO
1008LN26203      0          0          0          NO
000LN22016       0          0          0          NO
84               0          0          0          NO
M1818"           0          0          0          NO
93               0          0          0          NO
N1818"           0          0          0          NO
36               0          0          0          NO
L1818"           0          0          0          NO
190LJ22054       0          0          0          NO
1320LK26001      0          0          0          NO
1335LK30019      0          0          0          NO
1322LK30047      0          0          0          NO
1369LJ34002      0          0          0          NO
J3424"           0          0          0          NO
1379LJ38012      0          0          0          NO
2512LJ42005      0          0          0          NO
2802LJ46004      0          0          0          NO
J3818"           0          0          0          NO
1520LI34019      0          0          0          NO
3514LH30006      0          0          0          NO
3515LH34012      0          0          0          NO
3518LL42009      0          0          0          NO
3519LL38009      0          0          0          NO
3520LL34023      0          0          0          NO
1580LH18028      0          0          0          NO
1490LI18012      0          0          0          NO
I1824"           0          0          0          NO
1483LI18051      0          0          0          NO
48               0          0          0          NO
39               0          0          0          NO
53               0          0          0          NO
06               0          0          0          NO
17               0          0          0          NO
54               0          0          0          NO
73               0          0          0          NO
02_2             0          0          0          NO
46               0          0          0          NO
10               0          0          0          NO
08               0          0          0          NO
67               0          0          0          NO
20               0          0          0          NO
74               0          0          0          NO
86               0          0          0          NO
49               0          0          0          NO
64               0          0          0          NO
56               0          0          0          NO
82               0          0          0          NO
34               0          0          0          NO
80               0          0          0          NO
3595LV34032      0          0          0          NO
3596LV34016      0          0          0          NO
2283LX30001      0          0          0          NO
2389LX26001      0          0          0          NO
X2224"           0          0          0          NO
X1812"           0          0          0          NO
2381LX22045      0          0          0          NO
2441LX18037      0          0          0          NO
2727LW10005      0          0          0          NO
1402LV10001      0          0          0          NO
2578LT06006      0          0          0          NO
S0636"           0          0          0          NO
2328LT10006      0          0          0          NO
T1024"           0          0          0          NO
2321LT14065      0          0          0          NO
2310LT14036      0          0          0          NO
1129LU14042      0          0          0          NO
1170LV14083      0          0          0          NO
2447LW18003      0          0          0          NO
3619LT14018      0          0          0          NO
3618LT14015      0          0          0          NO
3620LT14011      0          0          0          NO
109LR06001       0          0          0          NO
35               0          0          0          NO
120LR14075       0          0          0          NO
3126LR14033      0          0          0          NO
3627LR18002      0          0          0          NO
1040LS02008      0          0          0          NO
2350LT02006      0          0          0          NO
2533LU02022      0          0          0          NO
2555LU02015      0          0          0          NO
3634LW02011      0          0          0          NO
2539LU05004      0          0          0          NO
2637LV11005      0          0          0          NO
2865LU15004      0          0          0          NO
2887LS15012      0          0          0          NO
2305LS19006      0          0          0          NO
2301LR19074      0          0          0          NO
2286LR23024      0          0          0          NO
2343LR27014      0          0          0          NO
645LReg4-OR1     0          0          0          NO
28               0          0          0          NO
33               0          0          0          NO
84_2             0          0          0          NO
46_2             0          0          0          NO
3865BYPASS1      0          0          0          NO
3656LSWB1        0          0          0          NO
3655LSWB2        0          0          0          NO
3654LSWB3        0          0          0          NO
508_2            0          0          0          NO
3652LSWB4        0          0          0          NO
SWF96A           0          0          0          NO
3173LReg10-OR1   0          0          0          NO
757LReg9-OR1     0          0          0          NO
3748Reg9-W       0          0          0          NO
3760LLS10-W1     0          0          0          NO
3766LO10090      0          0          0          NO
3768LO10082      0          0          0          NO
3770LLS10W3      0          0          0          NO
3762LLS10/O2     0          0          0          NO
3398LLS10/O1     0          0          0          NO
3776LReg13       0          0          0          NO
3777LLO6293      0          0          0          NO
3326Reg35-OR     0          0          0          NO
3389LS22-D       0          0          0          NO
3372LS23-D       0          0          0          NO
3788LLS23-S      0          0          0          NO
3790LLS23-s2     0          0          0          NO
Q1060E1          0          0          0          NO
3657LSWF         0          0          0          NO
3798LWWTP        0          0          0          NO
262_2            0          0          0          NO
3805LSTR#1       0          0          0          NO
3807LX22052      0          0          0          NO
3809LSTJ#1       0          0          0          NO
3811LSTJ#14      0          0          0          NO
3812LSTJ#13      0          0          0          NO
3813LSTJ#12      0          0          0          NO
3814LSTJ#11      0          0          0          NO
3815LSTJ#10      0          0          0          NO
3817LSTJ#3       0          0          0          NO
3818LSTJ#2       0          0          0          NO
11.30"           0          0          0          NO
3829LR02033      0          0          0          NO
3830LR06030      0          0          0          NO
3832LREG38-W1    0          0          0          NO
3828LQ06005      0          0          0          NO
3831LR02069      0          0          0          NO
3834LQ03089      0          0          0          NO
3835LQ07122      0          0          0          NO
3836LQ07123      0          0          0          NO
3837LREG36       0          0          0          NO
3838LREG36-W1    0          0          0          NO
3867LQ19OF       0          0          0          NO
3867LQ19044      0          0          0          NO
3872LT46OF       0          0          0          NO
3872LT46012      0          0          0          NO
3891LK11009      0          0          0          NO
3893LK11008      0          0          0          NO
3894LK11005      0          0          0          NO
3895LK11004      0          0          0          NO
3949LReg19-OR1   0          0          0          NO
3951LReg19-1     0          0          0          NO
3954LReg19-2     0          0          0          NO
3952LReg19-W1    0          0          0          NO
3972LReg16-OR3   0          0          0          NO
3974LReg16-W1    0          0          0          NO
3976LJ02075      0          0          0          NO
3979LReg18-W1    0          0          0          NO
3978LK07029      0          0          0          NO
3977LReg18       0          0          0          NO
3987LJ05291      0          0          0          NO
3986LK05093      0          0          0          NO
3985LLS18-OR1    0          0          0          NO
3896LI02004      0          0          0          NO
3908LH02079      0          0          0          NO
H0218"           0          0          0          NO
3907LH03001      0          0          0          NO
3911LG02009      0          0          0          NO
3991LF02013      0          0          0          NO
3990LG02008      0          0          0          NO
3910LG07003      0          0          0          NO
E1114A           0          0          0          NO
3912LE11017      0          0          0          NO
3914LD11042      0          0          0          NO
3915LD11035      0          0          0          NO
3995LE02002      0          0          0          NO
3994LE02053      0          0          0          NO
3993LE03002      0          0          0          NO
K1124"           0          0          0          NO
3890LK11011      0          0          0          NO
3889LK11023      0          0          0          NO
3883LK07026      0          0          0          NO
3888LJ02089      0          0          0          NO
3884LJ03012      0          0          0          NO
3989LS18-D       0          0          0          NO
4013LLS18-S      0          0          0          NO
3887LJ02099      0          0          0          NO
4015LJ02115      0          0          0          NO
LJ02116_24       0          0          0          NO
3906LH03072      0          0          0          NO
40163816         0          0          0          NO
3992LE03032      0          0          0          NO
40173822         0          0          0          NO
K0710"           0          0          0          NO
4019LK07027      0          0          0          NO
886LK02047       0          0          0          NO

[INFLOWS]
;;Node           Constituent  Time Series      Type     Mfactor  Sfactor  Baseline Pattern
;;-------------- ------------ ---------------- -------- -------- -------- -------- --------
Q06005           FLOW         ""               FLOW     1.0      1.0      0.01780
R02069           FLOW         ""               FLOW     1.0      1.0      0.01780
Q03089           FLOW         ""               FLOW     1.0      1.0      0.01780

[COORDINATES]
;;Node           X-Coord            Y-Coord
;;-------------- ------------------ ------------------
M06711           -1304618.00        644649.00         
R46011           -1329173.00        655841.00         
M14085           -1309276.00        645014.00         
M10310           -1304787.80        645480.00         
Reg12            -1304842.49        645498.31         
M10251           -1304926.19        646104.39         
M10250           -1304879.80        645916.00         
M10130           -1304831.00        645448.00         
M10127           -1305115.00        645419.00         
M10121           -1306305.00        645204.00         
M10120           -1306509.00        645167.00         
L06087           -1304331.00        643376.00         
L06438           -1302842.00        643638.00         
L06040           -1302602.00        642517.00         
M06055           -1303303.00        645786.00         
N06007           -1303768.00        648016.54         
K06290           -1302248.00        640870.00         
N14360           -1309020.00        647218.00         
O06017           -1303929.00        651539.00         
P06119           -1303949.00        652164.00         
O10241           -1306986.00        651085.00         
O10240           -1306986.00        651125.00         
O10239           -1307020.00        651965.00         
O10101           -1306200.00        651483.00         
P06014(R7)       -1304009.00        653389.00         
P10037           -1305972.00        653592.00         
P10034           -1305392.00        653633.00         
P10033           -1305292.14        654047.00         
Q10062           -1305085.00        654811.00         
Q10061           -1305008.00        655340.00         
Q06059           -1303999.32        654599.66         
Q06061           -1304803.00        654723.00         
Q06060           -1304322.00        654568.00         
Q06058           -1303995.55        654381.20         
Q06050           -1303968.00        654959.00         
WWTPINFLOW       -1303963.54        654976.46         
Q06037           -1303472.00        656116.00         
Q06002           -1303396.00        656989.00         
Q14154           -1308268.00        656496.00         
Q14025           -1308215.00        655334.00         
Q10060(R5)       -1305074.00        655447.00         
K02051           -1301783.00        640328.72         
P50009           -1332386.00        651338.00         
L18129           -1312239.00        643839.00         
L18088           -1312282.00        643915.00         
M18272           -1311248.00        646338.00         
M18261           -1311356.00        645984.00         
M18260           -1311402.00        646078.00         
M18256           -1310306.00        644330.41         
M18237           -1312192.00        645112.00         
M18010           -1312255.00        646545.00         
M18232           -1312272.00        645224.00         
M18231           -1312283.00        645087.00         
N18183           -1312266.00        646739.00         
M22135           -1312796.00        645158.00         
N18182           -1312173.00        647079.00         
N22146           -1314604.00        648731.00         
N22147           -1314340.00        648571.00         
N22016           -1314935.00        647858.00         
N26203           -1315542.00        647818.00         
N26202           -1315672.00        647813.00         
S02008           -1302016.00        660197.00         
O22059           -1314659.00        649441.00         
O22058           -1314654.00        649501.00         
O26013           -1317977.00        651132.00         
R06001           -1303823.00        659450.00         
U14042           -1310266.00        666642.00         
V14003           -1310298.00        667238.00         
J22054           -1313493.00        638492.00         
Q26015           -1317701.00        653638.00         
Q26011           -1316923.00        654991.00         
P30011           -1319365.00        653480.00         
Q34023           -1321456.00        655323.00         
Q38055           -1324756.00        654807.00         
Q42065           -1326826.00        655565.00         
Q42064           -1326903.00        655578.00         
P34101           -1321417.00        652604.00         
N30190           -1319818.00        648296.00         
N30193           -1319612.00        648208.00         
N30186           -1320101.73        648553.58         
K26001           -1317541.00        638810.00         
K30047           -1319666.08        639922.42         
K30019           -1317740.00        639795.00         
J34002           -1322706.00        637279.00         
J34001           -1322759.00        637254.00         
J38012           -1323324.00        636973.00         
J38005           -1323555.00        636562.00         
J38004           -1323548.00        636501.00         
V10001           -1306204.00        669811.00         
I18051           -1310861.00        634744.00         
I18031           -1310809.00        634508.00         
I18032           -1310871.00        634610.00         
I18012           -1310374.00        633833.00         
I34019           -1321615.00        634312.00         
H18028           -1309499.00        631824.00         
P30001           -1318527.00        651623.00         
P30010           -1319276.00        653459.00         
P30005           -1318367.00        652938.00         
P30004           -1318433.00        652535.00         
N58027           -1337092.00        646221.00         
P54003           -1336361.00        649224.00         
P46004           -1330671.00        652216.00         
P66001           -1344946.00        652144.00         
L58008           -1337380.00        642892.00         
X30001           -1319081.00        673343.00         
S23024           -1285816.34        660967.80         
R19074           -1286213.34        659632.80         
S19006           -1286274.34        661127.80         
T14038           -1308891.00        663651.00         
T14065           -1308247.00        662621.00         
T10006           -1307270.00        662066.00         
T10007           -1307288.00        662100.00         
R27014           -1280932.34        660768.80         
T02006           -1300945.00        664630.00         
X22045           -1316749.58        673160.06         
X22046           -1314131.87        675714.99         
X26001           -1316450.00        674372.00         
X18001           -1311464.00        674256.00         
X18037           -1311418.00        674206.00         
W18003           -1311198.00        670529.00         
J42005           -1326761.00        636632.00         
U02022           -1300181.52        666897.31         
U05004           -1299798.00        667583.00         
U02015           -1300853.76        666921.69         
T06006           -1302874.21        662524.00         
S06002           -1303333.79        659770.57         
S06003           -1303745.21        659748.53         
V11005           -1294818.00        668919.00         
W10005           -1307157.00        670856.00         
T46008           -1329845.00        662374.71         
S46002           -1331353.00        659452.00         
S46003           -1331199.00        659761.00         
J46004           -1328106.00        636742.00         
K58001           -1336221.00        640395.00         
U15004           -1292086.00        666475.00         
S15012           -1289391.00        661661.00         
K66003           -1342155.00        636498.00         
T54008           -1336021.00        661167.00         
T54004           -1334472.00        661621.00         
U54008           -1336532.00        663924.00         
U54006           -1336337.00        665097.00         
S50002           -1332639.00        658916.00         
R50005           -1332808.00        656373.00         
R50074           -1333740.00        655501.00         
Reg8             -1303871.29        652133.33         
Reg8-OR1         -1303916.22        652166.30         
Reg8-W1          -1304009.53        652117.56         
Reg8-OUT         -1304047.55        652114.35         
P06124           -1303779.71        652133.33         
Reg11            -1303609.00        647957.55         
Reg11-OR1        -1303699.05        648032.25         
Reg11-W1         -1303802.28        647926.58         
Reg11-OUT        -1303879.15        647919.73         
N06102           -1303388.93        647906.21         
Reg3             -1303382.98        656978.14         
Reg3-OR1         -1303383.38        656996.03         
Reg12C           -1304176.85        643391.87         
Reg12C-W1        -1304446.05        643283.24         
Reg12C-OUT       -1304601.89        643223.76         
L06112           -1303991.62        643473.40         
Reg15-1          -1302370.10        640570.08         
K06066           -1301923.57        640654.54         
Reg15-W1         -1302663.35        640556.57         
Reg15-OUT        -1302846.62        640492.47         
Reg15            -1302477.21        640677.69         
Reg14-OR1        -1302757.02        640843.74         
Reg15-OR1        -1302366.03        640857.25         
R14075           -1311869.32        658538.69         
Reg30            -1311867.72        658199.48         
R14033           -1311869.32        660916.58         
Reg31            -1311871.22        661251.33         
Reg31-W1         -1311656.31        661251.08         
Reg31-OUT        -1311429.39        661247.63         
Reg30-W1         -1311646.41        658201.64         
Reg30-OUT        -1311411.79        658191.62         
R18182           -1312153.77        658199.35         
S18081           -1312196.28        661253.81         
LS10/WELL        -1306200.75        650424.71         
Q06038           -1303425.93        656049.26         
Reg4             -1303459.35        656072.80         
Reg4-OUT         -1303502.29        656094.69         
Reg10            -1303916.66        651512.41         
Reg10-W1         -1303937.13        651511.93         
Reg10-OUT        -1303953.08        651508.73         
O10295           -1303903.88        651512.41         
Reg10-OR1        -1303916.76        651520.53         
Reg14            -1303092.36        640820.70         
K06250           -1303302.19        640820.70         
Reg12A           -1304783.30        645860.78         
Reg12B           -1304641.58        644559.40         
L06086           -1304297.45        643259.56         
Reg12D           -1304219.51        643237.60         
L06079           -1304070.74        642439.76         
Reg12E           -1304248.33        642471.10         
Reg12F           -1303895.52        642071.72         
L06172           -1303970.00        643230.00         
L06140           -1303949.83        642593.34         
L06069           -1303662.66        642141.99         
M10252           -1305030.03        646159.58         
M10237           -1305217.28        646138.01         
LS23-W1          -1305321.31        646138.01         
LS23/WELL        -1305323.80        645988.86         
M10234           -1305459.10        646138.01         
Reg12A-W2        -1304896.97        645832.09         
Reg12A-OUT       -1304974.27        645813.09         
Reg12-OR1        -1304848.29        645472.27         
M06251           -1304692.25        645884.34         
Reg12A-OR1       -1304805.35        645936.59         
R12&12AOUT       -1305053.16        645857.24         
R12B-W1          -1304682.21        644551.09         
R12B-OR1         -1304656.44        644637.78         
R12B-OUT         -1304718.00        644540.76         
M06098           -1304510.42        644669.97         
R12D-W1          -1304406.38        643171.69         
R12D-OUT         -1304567.43        643120.32         
R12E-OR1         -1304196.80        642394.50         
R12F-OUT         -1304038.41        641812.03         
Reg24-W1         -1310347.58        644400.38         
Reg24-OUT        -1310347.58        644506.33         
L18064           -1310345.21        644153.20         
Reg24            -1310350.30        644248.86         
N22092           -1312613.65        646686.43         
Reg26            -1312721.64        646592.67         
Reg26A           -1312958.68        646704.27         
Reg26-OUT        -1312617.01        646965.00         
Reg26A-OUT       -1312854.04        647050.03         
N22101           -1312999.25        646576.73         
Reg35            -1314276.05        651303.68         
M18271           -1311358.64        646710.46         
Reg34A           -1313762.39        648889.91         
O22092           -1313743.75        649508.19         
O22071           -1314768.61        650559.28         
Reg35-OUT        -1315253.08        650849.76         
Reg34            -1313597.70        649749.41         
P22157           -1314079.16        651455.79         
LS3/WELL         -1311329.60        646332.54         
O22100           -1313374.09        649796.88         
Reg34-OUT        -1314116.43        649690.47         
Reg34-W1         -1313944.84        649728.65         
Reg34A-W1        -1313862.82        648881.61         
Reg34A-OUT       -1313998.15        648868.20         
Reg35-W1         -1314497.50        651293.48         
Reg28            -1311327.86        646531.36         
Reg28-W1         -1311068.77        646245.45         
Reg28-OUT        -1311157.96        646058.56         
LS23/DISCH       -1305268.64        645992.39         
Reg23-OR1        -1306431.90        644841.67         
Reg23            -1306311.23        644822.21         
Reg23-OUT        -1306311.23        644991.40         
M10101           -1306311.23        644541.37         
LS22/WELL        -1306170.45        644820.94         
LS22/DISCH       -1306173.07        645002.87         
M10140           -1306502.30        644544.15         
LS10/OUT1        -1305702.51        650428.42         
J66008           -1344439.17        635835.31         
P66038           -1344985.67        649169.24         
T58003           -1338044.52        661082.03         
T58007           -1338281.31        660623.71         
S58003           -1338629.37        660187.21         
V46001           -1329272.88        667180.89         
O38175           -1322944.52        649205.91         
R26001           -1316518.37        655808.09         
Q34003           -1323107.14        655425.21         
R34042           -1322811.41        656856.20         
N34201           -1322648.88        648569.34         
H30006           -1319927.75        632095.02         
H34012           -1320683.64        633057.95         
L42009           -1325299.95        643579.73         
L38009           -1323477.72        643579.73         
L34023           -1322555.00        642430.44         
V34032           -1323975.60        667290.31         
V34016           -1322423.69        667481.03         
T14015           -1310097.37        664128.50         
T14018           -1309960.35        664565.68         
T14011           -1310761.43        664224.68         
R18002           -1311872.21        660171.47         
W02011           -1300892.54        669295.17         
Reg4-OR1         -1303448.56        656111.62         
SWB4             -1304936.16        654368.68         
SWB5             -1304939.95        653922.81         
SWB3             -1304935.88        653509.41         
SWB2             -1304700.97        653310.86         
SWB1             -1304181.45        653310.86         
SWFINFLOW        -1305563.38        653914.19         
Reg9             -1303916.70        651526.33         
Reg9-OUT         -1303953.47        651523.12         
Reg9-OR1         -1303917.60        651539.22         
LS10-W1          -1306427.62        650000.15         
LS10-W2          -1306028.14        649998.21         
LS10/OUT2        -1305706.29        650003.29         
O10090           -1306427.62        649730.02         
O10082           -1306317.81        650421.04         
LS10-W3          -1306194.75        650000.15         
LS10/OUT3        -1305492.46        650002.88         
LS10/OUT4        -1305598.37        650435.11         
Reg13            -1302725.46        643536.09         
L06293           -1302581.44        643554.96         
LS22-OUT         -1306173.89        645115.92         
LS23-OUT         -1305138.89        645989.20         
LS23-S           -1305323.07        646016.60         
LS23-S2          -1311387.27        646399.41         
SWF-OUT          -1305629.81        653910.84         
WWTP             -1303963.00        654990.35         
WWTP-OUT         -1303980.35        655065.37         
STR#1            -1316279.66        675496.46         
X22052           -1318894.62        676576.03         
STJ#1            -1323547.89        654076.25         
STJ#14           -1323158.56        655460.59         
STJ#13           -1323265.47        655460.59         
STJ#12           -1323335.20        655460.59         
STJ#11           -1323395.63        655460.59         
STJ#10           -1323558.32        655364.30         
STJ#4(IN)        -1323558.32        654813.53         
STJ#3(OUT)       -1323549.02        654428.37         
STJ#2            -1323549.02        654324.38         
Q06005           -1303303.00        656974.54         
R02033           -1303291.80        657018.57         
R06030           -1303301.04        657018.57         
R02069           -1303271.76        656975.66         
REG38-W1         -1303312.74        657018.61         
REG38OUT         -1303342.31        657014.73         
Q03089           -1303230.93        656961.91         
Q07122           -1303225.41        656956.04         
Q07123           -1303226.04        656925.09         
REG36            -1303225.79        656936.65         
REG36-W1         -1303238.95        656938.99         
REG36OUT         -1303248.88        656950.44         
R7OFMH           -1304069.90        653390.63         
Q19044           -1289392.42        660545.70         
Q19PUMPS         -1289210.99        660542.35         
T46012           -1330446.35        662669.31         
T46OUT           -1330282.62        663121.40         
T46WELL          -1331143.99        662728.87         
K07026           -1295502.43        639978.40         
J03012           -1298865.70        639326.30         
K02047           -1301336.70        639929.30         
J02099           -1300861.70        639063.34         
J02089           -1300515.70        639135.34         
K11023           -1293918.70        640309.30         
K11011           -1292975.70        640148.30         
K11009           -1292610.70        640422.30         
K11010           -1292586.70        640097.30         
K11008           -1292358.70        640128.99         
K11005           -1292547.72        640027.75         
K11004           -1292359.01        640056.55         
I02004           -1299851.69        635710.62         
H03072           -1297545.70        633896.30         
H03001           -1299012.70        631580.30         
H02079           -1299850.69        634078.84         
H02078           -1299874.70        634077.30         
G07003           -1296400.87        629653.42         
G02009           -1299741.70        629658.30         
E11017           -1292489.59        624896.57         
E11016           -1292260.14        624460.15         
D11042           -1291758.40        623500.95         
D11035           -1291433.70        622893.30         
Reg19-OR1        -1292682.42        640426.21         
Reg19            -1292767.18        640428.06         
Reg19-1          -1292849.71        640429.91         
Reg19-W1         -1292894.33        640339.25         
Reg19-OUT        -1292932.24        640276.83         
K11117           -1292860.87        640701.91         
Reg16-OR1        -1300519.79        638870.66         
Reg16            -1300690.41        638866.57         
Reg16-W1         -1300658.85        639265.80         
Reg16-OUT        -1300641.10        639493.29         
J02075           -1300712.11        638698.86         
Reg18            -1295765.76        640201.64         
K07029           -1295767.73        640312.79         
Reg18-W1         -1295765.76        640067.60         
Reg18-OUT        -1295767.73        639938.53         
Reg18-OR2        -1295574.61        640201.64         
Reg18-OR1        -1295669.20        640201.64         
LS18/REG         -1298865.70        638811.32         
LS18-OR1         -1298865.70        639055.05         
K05093           -1298614.53        638614.76         
J05291           -1299083.70        638599.03         
LS18/WELL        -1298638.23        639086.50         
LS18/OUT         -1298638.23        639562.17         
G02008           -1299515.53        629371.79         
F02013           -1300980.27        628211.15         
E03032           -1298589.31        624997.85         
E03002           -1299003.22        624929.62         
E02053           -1299112.23        624923.17         
E02002           -1299115.65        624042.03         
LS18-OUT         -1298638.55        639787.38         
LS18-S           -1298638.32        638871.46         
J02116           -1301048.42        639170.66         
J02115           -1301196.20        639505.56         
3814             -1299131.43        635851.60         
3820             -1292668.01        622957.07         
K07027           -1295520.75        640052.18         

[MAP]
DIMENSIONS -1344985.67 622893.30 -1280932.34 676576.03
Units      None

[REPORT]
SUBCATCHMENTS ALL
NODES ALL
LINKS ALL
