;; SWMM5 .inp converted from XPSWMM .xp file
;; Generated by XPSWMM Card Reader
;; Source format: XP_CARD | Original title: RUNOFF EXAMPLE 8, PARABOLIC CHANNELS, NO GROUNDWATER
;; Links parsed from source: 6 | Routable in this .inp: 7

[TITLE]
;;Project Title/Notes
RUNOFF EXAMPLE 8, PARABOLIC CHANNELS, NO GROUNDWATER

[OPTIONS]
FLOW_UNITS           CFS
INFILTRATION         HORTON
FLOW_ROUTING         DYNWAVE
LINK_OFFSETS         DEPTH
MIN_SLOPE            0.0
ALLOW_PONDING        NO
SKIP_STEADY_STATE    NO
INERTIAL_DAMPING     PARTIAL
NORMAL_FLOW_LIMITED  BOTH
START_DATE           01/01/2001
START_TIME           00:00:00
REPORT_START_DATE    01/01/2001
REPORT_START_TIME    00:00:00
END_DATE             01/02/2001
END_TIME             00:00:00
SWEEP_START          01/01
SWEEP_END            12/31
DRY_DAYS             0
REPORT_STEP          00:15:00
WET_STEP             00:05:00
DRY_STEP             01:00:00

[JUNCTIONS]
;;Name           Elev       MaxDepth   InitDepth  SurDepth   Aponded
;;-------------- ---------- ---------- ---------- ---------- ----------
DUMMY1           0          0          0          0          0
7                0          0          0          0          0
DUMMY2           0          0          0          0          0
DUMMY3           0          0          0          0          0
DUMMY4           0          0          0          0          0
DUMMY5           0          0          0          0          0
DUMMY6           0          0          0          0          0

[OUTFALLS]
;;Name           Elev       Type       Stage      Gated
;;-------------- ---------- ---------- ---------- -----
OUT_SYNTH        -1.00      FREE                  NO

[CONDUITS]
;;Name           From             To               Length     Roughness  InOffset   OutOffset  InitFlow   MaxFlow
;;-------------- ---------------- ---------------- ---------- ---------- ---------- ---------- ---------- ----------
2                DUMMY1           7                10000.00   0.0200     100.00     0          0          0
3                DUMMY5           DUMMY2           10000.00   0.0200     100.00     0          0          0
4                DUMMY2           7                10000.00   0.0200     100.00     0          0          0
5                DUMMY3           7                10000.00   0.0200     100.00     0          0          0
6                DUMMY6           DUMMY3           10000.00   0.0200     100.00     0          0          0
C_OUT_SYNTH      7                OUT_SYNTH        50.00      0.0130     0          0          0          0

[WEIRS]
;;Name           From             To               Type       CrestHt    Qcoeff     Gated    EndCon   EndCoeff   Surcharge
;;-------------- ---------------- ---------------- ---------- ---------- ---------- -------- -------- ---------- ----------
1                DUMMY4           DUMMY1           TRANSVERSE 0          1.840      NO       0        0          YES

[XSECTIONS]
;;Link           Shape        Geom1      Geom2      Geom3      Geom4      Barrels
;;-------------- ------------ ---------- ---------- ---------- ---------- ----------
2                POWER        10.00      120.00     1.5        0          1
3                POWER        10.00      120.00     1.5        0          1
4                POWER        10.00      120.00     1.5        0          1
5                POWER        10.00      120.00     1.5        0          1
6                POWER        10.00      120.00     1.5        0          1
C_OUT_SYNTH      CIRCULAR     3.00       0          0          0          1
1                RECT_OPEN    1.00       1.00       0          0

[LOSSES]
;;Link           Inlet      Outlet     Average    Flap Gate
;;-------------- ---------- ---------- ---------- ----------
2                0          0          0          NO
3                0          0          0          NO
4                0          0          0          NO
5                0          0          0          NO
6                0          0          0          NO
C_OUT_SYNTH      0          0          0          NO

[INFLOWS]
;;Node           Constituent  Time Series      Type     Mfactor  Sfactor  Baseline Pattern
;;-------------- ------------ ---------------- -------- -------- -------- -------- --------
;; SYNTHETIC TEST INFLOWS — the source .xp carried no constant inflows
;; and RUNF hydrology is not converted; 1.00 CFS is applied at each
;; headwater node so the network runs wet for QA. Replace with real
;; hydrology or inflow hydrographs before using results.
DUMMY4           FLOW         ""               FLOW     1.0      1.0      1.00
DUMMY5           FLOW         ""               FLOW     1.0      1.0      1.00
DUMMY6           FLOW         ""               FLOW     1.0      1.0      1.00

[COORDINATES]
;;Node           X-Coord            Y-Coord
;;-------------- ------------------ ------------------
DUMMY1           91.37              18.95             
7                101.37             18.95             
DUMMY2           92.84              24.44             
DUMMY3           97.62              28.22             
DUMMY4           81.37              18.95             
DUMMY5           84.59              29.93             
DUMMY6           93.88              37.49             

[MAP]
DIMENSIONS 81.37 18.95 101.37 37.49
Units      None

[REPORT]
SUBCATCHMENTS ALL
NODES ALL
LINKS ALL
