;; SWMM5 .inp converted from XPSWMM .xp file
;; Generated by XPSWMM Card Reader
;; Source format: XP_CARD | Original title: test run, type IA rainfall, dummy outlet
;; Links parsed from source: 9 | Routable in this .inp: 9

[TITLE]
;;Project Title/Notes
test run, type IA rainfall, dummy outlet

[OPTIONS]
FLOW_UNITS           CFS
INFILTRATION         HORTON
FLOW_ROUTING         DYNWAVE
LINK_OFFSETS         DEPTH
MIN_SLOPE            0.0
ALLOW_PONDING        NO
SKIP_STEADY_STATE    NO
ROUTING_STEP         00:00:10
VARIABLE_STEP        0.75
INERTIAL_DAMPING     PARTIAL
NORMAL_FLOW_LIMITED  BOTH
MAX_TRIALS           50
START_DATE           01/01/2001
START_TIME           00:00:00
REPORT_START_DATE    01/01/2001
REPORT_START_TIME    00:00:00
END_DATE             01/02/2001
END_TIME             00:00:00
SWEEP_START          01/01
SWEEP_END            12/31
DRY_DAYS             0
REPORT_STEP          00:15:00
WET_STEP             00:05:00
DRY_STEP             01:00:00

[JUNCTIONS]
;;Name           Elev       MaxDepth   InitDepth  SurDepth   Aponded
;;-------------- ---------- ---------- ---------- ---------- ----------
bi               312.12     0          0          0          0
bh               307.39     0          0          0          0
32448            301.20     0          0          0          0
b1               299.64     0          0          0          0
f1               298.54     0          0          0          0
f2               309.06     0          0          0          0
f3               295.96     0          0          0          0

[OUTFALLS]
;;Name           Elev       Type       Stage      Gated
;;-------------- ---------- ---------- ---------- -----
outlet           289.00     FREE                  NO

[STORAGE]
;;Name           Elev       MaxDepth   InitDepth  Shape      Curve/Params
;;-------------- ---------- ---------- ---------- ---------- ----------
POND             289.00     10.00      0          FUNCTIONAL 1000.00 0          0
NP               289.00     10.00      0          FUNCTIONAL 1000.00 0          0

[CONDUITS]
;;Name           From             To               Length     Roughness  InOffset   OutOffset  InitFlow   MaxFlow
;;-------------- ---------------- ---------------- ---------- ---------- ---------- ---------- ---------- ----------
BB7              bi               bh               695.00     0.0130     292.32     289.09     0          0
BB8              bh               32448            609.00     0.0130     289.09     285.81     0          0
BB9              32448            b1               710.00     0.0130     285.72     281.64     0          0
BB10             b1               POND             445.00     0.0130     281.64     278.93     0          0
FF1              f1               f2               1892.00    0.0130     291.04     287.06     0          0
FF2              f2               f3               718.00     0.0130     287.06     285.96     0          0
FF3              f3               POND             1007.00    0.0130     285.96     283.89     0          0
NS               NP               POND             54.80      0.0130     280.04     279.22     0          0
345              POND             outlet           100.00     0.0140     274.00     274.00     0          0

[XSECTIONS]
;;Link           Shape        Geom1      Geom2      Geom3      Geom4      Barrels
;;-------------- ------------ ---------- ---------- ---------- ---------- ----------
BB7              CIRCULAR     5.00       0          0          0          1
BB8              CIRCULAR     5.00       0          0          0          1
BB9              CIRCULAR     5.50       0          0          0          1
BB10             CIRCULAR     5.50       0          0          0          1
FF1              CIRCULAR     3.00       0          0          0          1
FF2              CIRCULAR     3.00       0          0          0          1
FF3              CIRCULAR     3.00       0          0          0          1
NS               CIRCULAR     1.50       0          0          0          1
345              TRAPEZOIDAL  15.00      1.00       2          2          1

[LOSSES]
;;Link           Inlet      Outlet     Average    Flap Gate
;;-------------- ---------- ---------- ---------- ----------
BB7              0          0          0          NO
BB8              0          0          0          NO
BB9              0          0          0          NO
BB10             0          0          0          NO
FF1              0          0          0          NO
FF2              0          0          0          NO
FF3              0          0          0          NO
NS               0          0          0          NO
345              0          0          0          NO

[INFLOWS]
;;Node           Constituent  Time Series      Type     Mfactor  Sfactor  Baseline Pattern
;;-------------- ------------ ---------------- -------- -------- -------- -------- --------
;; SYNTHETIC TEST INFLOWS — the source .xp carried no constant inflows
;; and RUNF hydrology is not converted; 1.00 CFS is applied at each
;; headwater node so the network runs wet for QA. Replace with real
;; hydrology or inflow hydrographs before using results.
bi               FLOW         ""               FLOW     1.0      1.0      1.00
f1               FLOW         ""               FLOW     1.0      1.0      1.00
NP               FLOW         ""               FLOW     1.0      1.0      1.00

[COORDINATES]
;;Node           X-Coord            Y-Coord
;;-------------- ------------------ ------------------
bi               102.64             62.64             
bh               102.64             52.64             
32448            102.64             42.64             
b1               97.64              37.64             
POND             84.64              34.64             
f1               72.64              37.64             
f2               77.64              37.64             
f3               77.64              32.64             
NP               82.64              32.64             
outlet           87.64              27.64             

[MAP]
DIMENSIONS 72.64 27.64 102.64 62.64
Units      None

[REPORT]
SUBCATCHMENTS ALL
NODES ALL
LINKS ALL
