;; SWMM5 .inp converted from XPSWMM .xp file
;; Generated by XPSWMM Card Reader
;; Source format: XP_CARD | Original title: (none)

[TITLE]
;;Project Title/Notes
Converted from XPSWMM .xp file

[OPTIONS]
FLOW_UNITS           CFS
INFILTRATION         HORTON
FLOW_ROUTING         DYNWAVE
LINK_OFFSETS         DEPTH
MIN_SLOPE            0.0
ALLOW_PONDING        NO
SKIP_STEADY_STATE    NO
ROUTING_STEP         00:00:30
VARIABLE_STEP        0.75
INERTIAL_DAMPING     PARTIAL
NORMAL_FLOW_LIMITED  BOTH
START_DATE           01/01/2001
START_TIME           00:00:00
REPORT_START_DATE    01/01/2001
REPORT_START_TIME    00:00:00
END_DATE             01/02/2001
END_TIME             00:00:00
SWEEP_START          01/01
SWEEP_END            12/31
DRY_DAYS             0
REPORT_STEP          00:15:00
WET_STEP             00:05:00
DRY_STEP             01:00:00

[JUNCTIONS]
;;Name           Elev       MaxDepth   InitDepth  SurDepth   Aponded
;;-------------- ---------- ---------- ---------- ---------- ----------
ground           24.00      0          0          0          0
noground         24.00      0          0          0          0
4                24.00      0          0          0          0

[OUTFALLS]
;;Name           Elev       Type       Stage      Gated
;;-------------- ---------- ---------- ---------- -----
7                24.00      FREE                  NO

[CONDUITS]
;;Name           From             To               Length     Roughness  InOffset   OutOffset  InitFlow   MaxFlow
;;-------------- ---------------- ---------------- ---------- ---------- ---------- ---------- ---------- ----------
3                ground           noground         100.00     0.0130     0          0          0          0
5                ground           4                100.00     0.0150     20.00      19.95      0          0
6                noground         4                100.00     0.0150     20.00      19.95      0          0
8                4                7                100.00     0.0150     19.95      19.90      0          0

[XSECTIONS]
;;Link           Shape        Geom1      Geom2      Geom3      Geom4      Barrels
;;-------------- ------------ ---------- ---------- ---------- ---------- ----------
3                CIRCULAR     1.00       0          0          0          1
5                TRAPEZOIDAL  4.00       1.00       1          1          1
6                TRAPEZOIDAL  4.00       1.00       1          1          1
8                TRAPEZOIDAL  4.00       1.00       1          1          1

[LOSSES]
;;Link           Inlet      Outlet     Average    Flap Gate
;;-------------- ---------- ---------- ---------- ----------
3                0          0          0          NO
5                0          0          0          NO
6                0          0          0          NO
8                0          0          0          NO

[COORDINATES]
;;Node           X-Coord            Y-Coord
;;-------------- ------------------ ------------------
ground           18.09              74.95             
noground         16.89              107.17            
4                29.66              90.32             
7                42.31              88.84             

[MAP]
DIMENSIONS 16.89 74.95 42.31 107.17
Units      None

[REPORT]
SUBCATCHMENTS ALL
NODES ALL
LINKS ALL
