;; SWMM5 .inp converted from XPSWMM .xp file
;; Generated by XPSWMM Card Reader
;; Source format: XP_CARD | Original title: (none)

[TITLE]
;;Project Title/Notes
Converted from XPSWMM .xp file

[OPTIONS]
FLOW_UNITS           CFS
INFILTRATION         HORTON
FLOW_ROUTING         DYNWAVE
LINK_OFFSETS         DEPTH
MIN_SLOPE            0.0
ALLOW_PONDING        NO
SKIP_STEADY_STATE    NO
ROUTING_STEP         00:00:15
VARIABLE_STEP        0.75
INERTIAL_DAMPING     PARTIAL
NORMAL_FLOW_LIMITED  BOTH
START_DATE           01/01/2001
START_TIME           00:00:00
REPORT_START_DATE    01/01/2001
REPORT_START_TIME    00:00:00
END_DATE             01/02/2001
END_TIME             00:00:00
SWEEP_START          01/01
SWEEP_END            12/31
DRY_DAYS             0
REPORT_STEP          00:15:00
WET_STEP             00:05:00
DRY_STEP             01:00:00

[JUNCTIONS]
;;Name           Elev       MaxDepth   InitDepth  SurDepth   Aponded
;;-------------- ---------- ---------- ---------- ---------- ----------
N1               1516.00    0          0          0          0
N2               1514.83    0          0          0          0
N3               1507.67    0          0          0          0
N4               1503.50    0          0          0          0
N5               1499.33    0          0          0          0
N6               1495.17    0          0          0          0
N7               1514.00    0          0          0          0
N8               1512.00    0          0          0          0
N9               1508.00    0          0          0          0
N10              1503.00    0          0          0          0
N11              1498.00    0          0          0          0

[OUTFALLS]
;;Name           Elev       Type       Stage      Gated
;;-------------- ---------- ---------- ---------- -----
N12              1491.00    FREE                  NO

[CONDUITS]
;;Name           From             To               Length     Roughness  InOffset   OutOffset  InitFlow   MaxFlow
;;-------------- ---------------- ---------------- ---------- ---------- ---------- ---------- ---------- ----------
201              N1               N2               2000.00    0.0150     1502.00    1500.83    0          0
202              N2               N3               2000.00    0.0150     1500.83    1493.67    0          0
204              N3               N4               2000.00    0.0150     1493.67    1489.50    0          0
206              N4               N5               2000.00    0.0150     1489.50    1485.33    0          0
208              N5               N6               2000.00    0.0150     1485.33    1481.17    0          0
201_2            N1               N7               2000.00    0.0200     1504.00    1505.00    0          0
212              N7               N8               2000.00    0.0200     1505.00    1504.00    0          0
214              N8               N9               2000.00    0.0200     1504.00    1500.00    0          0
216              N9               N10              2000.00    0.0200     1500.00    1495.00    0          0
218              N10              N11              2000.00    0.0200     1495.00    1490.00    0          0
220              N11              N6               4000.00    0.0200     1490.00    1481.17    0          0
210              N6               N12              2000.00    0.0150     1481.17    1477.00    0          0

[XSECTIONS]
;;Link           Shape        Geom1      Geom2      Geom3      Geom4      Barrels
;;-------------- ------------ ---------- ---------- ---------- ---------- ----------
201              TRAPEZOIDAL  14.00      0.01       2          2          1
202              TRAPEZOIDAL  14.00      0.01       2          2          1
204              TRAPEZOIDAL  14.00      0.01       2          2          1
206              TRAPEZOIDAL  14.00      0.01       2          2          1
208              TRAPEZOIDAL  14.00      0.01       2          2          1
201_2            TRAPEZOIDAL  8.00       5.00       1          1          1
212              TRAPEZOIDAL  8.00       5.00       1          1          1
214              TRAPEZOIDAL  5.00       5.00       1          1          1
216              TRAPEZOIDAL  5.00       5.00       1          1          1
218              TRAPEZOIDAL  5.00       5.00       1          1          1
220              TRAPEZOIDAL  8.00       5.00       1          1          1
210              TRAPEZOIDAL  14.00      0.01       2          2          1

[LOSSES]
;;Link           Inlet      Outlet     Average    Flap Gate
;;-------------- ---------- ---------- ---------- ----------
201              0          0          0          NO
202              0          0          0          NO
204              0          0          0          NO
206              0          0          0          NO
208              0          0          0          NO
201_2            0          0          0          NO
212              0          0          0          NO
214              0          0          0          NO
216              0          0          0          NO
218              0          0          0          NO
220              0          0          0          NO
210              0          0          0          NO

[INFLOWS]
;;Node           Constituent  Time Series      Type     Mfactor  Sfactor  Baseline Pattern
;;-------------- ------------ ---------------- -------- -------- -------- -------- --------
N1               FLOW         ""               FLOW     1.0      1.0      250.00

[COORDINATES]
;;Node           X-Coord            Y-Coord
;;-------------- ------------------ ------------------
N1               12.18              121.84            
N2               36.29              121.84            
N3               57.47              121.84            
N4               80.99              121.84            
N5               103.46             121.84            
N6               125.40             121.84            
N7               24.10              94.39             
N8               43.19              90.20             
N9               58.29              86.75             
N10              75.20              83.06             
N11              91.80              81.50             
N12              142.84             121.84            

[MAP]
DIMENSIONS 12.18 81.50 142.84 121.84
Units      None

[REPORT]
SUBCATCHMENTS ALL
NODES ALL
LINKS ALL
