;; SWMM5 .inp converted from XPSWMM .xp file
;; Generated by XPSWMM Card Reader
;; Source format: XP_CARD | Original title: SC Advance Technology Park
;; Links parsed from source: 28 | Routable in this .inp: 28

[TITLE]
;;Project Title/Notes
SC Advance Technology Park

[OPTIONS]
FLOW_UNITS           CFS
INFILTRATION         HORTON
FLOW_ROUTING         DYNWAVE
LINK_OFFSETS         DEPTH
MIN_SLOPE            0.0
ALLOW_PONDING        NO
SKIP_STEADY_STATE    NO
ROUTING_STEP         00:00:10
VARIABLE_STEP        0.75
INERTIAL_DAMPING     PARTIAL
NORMAL_FLOW_LIMITED  BOTH
MAX_TRIALS           50
HEAD_TOLERANCE       0.0033
START_DATE           01/01/2001
START_TIME           00:00:00
REPORT_START_DATE    01/01/2001
REPORT_START_TIME    00:00:00
END_DATE             01/02/2001
END_TIME             00:00:00
SWEEP_START          01/01
SWEEP_END            12/31
DRY_DAYS             0
REPORT_STEP          00:15:00
WET_STEP             00:05:00
DRY_STEP             01:00:00

[JUNCTIONS]
;;Name           Elev       MaxDepth   InitDepth  SurDepth   Aponded
;;-------------- ---------- ---------- ---------- ---------- ----------
A                235.00     0          0          0          0
B                246.00     0          0          0          0
C/D              256.00     0          0          0          0
E                262.00     0          0          0          0
F                254.00     0          0          0          0
G                252.00     0          0          0          0
H                253.00     0          0          0          0
I                250.00     0          0          0          0
J                228.00     0          0          0          0
K                231.00     0          0          0          0
L                228.00     0          0          0          0
M                248.00     0          0          0          0
N                234.00     0          0          0          0
O                211.00     0          0          0          0
64               205.50     0          0          0          0
Null             217.00     0          0          0          0
Null_2           245.50     0          0          0          0
Outfall          235.00     0          0          0          0
Outfall_2        228.00     0          0          0          0
Outfall_3        228.00     0          0          0          0
Outfall_4        246.00     0          0          0          0
Outfall_5        248.00     0          0          0          0
Outfall_6        262.00     0          0          0          0
Outfall_7        253.00     0          0          0          0
Outfall_8        252.00     0          0          0          0
Outfall_9        250.00     0          0          0          0
Outfall_10       234.00     0          0          0          0
Outfall_11       209.00     0          0          0          0
Outfall_E        257.90     0          0          0          0
Outfall_H        248.90     0          0          0          0
Outfall_G        244.90     0          0          0          0
Outfall_B        241.90     0          0          0          0
Ditch_A          230.90     0          0          0          0
Outfall_L        223.70     0          0          0          0
Ditch_J-64       218.90     0          0          0          0

[OUTFALLS]
;;Name           Elev       Type       Stage      Gated
;;-------------- ---------- ---------- ---------- -----
Offsite          203.00     FREE                  NO

[CONDUITS]
;;Name           From             To               Length     Roughness  InOffset   OutOffset  InitFlow   MaxFlow
;;-------------- ---------------- ---------------- ---------- ---------- ---------- ---------- ---------- ----------
ImpCulvert       64               Offsite          200.00     0.0140     199.00     197.00     0          0
Ditch_7          Null             64               3185.00    0.0240     213.00     199.00     0          0
Ditch_8          Null             K                1364.00    0.0240     241.50     227.00     0          0
Str_H            H                Outfall          20.00      0.0140     249.00     248.90     0          0
311              K                L                275.00     0.0140     225.00     223.00     0          0

[WEIRS]
;;Name           From             To               Type       CrestHt    Qcoeff     Gated    EndCon   EndCoeff   Surcharge
;;-------------- ---------------- ---------------- ---------- ---------- ---------- -------- -------- ---------- ----------
Outfall_N        Outfall          O                TRANSVERSE 228.00     1.840      NO       0        0          YES
Outfall_I        Outfall          O                TRANSVERSE 246.00     1.840      NO       0        0          YES
Ditch            Outfall_E        H                TRANSVERSE 258.00     1.840      NO       0        0          YES
Ditch_2          Outfall_H        F                TRANSVERSE 248.00     1.840      NO       0        0          YES
Ditch_3          Outfall_G        Null             TRANSVERSE 245.00     1.840      NO       0        0          YES
Ditch_4          Outfall_B        K                TRANSVERSE 242.00     1.840      NO       0        0          YES
Ditch_5          Ditch_A          J                TRANSVERSE 231.00     1.840      NO       0        0          YES
Outfall_M        Outfall          Null             TRANSVERSE 242.00     1.840      NO       0        0          YES
Ditch_6          Outfall_L        Null             TRANSVERSE 224.00     1.840      NO       0        0          YES
Weir             Ditch_J-64       Null             TRANSVERSE 219.00     1.840      NO       0        0          YES
Outfall_O        Outfall          64               TRANSVERSE 202.00     1.840      NO       0        0          YES
Str_A            A                Outfall          TRANSVERSE 231.00     1.840      NO       0        0          YES
Str_J            J                Outfall          TRANSVERSE 219.00     1.840      NO       0        0          YES
Str_N            N                Outfall          TRANSVERSE 228.00     1.840      NO       0        0          YES
Str_I            I                Outfall          TRANSVERSE 248.00     1.840      NO       0        0          YES
Str_CD           C/D              G                V-NOTCH    254.50     1.840      NO       0        0          YES
Str_G            G                Outfall          TRANSVERSE 250.50     1.840      NO       0        0          YES
Str_E            E                Outfall          TRANSVERSE 258.00     1.840      NO       0        0          YES
Str_F            F                G                TRANSVERSE 250.00     1.840      NO       0        0          YES
Str_M            M                Outfall          TRANSVERSE 243.80     1.840      NO       0        0          YES
Str_B            B                Outfall          TRANSVERSE 242.00     1.840      NO       0        0          YES
Str_O            O                Outfall          TRANSVERSE 202.00     1.840      NO       0        0          YES
Str_L            L                Outfall          TRANSVERSE 223.00     1.840      NO       0        0          YES

[XSECTIONS]
;;Link           Shape        Geom1      Geom2      Geom3      Geom4      Barrels
;;-------------- ------------ ---------- ---------- ---------- ---------- ----------
ImpCulvert       CIRCULAR     4.00       0          0          0          1
Ditch_7          TRAPEZOIDAL  4.00       4.00       1          1          1
Ditch_8          TRAPEZOIDAL  3.00       2.00       1          1          1
Str_H            CIRCULAR     2.00       0          0          0          1
311              RECT_CLOSED  3.00       5.00       0          0          2
Outfall_N        RECT_OPEN    1.00       4.00       0          0
Outfall_I        RECT_OPEN    1.00       4.00       0          0
Ditch            RECT_OPEN    1.00       4.00       0          0
Ditch_2          RECT_OPEN    1.00       4.00       0          0
Ditch_3          RECT_OPEN    1.00       4.00       0          0
Ditch_4          RECT_OPEN    1.00       4.00       0          0
Ditch_5          RECT_OPEN    1.00       4.00       0          0
Outfall_M        RECT_OPEN    1.00       4.00       0          0
Ditch_6          RECT_OPEN    1.00       4.00       0          0
Weir             RECT_OPEN    1.00       4.00       0          0
Outfall_O        RECT_OPEN    1.00       4.00       0          0
Str_A            RECT_OPEN    1.00       3.25       0          0
Str_J            RECT_OPEN    1.00       0.50       0          0
Str_N            RECT_OPEN    1.00       1.30       0          0
Str_I            RECT_OPEN    1.00       4.00       0          0
Str_CD           TRIANGULAR   1.00       4.00       0          0
Str_G            RECT_OPEN    1.00       6.00       0          0
Str_E            RECT_OPEN    1.00       3.00       0          0
Str_F            RECT_OPEN    1.00       4.00       0          0
Str_M            RECT_OPEN    1.00       4.00       0          0
Str_B            RECT_OPEN    1.00       0.50       0          0
Str_O            RECT_OPEN    1.00       0.35       0          0
Str_L            RECT_OPEN    1.00       1.60       0          0

[LOSSES]
;;Link           Inlet      Outlet     Average    Flap Gate
;;-------------- ---------- ---------- ---------- ----------
ImpCulvert       0          0          0          NO
Ditch_7          0          0          0          NO
Ditch_8          0          0          0          NO
Str_H            0          0          0          NO
311              0          0          0          NO

[INFLOWS]
;;Node           Constituent  Time Series      Type     Mfactor  Sfactor  Baseline Pattern
;;-------------- ------------ ---------------- -------- -------- -------- -------- --------
;; SYNTHETIC TEST INFLOWS — the source .xp carried no constant inflows
;; and RUNF hydrology is not converted; 1.00 CFS is applied at each
;; headwater node so the network runs wet for QA. Replace with real
;; hydrology or inflow hydrographs before using results.
A                FLOW         ""               FLOW     1.0      1.0      1.00
B                FLOW         ""               FLOW     1.0      1.0      1.00
C/D              FLOW         ""               FLOW     1.0      1.0      1.00
E                FLOW         ""               FLOW     1.0      1.0      1.00
I                FLOW         ""               FLOW     1.0      1.0      1.00
M                FLOW         ""               FLOW     1.0      1.0      1.00
N                FLOW         ""               FLOW     1.0      1.0      1.00
Outfall_E        FLOW         ""               FLOW     1.0      1.0      1.00
Outfall_H        FLOW         ""               FLOW     1.0      1.0      1.00
Outfall_G        FLOW         ""               FLOW     1.0      1.0      1.00
Outfall_B        FLOW         ""               FLOW     1.0      1.0      1.00
Ditch_A          FLOW         ""               FLOW     1.0      1.0      1.00
Outfall_L        FLOW         ""               FLOW     1.0      1.0      1.00
Ditch_J-64       FLOW         ""               FLOW     1.0      1.0      1.00

[COORDINATES]
;;Node           X-Coord            Y-Coord
;;-------------- ------------------ ------------------
A                26.98              58.78             
B                27.28              58.58             
C/D              28.28              59.38             
E                28.28              57.78             
F                28.28              58.68             
G                28.28              58.98             
H                28.28              58.18             
I                28.28              61.08             
J                26.98              59.48             
K                27.48              58.98             
L                27.48              59.38             
M                27.68              58.08             
N                28.08              60.08             
O                28.08              60.68             
64               27.48              60.68             
Offsite          27.48              61.18             
Null             27.48              59.88             
Null_2           27.68              58.98             
Outfall          26.98              59.08             
Outfall_2        26.98              59.88             
Outfall_3        27.48              59.58             
Outfall_4        27.28              58.98             
Outfall_5        27.68              58.28             
Outfall_6        28.28              57.98             
Outfall_7        28.28              58.38             
Outfall_8        27.98              58.98             
Outfall_9        28.28              60.68             
Outfall_10       28.08              60.38             
Outfall_11       27.78              60.68             

[MAP]
DIMENSIONS 26.98 57.78 28.28 61.18
Units      None

[REPORT]
SUBCATCHMENTS ALL
NODES ALL
LINKS ALL
