;; SWMM5 .inp converted from XPSWMM .xp file
;; Generated by XPSWMM Card Reader
;; Source format: XP_CARD | Original title: This is a test file for XPX
;; Links parsed from source: 9 | Routable in this .inp: 9

[TITLE]
;;Project Title/Notes
This is a test file for XPX

[OPTIONS]
FLOW_UNITS           CFS
INFILTRATION         HORTON
FLOW_ROUTING         DYNWAVE
LINK_OFFSETS         DEPTH
MIN_SLOPE            0.0
ALLOW_PONDING        NO
SKIP_STEADY_STATE    NO
ROUTING_STEP         00:01:00
VARIABLE_STEP        0.75
INERTIAL_DAMPING     PARTIAL
NORMAL_FLOW_LIMITED  BOTH
MAX_TRIALS           50
HEAD_TOLERANCE       0.0033
START_DATE           01/01/2001
START_TIME           00:00:00
REPORT_START_DATE    01/01/2001
REPORT_START_TIME    00:00:00
END_DATE             01/02/2001
END_TIME             00:00:00
SWEEP_START          01/01
SWEEP_END            12/31
DRY_DAYS             0
REPORT_STEP          00:15:00
WET_STEP             00:05:00
DRY_STEP             01:00:00

[JUNCTIONS]
;;Name           Elev       MaxDepth   InitDepth  SurDepth   Aponded
;;-------------- ---------- ---------- ---------- ---------- ----------
mh               138.00     0          0          0          0
mh_2             135.00     0          0          0          0
mh_3             155.00     0          0          0          0
mh_4             125.00     0          0          0          0
mh_5             120.00     0          0          0          0
mh_6             111.00     0          0          0          0
mh_7             137.00     0          0          0          0
mh_8             130.00     0          0          0          0
mh_9             125.00     0          0          0          0

[OUTFALLS]
;;Name           Elev       Type       Stage      Gated
;;-------------- ---------- ---------- ---------- -----
outlet           100.00     FREE                  NO

[CONDUITS]
;;Name           From             To               Length     Roughness  InOffset   OutOffset  InitFlow   MaxFlow
;;-------------- ---------------- ---------------- ---------- ---------- ---------- ---------- ---------- ----------
LA1              mh               mh               1800.00    0.0150     124.60     118.30     0          0
LA2              mh               mh               2075.00    0.0150     118.30     114.50     0          0
LA3              mh               mh               5000.00    0.0340     114.50     102.80     0          0
LA4              mh               mh               500.00     0.0150     102.80     102.00     0          0
LA5              mh               mh               300.00     0.0150     102.00     101.60     0          0
LA6              mh               outlet           4500.00    0.0160     101.60     89.90      0          0
LB1              mh               mh               5100.00    0.0150     128.20     117.50     0          0
219.1            mh               mh               3500.00    0.0150     117.50     111.50     0          0
LB3              mh               mh               5000.00    0.0154     111.50     102.00     0          0

[XSECTIONS]
;;Link           Shape        Geom1      Geom2      Geom3      Geom4      Barrels
;;-------------- ------------ ---------- ---------- ---------- ---------- ----------
LA1              CIRCULAR     4.00       0          0          0          1
LA2              CIRCULAR     4.50       0          0          0          1
LA3              CIRCULAR     5.00       0          0          0          1
LA4              CIRCULAR     6.00       0          0          0          1
LA5              TRAPEZOIDAL  9.00       1.00       1          1          1
LA6              TRAPEZOIDAL  9.00       1.00       1          1          1
LB1              CIRCULAR     4.50       0          0          0          1
219.1            CIRCULAR     4.50       0          0          0          1
LB3              CIRCULAR     5.50       0          0          0          1

[LOSSES]
;;Link           Inlet      Outlet     Average    Flap Gate
;;-------------- ---------- ---------- ---------- ----------
LA1              0          0          0          NO
LA2              0          0          0          NO
LA3              0          0          0          NO
LA4              0          0          0          NO
LA5              0          0          0          NO
LA6              0          0          0          NO
LB1              0          0          0          NO
219.1            0          0          0          NO
LB3              0          0          0          NO

[INFLOWS]
;;Node           Constituent  Time Series      Type     Mfactor  Sfactor  Baseline Pattern
;;-------------- ------------ ---------------- -------- -------- -------- -------- --------
;; SYNTHETIC TEST INFLOWS — the source .xp carried no constant inflows
;; and RUNF hydrology is not converted; 1.00 CFS is applied at each
;; headwater node so the network runs wet for QA. Replace with real
;; hydrology or inflow hydrographs before using results.
mh               FLOW         ""               FLOW     1.0      1.0      1.00

[COORDINATES]
;;Node           X-Coord            Y-Coord
;;-------------- ------------------ ------------------
mh               296.19             -3.81             
mh_2             296.19             96.19             
mh_3             396.19             96.19             
mh_4             496.19             96.19             
mh_5             496.19             196.19            
mh_6             496.19             296.19            
outlet           496.19             396.19            
mh_7             396.19             396.19            
mh_8             396.19             296.19            
mh_9             396.19             196.19            

[MAP]
DIMENSIONS 296.19 -3.81 496.19 396.19
Units      None

[REPORT]
SUBCATCHMENTS ALL
NODES ALL
LINKS ALL
