;; SWMM5 .inp converted from XPSWMM .xp file
;; Generated by XPSWMM Card Reader
;; Source format: XP_CARD | Original title: Dukes Bay in Valdosta, Georgia - Runoff Results
;; Links parsed from source: 5 | Routable in this .inp: 5

[TITLE]
;;Project Title/Notes
Dukes Bay in Valdosta, Georgia - Runoff Results

[OPTIONS]
FLOW_UNITS           CFS
INFILTRATION         HORTON
FLOW_ROUTING         DYNWAVE
LINK_OFFSETS         DEPTH
MIN_SLOPE            0.0
ALLOW_PONDING        NO
SKIP_STEADY_STATE    NO
ROUTING_STEP         00:00:10
VARIABLE_STEP        0.75
INERTIAL_DAMPING     PARTIAL
NORMAL_FLOW_LIMITED  BOTH
MAX_TRIALS           50
START_DATE           01/01/2001
START_TIME           00:00:00
REPORT_START_DATE    01/01/2001
REPORT_START_TIME    00:00:00
END_DATE             01/02/2001
END_TIME             00:00:00
SWEEP_START          01/01
SWEEP_END            12/31
DRY_DAYS             0
REPORT_STEP          00:15:00
WET_STEP             00:05:00
DRY_STEP             01:00:00

[JUNCTIONS]
;;Name           Elev       MaxDepth   InitDepth  SurDepth   Aponded
;;-------------- ---------- ---------- ---------- ---------- ----------
256              205.25     0          0          0          0
484              0          0          0          0          0
485              0          0          0          0          0
255              0          0          0          0          0
600              0          0          0          0          0

[OUTFALLS]
;;Name           Elev       Type       Stage      Gated
;;-------------- ---------- ---------- ---------- -----
800              0          FREE                  NO

[CONDUITS]
;;Name           From             To               Length     Roughness  InOffset   OutOffset  InitFlow   MaxFlow
;;-------------- ---------------- ---------------- ---------- ---------- ---------- ---------- ---------- ----------
315              256              484              100.00     0.0130     0          0          0          0
318              485              255              100.00     0.0130     0          0          0          0
319              255              256              100.00     0.0130     0          0          0          0
322              484              600              100.00     0.0130     0          0          0          0
323              600              800              100.00     0.0130     0          0          0          0

[XSECTIONS]
;;Link           Shape        Geom1      Geom2      Geom3      Geom4      Barrels
;;-------------- ------------ ---------- ---------- ---------- ---------- ----------
315              CIRCULAR     1.00       0          0          0          1
318              CIRCULAR     1.00       0          0          0          1
319              CIRCULAR     1.00       0          0          0          1
322              CIRCULAR     1.00       0          0          0          1
323              CIRCULAR     1.00       0          0          0          1

[LOSSES]
;;Link           Inlet      Outlet     Average    Flap Gate
;;-------------- ---------- ---------- ---------- ----------
315              0          0          0          NO
318              0          0          0          NO
319              0          0          0          NO
322              0          0          0          NO
323              0          0          0          NO

[INFLOWS]
;;Node           Constituent  Time Series      Type     Mfactor  Sfactor  Baseline Pattern
;;-------------- ------------ ---------------- -------- -------- -------- -------- --------
;; SYNTHETIC TEST INFLOWS — the source .xp carried no constant inflows
;; and RUNF hydrology is not converted; 1.00 CFS is applied at each
;; headwater node so the network runs wet for QA. Replace with real
;; hydrology or inflow hydrographs before using results.
485              FLOW         ""               FLOW     1.0      1.0      1.00

[COORDINATES]
;;Node           X-Coord            Y-Coord
;;-------------- ------------------ ------------------
256              -463832.15         4747254.54        
484              -448493.87         1785069.13        
485              396788.56          4047411.00        
255              272904.22          5279667.07        
600              -1056036.92        3046202.95        
800              -1168659.05        4114800.01        

[MAP]
DIMENSIONS -1168659.05 1785069.13 396788.56 5279667.07
Units      None

[REPORT]
SUBCATCHMENTS ALL
NODES ALL
LINKS ALL
