;; SWMM5 .inp converted from XPSWMM .xp file
;; Generated by XPSWMM Card Reader
;; Source format: XP_CARD | Original title: (none)

[TITLE]
;;Project Title/Notes
Converted from XPSWMM .xp file

[OPTIONS]
FLOW_UNITS           CMS
INFILTRATION         HORTON
FLOW_ROUTING         DYNWAVE
LINK_OFFSETS         DEPTH
MIN_SLOPE            0.0
ALLOW_PONDING        NO
SKIP_STEADY_STATE    NO
ROUTING_STEP         00:00:15
VARIABLE_STEP        0.75
INERTIAL_DAMPING     PARTIAL
NORMAL_FLOW_LIMITED  BOTH
MAX_TRIALS           500
START_DATE           01/01/2001
START_TIME           00:00:00
REPORT_START_DATE    01/01/2001
REPORT_START_TIME    00:00:00
END_DATE             01/02/2001
END_TIME             00:00:00
SWEEP_START          01/01
SWEEP_END            12/31
DRY_DAYS             0
REPORT_STEP          00:15:00
WET_STEP             00:05:00
DRY_STEP             01:00:00

[JUNCTIONS]
;;Name           Elev       MaxDepth   InitDepth  SurDepth   Aponded
;;-------------- ---------- ---------- ---------- ---------- ----------
N1               2.00       0          0          0          0
N1.1             2.00       0          0          0          0
N1.1.1           2.00       0          0          0          0
N1.1.1.1         2.00       0          0          0          0
N1.1.1.1.1       2.00       0          0          0          0
O                2.00       0          0          0          0
N2               2.00       0          0          0          0
S1.1             2.00       0          0          0          0
S1.1.1           2.00       0          0          0          0
S1.1.1.1         2.00       0          0          0          0

[OUTFALLS]
;;Name           Elev       Type       Stage      Gated
;;-------------- ---------- ---------- ---------- -----
S1.1.1.1.1       2.00       FREE                  NO

[CONDUITS]
;;Name           From             To               Length     Roughness  InOffset   OutOffset  InitFlow   MaxFlow
;;-------------- ---------------- ---------------- ---------- ---------- ---------- ---------- ---------- ----------
201              N1               N1.1             500.00     0.0140     0.19       0.10       0          0
208              N1.1             N1.1.1           250.00     0.0140     0.10       0.05       0          0
210              N1.1.1           N1.1.1.1         125.00     0.0140     0.05       0.02       0          0
212              N1.1.1.1         N1.1.1.1.1       62.50      0.0140     0.02       0.01       0          0
214              N1.1.1.1.1       O                62.50      0.0140     0.01       0          0          0
217              N2               S1.1.1.1.1       500.00     0.0140     0.19       0.10       0          0
221              S1.1.1.1.1       S1.1.1.1         250.00     0.0140     0.10       0.05       0          0
220              S1.1.1.1         S1.1.1           125.00     0.0140     0.05       0.02       0          0
219              S1.1.1           S1.1             62.50      0.0140     0.02       0.01       0          0
218              S1.1             O                62.50      0.0140     0.01       0          0          0

[XSECTIONS]
;;Link           Shape        Geom1      Geom2      Geom3      Geom4      Barrels
;;-------------- ------------ ---------- ---------- ---------- ---------- ----------
201              CIRCULAR     1.30       0          0          0          1
208              CIRCULAR     1.30       0          0          0          1
210              CIRCULAR     1.30       0          0          0          1
212              CIRCULAR     1.30       0          0          0          1
214              CIRCULAR     1.30       0          0          0          1
217              CIRCULAR     1.30       0          0          0          1
221              CIRCULAR     1.30       0          0          0          1
220              CIRCULAR     1.30       0          0          0          1
219              CIRCULAR     1.30       0          0          0          1
218              CIRCULAR     1.30       0          0          0          1

[LOSSES]
;;Link           Inlet      Outlet     Average    Flap Gate
;;-------------- ---------- ---------- ---------- ----------
201              0          0          0          NO
208              0          0          0          NO
210              0          0          0          NO
212              0          0          0          NO
214              0          0          0          NO
217              0          0          0          NO
221              0          0          0          NO
220              0          0          0          NO
219              0          0          0          NO
218              0          0          0          NO

[COORDINATES]
;;Node           X-Coord            Y-Coord
;;-------------- ------------------ ------------------
N1               34.76              -75.44            
N1.1             67.42              -35.54            
N1.1.1           78.54              -16.84            
N1.1.1.1         89.46              -1.01             
N1.1.1.1.1       98.24              17.31             
O                109.43             46.63             
N2               34.62              162.30            
S1.1             92.70              73.44             
S1.1.1           78.63              95.13             
S1.1.1.1         69.29              110.97            
S1.1.1.1.1       59.40              125.94            

[MAP]
DIMENSIONS 34.62 -75.44 109.43 162.30
Units      None

[REPORT]
SUBCATCHMENTS ALL
NODES ALL
LINKS ALL
