;; SWMM5 .inp converted from XPSWMM .xp file
;; Generated by XPSWMM Card Reader
;; Source format: XP_CARD | Original title: (none)
;; Links parsed from source: 5 | Routable in this .inp: 6

[TITLE]
;;Project Title/Notes
Converted from XPSWMM .xp file

[OPTIONS]
FLOW_UNITS           CFS
INFILTRATION         HORTON
FLOW_ROUTING         DYNWAVE
LINK_OFFSETS         DEPTH
MIN_SLOPE            0.0
ALLOW_PONDING        NO
SKIP_STEADY_STATE    NO
ROUTING_STEP         00:01:00
VARIABLE_STEP        0.75
INERTIAL_DAMPING     PARTIAL
NORMAL_FLOW_LIMITED  BOTH
HEAD_TOLERANCE       0.0033
START_DATE           01/01/2001
START_TIME           00:00:00
REPORT_START_DATE    01/01/2001
REPORT_START_TIME    00:00:00
END_DATE             01/02/2001
END_TIME             00:00:00
SWEEP_START          01/01
SWEEP_END            12/31
DRY_DAYS             0
REPORT_STEP          00:15:00
WET_STEP             00:05:00
DRY_STEP             01:00:00

[JUNCTIONS]
;;Name           Elev       MaxDepth   InitDepth  SurDepth   Aponded
;;-------------- ---------- ---------- ---------- ---------- ----------
inlet            0          0          0          0          0
inlet_2          0          0          0          0          0
inlet_3          0          0          0          0          0
inlet_4          0          0          0          0          0
inlet_5          0          0          0          0          0
inlet_6          0          0          0          0          0

[OUTFALLS]
;;Name           Elev       Type       Stage      Gated
;;-------------- ---------- ---------- ---------- -----
OUT_SYNTH        -1.00      FREE                  NO

[CONDUITS]
;;Name           From             To               Length     Roughness  InOffset   OutOffset  InitFlow   MaxFlow
;;-------------- ---------------- ---------------- ---------- ---------- ---------- ---------- ---------- ----------
pipe             inlet            inlet            127.00     0.0140     0          0          0          0
pipe_2           inlet            inlet            276.00     0.0130     0          0          0          0
pipe_3           inlet            inlet            127.00     0.0140     0          0          0          0
pipe_4           inlet            inlet            276.00     0.0130     0          0          0          0
215              inlet            inlet            100.00     0.0130     0          0          0          0
C_OUT_SYNTH      inlet            OUT_SYNTH        50.00      0.0130     0          0          0          0

[XSECTIONS]
;;Link           Shape        Geom1      Geom2      Geom3      Geom4      Barrels
;;-------------- ------------ ---------- ---------- ---------- ---------- ----------
pipe             CIRCULAR     1.00       0          0          0          1
pipe_2           CIRCULAR     3.00       0          0          0          1
pipe_3           CIRCULAR     1.00       0          0          0          1
pipe_4           CIRCULAR     3.00       0          0          0          1
215              CIRCULAR     1.00       0          0          0          1
C_OUT_SYNTH      CIRCULAR     3.00       0          0          0          1

[LOSSES]
;;Link           Inlet      Outlet     Average    Flap Gate
;;-------------- ---------- ---------- ---------- ----------
pipe             0          0          0          NO
pipe_2           0          0          0          NO
pipe_3           0          0          0          NO
pipe_4           0          0          0          NO
215              0          0          0          NO
C_OUT_SYNTH      0          0          0          NO

[INFLOWS]
;;Node           Constituent  Time Series      Type     Mfactor  Sfactor  Baseline Pattern
;;-------------- ------------ ---------------- -------- -------- -------- -------- --------
;; SYNTHETIC TEST INFLOWS — the source .xp carried no constant inflows
;; and RUNF hydrology is not converted; 1.00 CFS is applied at each
;; headwater node so the network runs wet for QA. Replace with real
;; hydrology or inflow hydrographs before using results.
inlet            FLOW         ""               FLOW     1.0      1.0      1.00

[COORDINATES]
;;Node           X-Coord            Y-Coord
;;-------------- ------------------ ------------------
inlet            17.64              42.64             
inlet_2          22.64              52.64             
inlet_3          17.64              62.64             
inlet_4          27.64              42.64             
inlet_5          32.64              52.64             
inlet_6          27.64              62.64             

[MAP]
DIMENSIONS 17.64 42.64 32.64 62.64
Units      None

[REPORT]
SUBCATCHMENTS ALL
NODES ALL
LINKS ALL
