;; SWMM5 .inp converted from XPSWMM .xp file
;; Generated by XPSWMM Card Reader
;; Source format: XP_CARD | Original title: (none)
;; Links parsed from source: 5 | Routable in this .inp: 5

[TITLE]
;;Project Title/Notes
Converted from XPSWMM .xp file

[OPTIONS]
FLOW_UNITS           CFS
INFILTRATION         HORTON
FLOW_ROUTING         DYNWAVE
LINK_OFFSETS         DEPTH
MIN_SLOPE            0.0
ALLOW_PONDING        NO
SKIP_STEADY_STATE    NO
ROUTING_STEP         00:01:00
VARIABLE_STEP        0.75
INERTIAL_DAMPING     PARTIAL
NORMAL_FLOW_LIMITED  BOTH
MAX_TRIALS           50
START_DATE           01/01/2001
START_TIME           00:00:00
REPORT_START_DATE    01/01/2001
REPORT_START_TIME    00:00:00
END_DATE             01/02/2001
END_TIME             00:00:00
SWEEP_START          01/01
SWEEP_END            12/31
DRY_DAYS             0
REPORT_STEP          00:15:00
WET_STEP             00:05:00
DRY_STEP             01:00:00

[JUNCTIONS]
;;Name           Elev       MaxDepth   InitDepth  SurDepth   Aponded
;;-------------- ---------- ---------- ---------- ---------- ----------
BEGOF            119.00     0          0          0          0
EndOF            119.40     0          0          0          0
Connect          119.00     0          0          0          0
TW2              117.00     0          0          0          0
Altern2          117.00     0          0          0          0

[OUTFALLS]
;;Name           Elev       Type       Stage      Gated
;;-------------- ---------- ---------- ---------- -----
TW               119.40     FREE                  NO

[STORAGE]
;;Name           Elev       MaxDepth   InitDepth  Shape      Curve/Params
;;-------------- ---------- ---------- ---------- ---------- ----------
Detention        118.50     10.00      2.90       FUNCTIONAL 1000.00 0          0

[CONDUITS]
;;Name           From             To               Length     Roughness  InOffset   OutOffset  InitFlow   MaxFlow
;;-------------- ---------------- ---------------- ---------- ---------- ---------- ---------- ---------- ----------
9x4STM           Connect          BEGOF            400.00     0.0130     111.50     110.50     0          0
OFChannel        BEGOF            EndOF            800.00     0.0140     110.50     110.40     0          0
36inCTRL         EndOF            TW2              80.00      0.0130     110.40     110.07     0          0

[WEIRS]
;;Name           From             To               Type       CrestHt    Qcoeff     Gated    EndCon   EndCoeff   Surcharge
;;-------------- ---------------- ---------------- ---------- ---------- ---------- -------- -------- ---------- ----------
Weir             Detention        Connect          TRANSVERSE 114.40     1.840      NO       0        0          YES
WeirOF           Altern2          TW               V-NOTCH    117.00     1.840      NO       0        0          YES

[XSECTIONS]
;;Link           Shape        Geom1      Geom2      Geom3      Geom4      Barrels
;;-------------- ------------ ---------- ---------- ---------- ---------- ----------
9x4STM           RECT_CLOSED  4.00       9.00       0          0          1
OFChannel        TRAPEZOIDAL  8.00       10.00      1          1          1
36inCTRL         CIRCULAR     3.00       0          0          0          1
Weir             RECT_OPEN    1.00       15.00      0          0
WeirOF           TRIANGULAR   1.00       9.00       0          0

[LOSSES]
;;Link           Inlet      Outlet     Average    Flap Gate
;;-------------- ---------- ---------- ---------- ----------
9x4STM           0          0          0          NO
OFChannel        0          0          0          NO
36inCTRL         0          0          0          NO

[INFLOWS]
;;Node           Constituent  Time Series      Type     Mfactor  Sfactor  Baseline Pattern
;;-------------- ------------ ---------------- -------- -------- -------- -------- --------
;; SYNTHETIC TEST INFLOWS — the source .xp carried no constant inflows
;; and RUNF hydrology is not converted; 1.00 CFS is applied at each
;; headwater node so the network runs wet for QA. Replace with real
;; hydrology or inflow hydrographs before using results.
Detention        FLOW         ""               FLOW     1.0      1.0      1.00
Altern2          FLOW         ""               FLOW     1.0      1.0      1.00

[COORDINATES]
;;Node           X-Coord            Y-Coord
;;-------------- ------------------ ------------------
Detention        48.30              70.91             
BEGOF            48.22              108.07            
EndOF            77.37              108.23            
TW               77.25              94.06             
Connect          48.28              89.96             
TW2              77.42              129.33            

[MAP]
DIMENSIONS 48.22 70.91 77.42 129.33
Units      None

[REPORT]
SUBCATCHMENTS ALL
NODES ALL
LINKS ALL
