;; SWMM5 .inp converted from XPSWMM .xp file
;; Generated by XPSWMM Card Reader
;; Source format: XP_CARD | Original title: SUNGAI PETANI - raised spill crest levels at 7 nodes

[TITLE]
;;Project Title/Notes
SUNGAI PETANI - raised spill crest levels at 7 nodes

[OPTIONS]
FLOW_UNITS           CMS
INFILTRATION         HORTON
FLOW_ROUTING         DYNWAVE
LINK_OFFSETS         DEPTH
MIN_SLOPE            0.0
ALLOW_PONDING        NO
SKIP_STEADY_STATE    NO
ROUTING_STEP         00:00:20
VARIABLE_STEP        0.75
INERTIAL_DAMPING     PARTIAL
NORMAL_FLOW_LIMITED  BOTH
MAX_TRIALS           4
HEAD_TOLERANCE       .001
START_DATE           01/01/2001
START_TIME           00:00:00
REPORT_START_DATE    01/01/2001
REPORT_START_TIME    00:00:00
END_DATE             01/02/2001
END_TIME             00:00:00
SWEEP_START          01/01
SWEEP_END            12/31
DRY_DAYS             0
REPORT_STEP          00:15:00
WET_STEP             00:05:00
DRY_STEP             01:00:00

[JUNCTIONS]
;;Name           Elev       MaxDepth   InitDepth  SurDepth   Aponded
;;-------------- ---------- ---------- ---------- ---------- ----------
P400             4.58       0          0          0          0
P1100            2.11       0          0          0          0
P2100            1.50       0          0          0          0
P2493            8.41       0          0          0          0
P2593            1.70       0          0          0          0
P2893            1.50       0          0          0          0
P2999            1.50       0          0          0          0
P3093            4.00       0          0          0          0
P3590            1.50       0          0          0          0
P3716            5.12       0          0          0          0
P3993            1.50       0          0          0          0
P4406            1.50       0          0          0          0
P4494            3.80       0          0          0          0
P4693            1.50       0          0          0          0
P4923            1.63       0          0          0          0
P5493            2.92       0          0          0          0
P5593            1.92       0          0          0          0
P5889            2.00       0          0          0          0
P6192            2.10       0          0          0          0
P6293            1.50       0          0          0          0
P6593            2.55       0          0          0          0
P6691            1.80       0          0          0          0
P7692            1.90       0          0          0          0
P7793            2.94       0          0          0          0
P7893            3.41       0          0          0          0
P7993            3.46       0          0          0          0
P8093            2.87       0          0          0          0
P8193            2.53       0          0          0          0
P8406            2.91       0          0          0          0
P                2.62       0          0          0          0
P5551            3.80       0          0          0          0
P5574            3.80       0          0          0          0
P6037            3.51       0          0          0          0
P6039            3.51       0          0          0          0
P7210            3.30       0          0          0          0
P7213            2.70       0          0          0          0
P7595            5.10       0          0          0          0
P7625            5.10       0          0          0          0
P8146            3.70       0          0          0          0
P8163            3.70       0          0          0          0

[OUTFALLS]
;;Name           Elev       Type       Stage      Gated
;;-------------- ---------- ---------- ---------- -----
P0               3.00       FREE                  NO

[CONDUITS]
;;Name           From             To               Length     Roughness  InOffset   OutOffset  InitFlow   MaxFlow
;;-------------- ---------------- ---------------- ---------- ---------- ---------- ---------- ---------- ----------
PL1              P400             P0               400.00     0.0130     0          0          0          0
PL5              P1100            P400             700.00     0.0130     0          0          0          0
PL12             P2100            P1100            1000.00    0.0130     0          0          0          0
PL22             P2493            P2100            393.00     0.0130     0          0          0          0
PL26             P2593            P2493            100.00     0.0130     0          0          0          0
PL27             P2893            P2593            300.00     0.0130     0          0          0          0
PL30             P2999            P2893            106.00     0.0130     0          0          0          0
PL31             P3093            P2999            94.00      0.0130     0          0          0          0
PL32             P3590            P3093            497.00     0.0130     0          0          0          0
PL37             P3716            P3590            126.00     0.0130     0          0          0          0
PL38             P3993            P3716            277.00     0.0130     0          0          0          0
PL41             P4406            P3993            413.00     0.0130     0          0          0          0
PL45             P4494            P4406            88.00      0.0130     0          0          0          0
PL46             P4693            P4494            199.00     0.0130     0          0          0          0
PL48             P4923            P4693            230.00     0.0130     0          0          0          0
PL50             P5493            P4923            570.00     0.0130     0          0          0          0
PL56             P5551            P5493            58.00      0.0130     0          0          0          0
PL57             P5889            P5593            296.00     0.0130     0          0          0          0
PL60             P6037            P5889            148.00     0.0130     0          0          0          0
PL63             P6293            P6192            101.00     0.0130     0          0          0          0
PL64             P6593            P6293            300.00     0.0130     0          0          0          0
PL67             P6691            P6593            98.00      0.0130     0          0          0          0
PL68             P7210            P6691            519.00     0.0130     0          0          0          0
PL78             P7793            P7692            101.00     0.0130     0          0          0          0
PL79             P7893            P7793            100.00     0.0130     0          0          0          0
PL80             P7993            P7893            100.00     0.0130     0.13       0          0          0
PL81             P8093            P7993            100.00     0.0130     0.12       0.13       0          0
PL82             P8146            P8093            53.00      0.0130     0.61       0.12       0          0
PL83             P8406            P8193            213.00     0.0130     0.20       0          0          0
PL85             P                P8406            1.00       0.0130     0.20       0.20       0          0
PL77             P7692            P7625            67.00      0.0130     0          0          0          0
A                P5574            P5551            22.50      0.0350     0          0          0          0
PL561            P5593            P5574            19.00      0.0130     0          0          0          0
C                P6039            P6037            2.00       0.0350     0          0          0          0
PL611            P6192            P6039            153.00     0.0130     0          0          0          0
1                P7213            P7210            3.00       0.0350     0          0          0          0
3                P7625            P7595            8.00       0.0350     0          0          0          0
5                P8163            P8146            17.80      0.0350     0.61       0.61       0          0
PL731            P7595            P7213            382.00     0.0130     0          0          0          0
PL821            P8193            P8163            30.00      0.0130     0          0.61       0          0

[XSECTIONS]
;;Link           Shape        Geom1      Geom2      Geom3      Geom4      Barrels
;;-------------- ------------ ---------- ---------- ---------- ---------- ----------
PL1              TRAPEZOIDAL  13.29      10.00      2          2          1
PL5              TRAPEZOIDAL  9.34       10.00      2          2          1
PL12             TRAPEZOIDAL  8.40       10.00      2          2          1
PL22             TRAPEZOIDAL  7.95       10.00      2          2          1
PL26             TRAPEZOIDAL  8.28       10.00      2          2          1
PL27             TRAPEZOIDAL  6.90       10.00      2          2          1
PL30             TRAPEZOIDAL  7.20       10.00      2          2          1
PL31             TRAPEZOIDAL  8.81       10.00      2          2          1
PL32             TRAPEZOIDAL  4.93       10.00      2          2          1
PL37             TRAPEZOIDAL  5.74       10.00      2          2          1
PL38             TRAPEZOIDAL  4.26       10.00      2          2          1
PL41             TRAPEZOIDAL  3.26       10.00      2          2          1
PL45             TRAPEZOIDAL  5.86       10.00      2          2          1
PL46             TRAPEZOIDAL  3.85       10.00      2          2          1
PL48             TRAPEZOIDAL  4.55       10.00      2          2          1
PL50             TRAPEZOIDAL  3.55       10.00      2          2          1
PL56             TRAPEZOIDAL  3.72       10.00      2          2          1
PL57             TRAPEZOIDAL  3.32       10.00      2          2          1
PL60             TRAPEZOIDAL  2.24       10.00      2          2          1
PL63             TRAPEZOIDAL  1.74       10.00      2          2          1
PL64             TRAPEZOIDAL  3.89       10.00      2          2          1
PL67             TRAPEZOIDAL  3.03       10.00      2          2          1
PL68             TRAPEZOIDAL  3.83       10.00      2          2          1
PL78             TRAPEZOIDAL  1.95       10.00      2          2          1
PL79             TRAPEZOIDAL  3.75       10.00      2          2          1
PL80             TRAPEZOIDAL  3.33       10.00      2          2          1
PL81             TRAPEZOIDAL  2.75       10.00      2          2          1
PL82             TRAPEZOIDAL  2.41       10.00      2          2          1
PL83             TRAPEZOIDAL  2.70       10.00      2          2          1
PL85             TRAPEZOIDAL  2.42       10.00      2          2          1
PL77             TRAPEZOIDAL  2.09       10.00      2          2          1
A                TRAPEZOIDAL  4.71       55.50      1          1          1
PL561            TRAPEZOIDAL  2.82       10.00      2          2          1
C                TRAPEZOIDAL  4.76       55.00      1          1          1
PL611            TRAPEZOIDAL  3.66       10.00      2          2          1
1                TRAPEZOIDAL  3.31       20.50      1          1          1
3                TRAPEZOIDAL  5.53       27.00      1          1          1
5                TRAPEZOIDAL  3.08       10.70      1          1          1
PL731            TRAPEZOIDAL  2.88       10.00      2          2          1
PL821            TRAPEZOIDAL  2.70       10.00      2          2          1

[LOSSES]
;;Link           Inlet      Outlet     Average    Flap Gate
;;-------------- ---------- ---------- ---------- ----------
PL1              0          0          0          NO
PL5              0          0          0          NO
PL12             0          0          0          NO
PL22             0          0          0          NO
PL26             0          0          0          NO
PL27             0          0          0          NO
PL30             0          0          0          NO
PL31             0          0          0          NO
PL32             0          0          0          NO
PL37             0          0          0          NO
PL38             0          0          0          NO
PL41             0          0          0          NO
PL45             0          0          0          NO
PL46             0          0          0          NO
PL48             0          0          0          NO
PL50             0          0          0          NO
PL56             0          0          0          NO
PL57             0          0          0          NO
PL60             0          0          0          NO
PL63             0          0          0          NO
PL64             0          0          0          NO
PL67             0          0          0          NO
PL68             0          0          0          NO
PL78             0          0          0          NO
PL79             0          0          0          NO
PL80             0          0          0          NO
PL81             0          0          0          NO
PL82             0          0          0          NO
PL83             0          0          0          NO
PL85             0          0          0          NO
PL77             0          0          0          NO
A                0          0          0          NO
PL561            0          0          0          NO
C                0          0          0          NO
PL611            0          0          0          NO
1                0          0          0          NO
3                0          0          0          NO
5                0          0          0          NO
PL731            0          0          0          NO
PL821            0          0          0          NO

[COORDINATES]
;;Node           X-Coord            Y-Coord
;;-------------- ------------------ ------------------
P0               290.68             -269.04           
P400             345.35             -262.52           
P1100            381.34             -229.80           
P2100            334.89             -205.86           
P2493            301.91             -207.00           
P2593            260.00             -201.14           
P2893            218.72             -174.75           
P2999            270.04             -153.46           
P3093            306.68             -146.55           
P3590            346.35             -143.18           
P3716            386.59             -117.97           
P3993            356.57             -74.72            
P4406            311.70             -73.12            
P4494            265.59             -71.23            
P4693            223.45             -53.88            
P4923            239.55             -17.12            
P5493            282.86             -10.67            
P5593            343.35             61.95             
P5889            280.83             51.44             
P6192            294.15             119.73            
P6293            341.81             123.08            
P6593            383.84             163.16            
P6691            329.21             176.67            
P7692            339.65             247.92            
P7793            377.92             265.89            
P7893            344.60             302.26            
P7993            301.14             308.97            
P8093            258.03             318.26            
P8193            297.36             388.93            
P8406            335.41             399.25            
P                377.97             421.98            
P5551            331.00             -3.40             
P5574            384.76             19.17             
P6037            220.03             65.08             
P6039            247.20             109.80            
P7210            251.10             186.31            
P7213            222.27             218.97            
P7595            266.13             235.97            
P7625            304.50             238.28            
P8146            218.94             339.53            
P8163            256.14             370.34            

[MAP]
DIMENSIONS 218.72 -269.04 386.59 421.98
Units      None

[REPORT]
SUBCATCHMENTS ALL
NODES ALL
LINKS ALL
