;; SWMM5 .inp converted from XPSWMM .xp file
;; Generated by XPSWMM Card Reader
;; Source format: XP_CARD | Original title: RANGIORA SEWER NETWORK ANALYSIS STAGE III
;; Links parsed from source: 181 | Routable in this .inp: 181

[TITLE]
;;Project Title/Notes
RANGIORA SEWER NETWORK ANALYSIS STAGE III

[OPTIONS]
FLOW_UNITS           CMS
INFILTRATION         HORTON
FLOW_ROUTING         DYNWAVE
LINK_OFFSETS         DEPTH
MIN_SLOPE            0.0
ALLOW_PONDING        NO
SKIP_STEADY_STATE    NO
ROUTING_STEP         00:00:30
VARIABLE_STEP        0.75
INERTIAL_DAMPING     PARTIAL
NORMAL_FLOW_LIMITED  BOTH
MAX_TRIALS           50
HEAD_TOLERANCE       .001
START_DATE           01/01/2001
START_TIME           00:00:00
REPORT_START_DATE    01/01/2001
REPORT_START_TIME    00:00:00
END_DATE             01/02/2001
END_TIME             00:00:00
SWEEP_START          01/01
SWEEP_END            12/31
DRY_DAYS             0
REPORT_STEP          00:15:00
WET_STEP             00:05:00
DRY_STEP             01:00:00

[JUNCTIONS]
;;Name           Elev       MaxDepth   InitDepth  SurDepth   Aponded
;;-------------- ---------- ---------- ---------- ---------- ----------
205              33.55      0          0          0          0
207              32.87      0          0          0          0
209              31.71      0          0          0          0
211              30.97      0          0          0          0
213              30.63      0          0          0          0
215              27.67      0          0          0          0
217              27.15      0          0          0          0
219              25.80      0          0          0          0
221              24.32      0          0          0          0
223              24.16      0          0          0          0
225              21.91      0          0          0          0
227              21.60      0          0          0          0
229              20.00      0          0          0          0
231              20.58      0          0          0          0
233              19.72      0          0          0          0
235              19.13      0          0          0          0
237              18.74      0          0          0          0
239              18.50      0          0          0          0
242              18.25      0          0          0          0
244              18.00      0          0          0          0
246              17.52      0          0          0          0
248              17.05      0          0          0          0
250              19.69      0          0          0          0
251              18.89      0          0          0          0
253              18.61      0          0          0          0
258              20.98      0          0          0          0
283              19.50      0          0          0          0
285              19.53      0          0          0          0
287              20.31      0          0          0          0
290              29.02      0          0          0          0
291              28.36      0          0          0          0
293              27.51      0          0          0          0
296              22.56      0          0          0          0
298              22.03      0          0          0          0
301              26.80      0          0          0          0
303              26.50      0          0          0          0
305              26.06      0          0          0          0
307              25.65      0          0          0          0
309              24.88      0          0          0          0
311              24.45      0          0          0          0
313              23.82      0          0          0          0
315              23.55      0          0          0          0
319              22.76      0          0          0          0
322              32.60      0          0          0          0
324              32.26      0          0          0          0
326              32.10      0          0          0          0
328              31.26      0          0          0          0
330              30.58      0          0          0          0
332              30.20      0          0          0          0
334              29.81      0          0          0          0
336              29.27      0          0          0          0
338              29.10      0          0          0          0
340              23.86      0          0          0          0
342              23.45      0          0          0          0
345              23.14      0          0          0          0
349              22.50      0          0          0          0
351              21.04      0          0          0          0
354              33.40      0          0          0          0
355              33.05      0          0          0          0
357              32.00      0          0          0          0
359              31.77      0          0          0          0
361              30.98      0          0          0          0
363              30.70      0          0          0          0
365              30.34      0          0          0          0
368              35.62      0          0          0          0
369              35.28      0          0          0          0
371              35.14      0          0          0          0
373              34.53      0          0          0          0
375              34.24      0          0          0          0
378              34.81      0          0          0          0
379              34.12      0          0          0          0
382              34.24      0          0          0          0
383              34.07      0          0          0          0
385              32.62      0          0          0          0
387              32.30      0          0          0          0
390              32.77      0          0          0          0
392              30.97      0          0          0          0
394              30.20      0          0          0          0
396              26.25      0          0          0          0
426              36.05      0          0          0          0
428              35.84      0          0          0          0
432              34.98      0          0          0          0
436              34.81      0          0          0          0
444              35.15      0          0          0          0
446              34.70      0          0          0          0
473              32.44      0          0          0          0
474              31.00      0          0          0          0
476              30.42      0          0          0          0
481              34.78      0          0          0          0
482              34.64      0          0          0          0
486              34.49      0          0          0          0
491              32.65      0          0          0          0
493              32.00      0          0          0          0
495              31.35      0          0          0          0
497              31.40      0          0          0          0
498              31.12      0          0          0          0
501              30.03      0          0          0          0
502              29.75      0          0          0          0
504              25.88      0          0          0          0
508              26.10      0          0          0          0
511              28.85      0          0          0          0
512              26.24      0          0          0          0
515              26.47      0          0          0          0
517              30.82      0          0          0          0
518              29.46      0          0          0          0
539              29.86      0          0          0          0
540              27.00      0          0          0          0
543              29.04      0          0          0          0
545              28.37      0          0          0          0
547              28.40      0          0          0          0
548              27.85      0          0          0          0
551              28.50      0          0          0          0
553              28.63      0          0          0          0
555              29.15      0          0          0          0
557              31.40      0          0          0          0
558              31.20      0          0          0          0
561              31.18      0          0          0          0
562              32.36      0          0          0          0
564              33.87      0          0          0          0
567              33.80      0          0          0          0
569              26.18      0          0          0          0
570              25.30      0          0          0          0
576              25.75      0          0          0          0
580              24.59      0          0          0          0
584              24.75      0          0          0          0
585              23.15      0          0          0          0
587              23.08      0          0          0          0
593              22.88      0          0          0          0
596              23.09      0          0          0          0
599              22.80      0          0          0          0
601              22.42      0          0          0          0
603              20.88      0          0          0          0
605              20.15      0          0          0          0
608              22.25      0          0          0          0
613              21.67      0          0          0          0
615              21.00      0          0          0          0
617              20.15      0          0          0          0
620              22.97      0          0          0          0
623              24.79      0          0          0          0
625              24.16      0          0          0          0
627              23.64      0          0          0          0
629              23.65      0          0          0          0
631              24.46      0          0          0          0
633              23.12      0          0          0          0
635              22.50      0          0          0          0
639              23.21      0          0          0          0
643              22.70      0          0          0          0
647              24.15      0          0          0          0
652              24.82      0          0          0          0
655              22.36      0          0          0          0
658              16.40      0          0          0          0
660              16.20      0          0          0          0
670              31.23      0          0          0          0
673              23.44      0          0          0          0
679              38.80      0          0          0          0
684              20.23      0          0          0          0
686              20.44      0          0          0          0
692              32.80      0          0          0          0
694              31.50      0          0          0          0
700              21.00      0          0          0          0
710              37.00      0          0          0          0
711              30.64      0          0          0          0
713              29.22      0          0          0          0
715              29.11      0          0          0          0
717              27.14      0          0          0          0
722              19.00      0          0          0          0
725              35.96      0          0          0          0
726              34.40      0          0          0          0
727              33.22      0          0          0          0
731              18.00      0          0          0          0
735              25.39      0          0          0          0
HW_203           32.78      0          0          0          0
HW_205           32.23      0          0          0          0
HW_207           31.48      0          0          0          0
HW_209           30.49      0          0          0          0
HW_211           29.65      0          0          0          0
HW_213           29.02      0          0          0          0
HW_215           26.58      0          0          0          0
HW_217           25.65      0          0          0          0
HW_221           22.96      0          0          0          0
HW_225           19.59      0          0          0          0
HW_229           18.57      0          0          0          0
HW_233           17.37      0          0          0          0
HW_235           17.05      0          0          0          0
HW_237           16.45      0          0          0          0
HW_239           16.10      0          0          0          0
HW_242           16.04      0          0          0          0
HW_244           15.95      0          0          0          0
HW_246           15.87      0          0          0          0
HW_250           17.69      0          0          0          0
HW_251           17.08      0          0          0          0
HW_253           16.77      0          0          0          0
HW_258           18.98      0          0          0          0
HW_285           17.79      0          0          0          0
HW_287           18.28      0          0          0          0
HW_227           19.35      0          0          0          0
HW_290           27.05      0          0          0          0
HW_291           26.58      0          0          0          0
HW_293           25.97      0          0          0          0
HW_219           24.09      0          0          0          0
HW_296           21.32      0          0          0          0
HW_298           20.93      0          0          0          0
HW_301           25.93      0          0          0          0
HW_303           25.35      0          0          0          0
HW_305           24.82      0          0          0          0
HW_307           24.45      0          0          0          0
HW_309           23.49      0          0          0          0
HW_311           23.32      0          0          0          0
HW_313           22.72      0          0          0          0
HW_319           21.69      0          0          0          0
HW_205_2         32.38      0          0          0          0
HW_322           31.38      0          0          0          0
HW_324           30.64      0          0          0          0
HW_326           30.28      0          0          0          0
HW_330           29.18      0          0          0          0
HW_332           28.67      0          0          0          0
HW_334           27.97      0          0          0          0
HW_336           27.77      0          0          0          0
HW_338           27.11      0          0          0          0
HW_340           23.15      0          0          0          0
HW_342           21.94      0          0          0          0
HW_349           21.32      0          0          0          0
HW_351           20.38      0          0          0          0
HW_354           32.13      0          0          0          0
HW_355           31.41      0          0          0          0
HW_357           30.89      0          0          0          0
HW_359           30.39      0          0          0          0
HW_361           29.41      0          0          0          0
HW_363           29.08      0          0          0          0
HW_365           28.66      0          0          0          0
HW_368           34.63      0          0          0          0
HW_369           34.11      0          0          0          0
HW_371           33.66      0          0          0          0
HW_373           33.30      0          0          0          0
HW_375           32.96      0          0          0          0
HW_378           33.61      0          0          0          0
HW_379           32.92      0          0          0          0
HW_382           33.07      0          0          0          0
HW_383           32.75      0          0          0          0
HW_385           31.84      0          0          0          0
HW_387           31.49      0          0          0          0
HW_390           31.37      0          0          0          0
HW_392           29.55      0          0          0          0
HW_394           28.90      0          0          0          0
HW_396           25.38      0          0          0          0
HW_426           35.13      0          0          0          0
HW_428           34.64      0          0          0          0
HW_432           34.15      0          0          0          0
HW_428_2         34.64      0          0          0          0
HW_432_2         34.23      0          0          0          0
HW_436           33.57      0          0          0          0
HW_444           33.85      0          0          0          0
HW_446           33.50      0          0          0          0
HW_473           31.26      0          0          0          0
HW_474           29.79      0          0          0          0
HW_476           29.22      0          0          0          0
HW_481           34.12      0          0          0          0
HW_482           33.83      0          0          0          0
HW_486           33.80      0          0          0          0
HW_491           31.78      0          0          0          0
HW_493           30.38      0          0          0          0
HW_495           30.15      0          0          0          0
HW_497           30.43      0          0          0          0
HW_498           29.70      0          0          0          0
HW_501           28.74      0          0          0          0
HW_502           28.17      0          0          0          0
HW_504           24.53      0          0          0          0
HW_508           24.90      0          0          0          0
HW_511           27.64      0          0          0          0
HW_515           24.88      0          0          0          0
HW_517           29.62      0          0          0          0
HW_518           28.26      0          0          0          0
HW_539           28.38      0          0          0          0
HW_540           25.80      0          0          0          0
HW_543           27.95      0          0          0          0
HW_545           27.17      0          0          0          0
HW_547           27.10      0          0          0          0
HW_548           26.60      0          0          0          0
HW_551           27.23      0          0          0          0
HW_553           27.43      0          0          0          0
HW_555           27.30      0          0          0          0
HW_557           30.10      0          0          0          0
HW_558           29.80      0          0          0          0
HW_562           30.77      0          0          0          0
HW_564           32.09      0          0          0          0
HW_382_2         32.57      0          0          0          0
HW_567           32.49      0          0          0          0
HW_569           24.48      0          0          0          0
HW_576           24.45      0          0          0          0
HW_570           23.76      0          0          0          0
HW_580           23.29      0          0          0          0
HW_584           23.53      0          0          0          0
HW_585           22.79      0          0          0          0
HW_587           22.29      0          0          0          0
HW_596           22.29      0          0          0          0
HW_593           21.82      0          0          0          0
HW_599           21.16      0          0          0          0
HW_601           20.61      0          0          0          0
HW_603           19.52      0          0          0          0
HW_608           20.93      0          0          0          0
HW_613           20.05      0          0          0          0
HW_615           19.79      0          0          0          0
HW_617           18.85      0          0          0          0
HW_620           21.64      0          0          0          0
HW_623           23.49      0          0          0          0
HW_625           22.76      0          0          0          0
HW_627           22.34      0          0          0          0
HW_629           21.45      0          0          0          0
HW_633           20.91      0          0          0          0
HW_635           20.30      0          0          0          0
HW_639           21.87      0          0          0          0
HW_643           21.45      0          0          0          0
HW_647           22.74      0          0          0          0
HW_652           23.53      0          0          0          0
HW_223           22.72      0          0          0          0
HW_655           20.52      0          0          0          0
HW_248           15.76      0          0          0          0
HW_658           15.52      0          0          0          0
HW_315           22.48      0          0          0          0
HW_328           29.65      0          0          0          0
HW_670           29.56      0          0          0          0
HW_673           22.41      0          0          0          0
HW_340_2         23.02      0          0          0          0
HW_345           21.94      0          0          0          0
HW_512           25.04      0          0          0          0
HW_679           36.60      0          0          0          0
HW_561           29.70      0          0          0          0
HW_700           19.40      0          0          0          0
HW_684           18.79      0          0          0          0
HW_686           17.86      0          0          0          0
HW_207_2         32.00      0          0          0          0
HW_209_2         30.84      0          0          0          0
HW_694           30.10      0          0          0          0
HW_692           31.30      0          0          0          0
HW_227_2         19.35      0          0          0          0
HW_727           30.84      0          0          0          0
HW_711           29.12      0          0          0          0
HW_713           27.66      0          0          0          0
HW_715           27.20      0          0          0          0
HW_717           24.91      0          0          0          0
HW_365_2         28.66      0          0          0          0
HW_217_2         25.65      0          0          0          0
HW_722           17.21      0          0          0          0
HW_710           35.08      0          0          0          0
HW_725           33.96      0          0          0          0
HW_726           32.36      0          0          0          0
HW_283           16.99      0          0          0          0
HW_731           16.66      0          0          0          0
HW_735           23.89      0          0          0          0
HW_631           22.14      0          0          0          0

[OUTFALLS]
;;Name           Elev       Type       Stage      Gated
;;-------------- ---------- ---------- ---------- -----
203              34.21      FREE                  NO

[CONDUITS]
;;Name           From             To               Length     Roughness  InOffset   OutOffset  InitFlow   MaxFlow
;;-------------- ---------------- ---------------- ---------- ---------- ---------- ---------- ---------- ----------
203              HW_203           203              176.00     0.0182     32.78      32.23      0          0
205              HW_205           205              105.00     0.0182     32.23      31.48      0          0
207              HW_207           207              130.00     0.0173     31.48      30.49      0          0
209              HW_209           209              119.00     0.0173     30.49      29.65      0          0
211              HW_211           211              80.00      0.0173     29.65      29.02      0          0
213              HW_213           213              320.00     0.0173     29.02      26.58      0          0
215              HW_215           215              106.00     0.0173     26.58      25.65      0          0
217              HW_217           217              330.00     0.0173     25.65      24.09      0          0
221              HW_221           221              47.00      0.0182     22.96      22.72      0          0
225              HW_225           225              77.00      0.0173     19.59      19.35      0          0
229              HW_229           229              214.00     0.0182     18.57      17.91      0          0
233              HW_233           233              114.00     0.0140     17.37      17.05      0          0
235              HW_235           235              109.00     0.0182     17.05      16.45      0          0
237              HW_237           237              285.00     0.0137     16.45      16.10      0          0
239              HW_239           239              20.00      0.0137     16.10      16.04      0          0
242              HW_242           242              74.00      0.0137     16.04      15.95      0          0
244              HW_244           244              76.00      0.0137     15.95      15.87      0          0
246              HW_246           246              95.00      0.0137     15.87      15.76      0          0
250              HW_250           250              205.00     0.0182     17.69      17.08      0          0
251              HW_251           251              105.00     0.0182     17.08      16.77      0          0
253              HW_253           253              185.00     0.0182     16.77      15.95      0          0
258              HW_258           258              125.00     0.0182     18.98      18.57      0          0
285              HW_285           285              134.00     0.0162     17.79      16.99      0          0
287              HW_287           287              142.00     0.0173     18.28      17.79      0          0
227              HW_227           227              282.00     0.0173     19.35      18.28      0          0
290              HW_290           290              89.00      0.0182     27.05      26.58      0          0
291              HW_291           291              117.00     0.0173     26.58      25.97      0          0
293              HW_293           293              75.00      0.0173     25.97      25.65      0          0
219              HW_219           219              555.00     0.0173     24.09      21.32      0          0
296              HW_296           296              96.00      0.0162     21.32      20.93      0          0
298              HW_298           298              205.00     0.0162     20.93      20.00      0          0
301              HW_301           301              125.00     0.0182     25.93      25.35      0          0
303              HW_303           303              150.00     0.0173     25.35      24.82      0          0
305              HW_305           305              75.00      0.0173     24.82      24.45      0          0
307              HW_307           307              150.00     0.0173     24.45      23.49      0          0
309              HW_309           309              67.00      0.0173     23.49      23.32      0          0
311              HW_311           311              93.00      0.0173     23.32      22.72      0          0
313              HW_313           313              74.00      0.0162     22.72      22.48      0          0
319              HW_319           319              70.00      0.0162     21.69      21.32      0          0
205_2            HW_205_2         205              195.00     0.0140     32.38      31.38      0          0
322              HW_322           322              177.00     0.0140     31.38      30.64      0          0
324              HW_324           324              90.00      0.0140     30.64      30.28      0          0
326              HW_326           326              136.00     0.0140     30.28      29.65      0          0
330              HW_330           330              154.00     0.0182     29.18      28.67      0          0
332              HW_332           332              115.00     0.0182     28.67      27.97      0          0
334              HW_334           334              59.00      0.0173     27.97      27.77      0          0
336              HW_336           336              189.00     0.0173     27.77      27.11      0          0
338              HW_338           338              426.00     0.0182     27.11      23.02      0          0
340              HW_340           340              122.00     0.0182     23.15      21.94      0          0
342              HW_342           342              80.00      0.0182     21.94      21.69      0          0
349              HW_349           349              213.00     0.0173     21.32      20.38      0          0
351              HW_351           351              70.00      0.0173     20.38      20.10      0          0
354              HW_354           354              140.00     0.0182     32.13      31.41      0          0
355              HW_355           355              156.00     0.0182     31.41      30.89      0          0
357              HW_357           357              107.00     0.0173     30.89      30.39      0          0
359              HW_359           359              210.00     0.0182     30.39      29.63      0          0
361              HW_361           361              92.00      0.0173     29.41      29.08      0          0
363              HW_363           363              106.00     0.0173     29.08      28.66      0          0
365              HW_365           365              152.00     0.0173     28.66      27.97      0          0
368              HW_368           368              115.00     0.0140     34.63      34.11      0          0
369              HW_369           369              102.00     0.0140     34.11      33.66      0          0
371              HW_371           371              99.00      0.0140     33.66      33.30      0          0
373              HW_373           373              102.00     0.0182     33.30      32.96      0          0
375              HW_375           375              40.00      0.0182     32.96      32.78      0          0
378              HW_378           378              148.00     0.0182     33.61      32.92      0          0
379              HW_379           379              143.00     0.0182     32.92      32.00      0          0
382              HW_382           382              106.00     0.0140     33.07      32.75      0          0
383              HW_383           383              210.00     0.0140     32.75      31.84      0          0
385              HW_385           385              125.00     0.0140     31.84      31.49      0          0
387              HW_387           387              129.00     0.0140     31.49      30.83      0          0
390              HW_390           390              412.00     0.0140     31.37      29.65      0          0
392              HW_392           392              147.00     0.0140     29.55      28.90      0          0
394              HW_394           394              418.00     0.0140     28.90      25.38      0          0
396              HW_396           396              138.00     0.0182     25.38      24.45      0          0
426              HW_426           426              120.00     0.0182     35.13      34.64      0          0
428              HW_428           428              195.00     0.0182     34.64      33.30      0          0
432              HW_432           432              198.00     0.0182     34.15      32.96      0          0
428_2            HW_428_2         428              103.00     0.0182     34.64      34.15      0          0
432_2            HW_432_2         432              110.00     0.0182     34.23      33.57      0          0
436              HW_436           436              308.00     0.0182     33.57      32.13      0          0
444              HW_444           444              167.00     0.0182     33.85      33.50      0          0
446              HW_446           446              325.00     0.0182     33.50      31.41      0          0
473              HW_473           473              365.00     0.0140     31.26      29.79      0          0
474              HW_474           474              110.00     0.0182     29.79      29.22      0          0
476              HW_476           476              40.00      0.0182     29.22      29.08      0          0
481              HW_481           481              103.00     0.0182     34.12      33.83      0          0
482              HW_482           482              103.00     0.0182     33.83      33.61      0          0
486              HW_486           486              245.00     0.0182     33.80      32.37      0          0
491              HW_491           491              133.00     0.0140     31.78      31.04      0          0
493              HW_493           493              90.00      0.0140     30.38      30.28      0          0
495              HW_495           495              143.00     0.0140     30.15      29.65      0          0
497              HW_497           497              98.00      0.0140     30.43      29.70      0          0
498              HW_498           498              70.00      0.0182     29.70      29.18      0          0
501              HW_501           501              135.00     0.0182     28.74      28.17      0          0
502              HW_502           502              393.00     0.0182     28.17      24.53      0          0
504              HW_504           504              195.00     0.0182     24.53      22.72      0          0
508              HW_508           508              163.00     0.0182     24.90      23.59      0          0
511              HW_511           511              293.00     0.0140     27.64      25.04      0          0
515              HW_515           515              475.00     0.0140     24.88      20.38      0          0
517              HW_517           517              278.00     0.0140     29.62      28.26      0          0
518              HW_518           518              133.00     0.0182     28.26      27.11      0          0
539              HW_539           539              325.00     0.0140     28.38      25.80      0          0
540              HW_540           540              60.00      0.0182     25.80      25.38      0          0
543              HW_543           543              295.00     0.0182     27.95      25.35      0          0
545              HW_545           545              178.00     0.0140     27.17      25.93      0          0
547              HW_547           547              138.00     0.0182     27.10      26.60      0          0
548              HW_548           548              55.00      0.0182     26.60      25.97      0          0
551              HW_551           551              165.00     0.0173     27.23      26.58      0          0
553              HW_553           553              180.00     0.0182     27.43      27.23      0          0
555              HW_555           555              68.00      0.0173     27.30      27.23      0          0
557              HW_557           557              233.00     0.0140     30.10      29.80      0          0
558              HW_558           558              75.00      0.0182     29.80      27.25      0          0
562              HW_562           562              128.00     0.0173     30.77      29.70      0          0
564              HW_564           564              245.00     0.0173     32.09      30.77      0          0
382_2            HW_382_2         382              125.00     0.0182     32.57      32.09      0          0
567              HW_567           567              138.00     0.0140     32.49      32.09      0          0
569              HW_569           569              165.00     0.0182     24.48      23.76      0          0
576              HW_576           576              210.00     0.0182     24.45      23.76      0          0
570              HW_570           570              95.00      0.0182     23.76      23.29      0          0
580              HW_580           580              110.00     0.0182     23.29      22.72      0          0
584              HW_584           584              140.00     0.0182     23.53      22.79      0          0
585              HW_585           585              50.00      0.0182     22.79      22.29      0          0
587              HW_587           587              85.00      0.0192     22.29      21.82      0          0
596              HW_596           596              90.00      0.0182     22.29      21.82      0          0
593              HW_593           593              160.00     0.0182     21.82      21.16      0          0
599              HW_599           599              90.00      0.0182     21.16      20.61      0          0
601              HW_601           601              190.00     0.0182     20.61      19.52      0          0
603              HW_603           603              103.00     0.0182     19.52      18.85      0          0
608              HW_608           608              363.00     0.0182     20.93      18.85      0          0
613              HW_613           613              93.00      0.0182     20.05      19.79      0          0
615              HW_615           615              350.00     0.0182     19.79      18.85      0          0
617              HW_617           617              275.00     0.0182     18.85      17.79      0          0
620              HW_620           620              148.00     0.0182     21.64      20.61      0          0
623              HW_623           623              188.00     0.0182     23.49      22.76      0          0
625              HW_625           625              95.00      0.0182     22.76      22.34      0          0
627              HW_627           627              225.00     0.0182     22.34      21.45      0          0
629              HW_629           629              90.00      0.0182     21.45      20.91      0          0
633              HW_633           633              98.00      0.0173     20.91      20.30      0          0
635              HW_635           635              110.00     0.0173     20.30      19.59      0          0
639              HW_639           639              183.00     0.0182     21.87      20.91      0          0
643              HW_643           643              263.00     0.0182     21.45      20.30      0          0
647              HW_647           647              75.00      0.0182     22.74      22.34      0          0
652              HW_652           652              170.00     0.0182     23.53      22.96      0          0
223              HW_223           223              320.00     0.0173     22.72      20.52      0          0
655              HW_655           655              188.00     0.0173     20.52      19.59      0          0
248              HW_248           248              222.00     0.0137     15.76      15.52      0          0
658              HW_658           658              50.00      0.0137     15.52      14.74      0          0
315              HW_315           315              120.00     0.0162     22.48      21.69      0          0
328              HW_328           328              25.00      0.0140     29.65      29.56      0          0
670              HW_670           670              135.00     0.0182     29.56      29.18      0          0
673              HW_673           673              65.00      0.0173     22.41      21.94      0          0
340_2            HW_340_2         340              63.00      0.0173     23.02      22.41      0          0
345              HW_345           345              143.00     0.0173     21.94      21.32      0          0
512              HW_512           512              220.00     0.0182     25.04      21.94      0          0
679              HW_679           679              1125.00    0.0182     36.60      32.57      0          0
561              HW_561           561              250.00     0.0173     29.70      27.25      0          0
700              HW_700           700              174.00     0.0159     19.40      18.79      0          0
684              HW_684           684              191.00     0.0159     18.79      17.86      0          0
686              HW_686           686              441.00     0.0159     17.86      17.21      0          0
207_2            HW_207_2         207              60.00      0.0140     32.00      31.30      0          0
209_2            HW_209_2         209              60.00      0.0140     30.84      30.10      0          0
694              HW_694           694              200.00     0.0140     30.10      29.55      0          0
692              HW_692           692              130.00     0.0140     31.30      30.10      0          0
231              231              233              182.00     0.0182     17.91      17.37      0          0
227_2            HW_227_2         227              300.00     0.0140     19.35      18.57      0          0
727              HW_727           727              601.00     0.0140     30.84      29.12      0          0
711              HW_711           711              505.00     0.0140     29.12      27.66      0          0
713              HW_713           713              85.00      0.0140     27.66      27.20      0          0
715              HW_715           715              415.00     0.0140     27.20      24.91      0          0
717              HW_717           717              527.00     0.0140     24.91      20.03      0          0
365_2            HW_365_2         365              240.00     0.0140     28.66      27.66      0          0
217_2            HW_217_2         217              400.00     0.0140     25.65      23.89      0          0
722              HW_722           722              150.00     0.0140     17.21      16.99      0          0
710              HW_710           710              280.00     0.0140     35.08      33.96      0          0
725              HW_725           725              400.00     0.0140     33.96      32.36      0          0
726              HW_726           726              380.00     0.0140     32.36      30.84      0          0
283              HW_283           283              320.00     0.0137     16.99      16.66      0          0
731              HW_731           731              200.00     0.0137     16.66      16.45      0          0
735              HW_735           735              400.00     0.0140     23.89      22.14      0          0
631              HW_631           631              1745.00    0.0140     22.14      15.95      0          0
605              605              287              160.00     0.0172     18.85      18.28      0          0

[XSECTIONS]
;;Link           Shape        Geom1      Geom2      Geom3      Geom4      Barrels
;;-------------- ------------ ---------- ---------- ---------- ---------- ----------
203              CIRCULAR     0.20       0          0          0          1
205              CIRCULAR     0.20       0          0          0          1
207              CIRCULAR     0.23       0          0          0          1
209              CIRCULAR     0.23       0          0          0          1
211              CIRCULAR     0.23       0          0          0          1
213              CIRCULAR     0.23       0          0          0          1
215              CIRCULAR     0.23       0          0          0          1
217              CIRCULAR     0.20       0          0          0          1
221              CIRCULAR     0.15       0          0          0          1
225              CIRCULAR     0.23       0          0          0          1
229              CIRCULAR     0.23       0          0          0          1
233              CIRCULAR     0.30       0          0          0          1
235              CIRCULAR     0.30       0          0          0          1
237              CIRCULAR     0.60       0          0          0          1
239              CIRCULAR     0.60       0          0          0          1
242              CIRCULAR     0.60       0          0          0          1
244              CIRCULAR     0.60       0          0          0          1
246              CIRCULAR     0.60       0          0          0          1
250              CIRCULAR     0.20       0          0          0          1
251              CIRCULAR     0.20       0          0          0          1
253              CIRCULAR     0.20       0          0          0          1
258              CIRCULAR     0.15       0          0          0          1
285              CIRCULAR     0.23       0          0          0          1
287              CIRCULAR     0.23       0          0          0          1
227              CIRCULAR     0.23       0          0          0          1
290              CIRCULAR     0.15       0          0          0          1
291              CIRCULAR     0.20       0          0          0          1
293              CIRCULAR     0.20       0          0          0          1
219              CIRCULAR     0.20       0          0          0          1
296              CIRCULAR     0.38       0          0          0          1
298              CIRCULAR     0.38       0          0          0          1
301              CIRCULAR     0.15       0          0          0          1
303              CIRCULAR     0.15       0          0          0          1
305              CIRCULAR     0.15       0          0          0          1
307              CIRCULAR     0.23       0          0          0          1
309              CIRCULAR     0.23       0          0          0          1
311              CIRCULAR     0.23       0          0          0          1
313              CIRCULAR     0.23       0          0          0          1
319              CIRCULAR     0.30       0          0          0          1
205_2            CIRCULAR     0.15       0          0          0          1
322              CIRCULAR     0.15       0          0          0          1
324              CIRCULAR     0.15       0          0          0          1
326              CIRCULAR     0.20       0          0          0          1
330              CIRCULAR     0.20       0          0          0          1
332              CIRCULAR     0.20       0          0          0          1
334              CIRCULAR     0.20       0          0          0          1
336              CIRCULAR     0.20       0          0          0          1
338              CIRCULAR     0.23       0          0          0          1
340              CIRCULAR     0.23       0          0          0          1
342              CIRCULAR     0.23       0          0          0          1
349              CIRCULAR     0.30       0          0          0          1
351              CIRCULAR     0.30       0          0          0          1
354              CIRCULAR     0.23       0          0          0          1
355              CIRCULAR     0.23       0          0          0          1
357              CIRCULAR     0.20       0          0          0          1
359              CIRCULAR     0.20       0          0          0          1
361              CIRCULAR     0.23       0          0          0          1
363              CIRCULAR     0.25       0          0          0          1
365              CIRCULAR     0.20       0          0          0          1
368              CIRCULAR     0.15       0          0          0          1
369              CIRCULAR     0.20       0          0          0          1
371              CIRCULAR     0.20       0          0          0          1
373              CIRCULAR     0.20       0          0          0          1
375              CIRCULAR     0.20       0          0          0          1
378              CIRCULAR     0.15       0          0          0          1
379              CIRCULAR     0.15       0          0          0          1
382              CIRCULAR     0.15       0          0          0          1
383              CIRCULAR     0.23       0          0          0          1
385              CIRCULAR     0.15       0          0          0          1
387              CIRCULAR     0.15       0          0          0          1
390              CIRCULAR     0.20       0          0          0          1
392              CIRCULAR     0.15       0          0          0          1
394              CIRCULAR     0.15       0          0          0          1
396              CIRCULAR     0.15       0          0          0          1
426              CIRCULAR     0.15       0          0          0          1
428              CIRCULAR     0.15       0          0          0          1
432              CIRCULAR     0.15       0          0          0          1
428_2            CIRCULAR     0.15       0          0          0          1
432_2            CIRCULAR     0.15       0          0          0          1
436              CIRCULAR     0.15       0          0          0          1
444              CIRCULAR     0.15       0          0          0          1
446              CIRCULAR     0.15       0          0          0          1
473              CIRCULAR     0.15       0          0          0          1
474              CIRCULAR     0.15       0          0          0          1
476              CIRCULAR     0.23       0          0          0          1
481              CIRCULAR     0.13       0          0          0          1
482              CIRCULAR     0.15       0          0          0          1
486              CIRCULAR     0.15       0          0          0          1
491              CIRCULAR     0.15       0          0          0          1
493              CIRCULAR     0.15       0          0          0          1
495              CIRCULAR     0.15       0          0          0          1
497              CIRCULAR     0.15       0          0          0          1
498              CIRCULAR     0.15       0          0          0          1
501              CIRCULAR     0.15       0          0          0          1
502              CIRCULAR     0.15       0          0          0          1
504              CIRCULAR     0.15       0          0          0          1
508              CIRCULAR     0.15       0          0          0          1
511              CIRCULAR     0.15       0          0          0          1
515              CIRCULAR     0.15       0          0          0          1
517              CIRCULAR     0.15       0          0          0          1
518              CIRCULAR     0.15       0          0          0          1
539              CIRCULAR     0.15       0          0          0          1
540              CIRCULAR     0.15       0          0          0          1
543              CIRCULAR     0.15       0          0          0          1
545              CIRCULAR     0.15       0          0          0          1
547              CIRCULAR     0.15       0          0          0          1
548              CIRCULAR     0.15       0          0          0          1
551              CIRCULAR     0.20       0          0          0          1
553              CIRCULAR     0.15       0          0          0          1
555              CIRCULAR     0.20       0          0          0          1
557              CIRCULAR     0.15       0          0          0          1
558              CIRCULAR     0.15       0          0          0          1
562              CIRCULAR     0.15       0          0          0          1
564              CIRCULAR     0.15       0          0          0          1
382_2            CIRCULAR     0.15       0          0          0          1
567              CIRCULAR     0.15       0          0          0          1
569              CIRCULAR     0.15       0          0          0          1
576              CIRCULAR     0.15       0          0          0          1
570              CIRCULAR     0.15       0          0          0          1
580              CIRCULAR     0.15       0          0          0          1
584              CIRCULAR     0.15       0          0          0          1
585              CIRCULAR     0.15       0          0          0          1
587              CIRCULAR     0.15       0          0          0          1
596              CIRCULAR     0.15       0          0          0          1
593              CIRCULAR     0.15       0          0          0          1
599              CIRCULAR     0.15       0          0          0          1
601              CIRCULAR     0.15       0          0          0          1
603              CIRCULAR     0.15       0          0          0          1
608              CIRCULAR     0.15       0          0          0          1
613              CIRCULAR     0.15       0          0          0          1
615              CIRCULAR     0.15       0          0          0          1
617              CIRCULAR     0.15       0          0          0          1
620              CIRCULAR     0.15       0          0          0          1
623              CIRCULAR     0.15       0          0          0          1
625              CIRCULAR     0.15       0          0          0          1
627              CIRCULAR     0.15       0          0          0          1
629              CIRCULAR     0.20       0          0          0          1
633              CIRCULAR     0.20       0          0          0          1
635              CIRCULAR     0.20       0          0          0          1
639              CIRCULAR     0.15       0          0          0          1
643              CIRCULAR     0.15       0          0          0          1
647              CIRCULAR     0.15       0          0          0          1
652              CIRCULAR     0.15       0          0          0          1
223              CIRCULAR     0.15       0          0          0          1
655              CIRCULAR     0.15       0          0          0          1
248              CIRCULAR     0.60       0          0          0          1
658              CIRCULAR     0.60       0          0          0          1
315              CIRCULAR     0.23       0          0          0          1
328              CIRCULAR     0.20       0          0          0          1
670              CIRCULAR     0.20       0          0          0          1
673              CIRCULAR     0.23       0          0          0          1
340_2            CIRCULAR     0.23       0          0          0          1
345              CIRCULAR     0.25       0          0          0          1
512              CIRCULAR     0.15       0          0          0          1
679              CIRCULAR     0.15       0          0          0          1
561              CIRCULAR     0.15       0          0          0          1
700              CIRCULAR     0.45       0          0          0          1
684              CIRCULAR     0.53       0          0          0          1
686              CIRCULAR     0.53       0          0          0          1
207_2            CIRCULAR     0.15       0          0          0          1
209_2            CIRCULAR     0.15       0          0          0          1
694              CIRCULAR     0.15       0          0          0          1
692              CIRCULAR     0.15       0          0          0          1
231              CIRCULAR     0.23       0          0          0          1
227_2            CIRCULAR     0.23       0          0          0          1
727              CIRCULAR     0.32       0          0          0          1
711              CIRCULAR     0.30       0          0          0          1
713              CIRCULAR     0.30       0          0          0          1
715              CIRCULAR     0.30       0          0          0          1
717              CIRCULAR     0.30       0          0          0          1
365_2            CIRCULAR     0.20       0          0          0          1
217_2            CIRCULAR     0.25       0          0          0          1
722              CIRCULAR     0.53       0          0          0          1
710              CIRCULAR     0.20       0          0          0          1
725              CIRCULAR     0.20       0          0          0          1
726              CIRCULAR     0.25       0          0          0          1
283              CIRCULAR     0.60       0          0          0          1
731              CIRCULAR     0.60       0          0          0          1
735              CIRCULAR     0.25       0          0          0          1
631              CIRCULAR     0.30       0          0          0          1
605              CIRCULAR     0.15       0          0          0          1

[LOSSES]
;;Link           Inlet      Outlet     Average    Flap Gate
;;-------------- ---------- ---------- ---------- ----------
203              0          0          0          NO
205              0          0          0          NO
207              0          0          0          NO
209              0          0          0          NO
211              0          0          0          NO
213              0          0          0          NO
215              0          0          0          NO
217              0          0          0          NO
221              0          0          0          NO
225              0          0          0          NO
229              0          0          0          NO
233              0          0          0          NO
235              0          0          0          NO
237              0          0          0          NO
239              0          0          0          NO
242              0          0          0          NO
244              0          0          0          NO
246              0          0          0          NO
250              0          0          0          NO
251              0          0          0          NO
253              0          0          0          NO
258              0          0          0          NO
285              0          0          0          NO
287              0          0          0          NO
227              0          0          0          NO
290              0          0          0          NO
291              0          0          0          NO
293              0          0          0          NO
219              0          0          0          NO
296              0          0          0          NO
298              0          0          0          NO
301              0          0          0          NO
303              0          0          0          NO
305              0          0          0          NO
307              0          0          0          NO
309              0          0          0          NO
311              0          0          0          NO
313              0          0          0          NO
319              0          0          0          NO
205_2            0          0          0          NO
322              0          0          0          NO
324              0          0          0          NO
326              0          0          0          NO
330              0          0          0          NO
332              0          0          0          NO
334              0          0          0          NO
336              0          0          0          NO
338              0          0          0          NO
340              0          0          0          NO
342              0          0          0          NO
349              0          0          0          NO
351              0          0          0          NO
354              0          0          0          NO
355              0          0          0          NO
357              0          0          0          NO
359              0          0          0          NO
361              0          0          0          NO
363              0          0          0          NO
365              0          0          0          NO
368              0          0          0          NO
369              0          0          0          NO
371              0          0          0          NO
373              0          0          0          NO
375              0          0          0          NO
378              0          0          0          NO
379              0          0          0          NO
382              0          0          0          NO
383              0          0          0          NO
385              0          0          0          NO
387              0          0          0          NO
390              0          0          0          NO
392              0          0          0          NO
394              0          0          0          NO
396              0          0          0          NO
426              0          0          0          NO
428              0          0          0          NO
432              0          0          0          NO
428_2            0          0          0          NO
432_2            0          0          0          NO
436              0          0          0          NO
444              0          0          0          NO
446              0          0          0          NO
473              0          0          0          NO
474              0          0          0          NO
476              0          0          0          NO
481              0          0          0          NO
482              0          0          0          NO
486              0          0          0          NO
491              0          0          0          NO
493              0          0          0          NO
495              0          0          0          NO
497              0          0          0          NO
498              0          0          0          NO
501              0          0          0          NO
502              0          0          0          NO
504              0          0          0          NO
508              0          0          0          NO
511              0          0          0          NO
515              0          0          0          NO
517              0          0          0          NO
518              0          0          0          NO
539              0          0          0          NO
540              0          0          0          NO
543              0          0          0          NO
545              0          0          0          NO
547              0          0          0          NO
548              0          0          0          NO
551              0          0          0          NO
553              0          0          0          NO
555              0          0          0          NO
557              0          0          0          NO
558              0          0          0          NO
562              0          0          0          NO
564              0          0          0          NO
382_2            0          0          0          NO
567              0          0          0          NO
569              0          0          0          NO
576              0          0          0          NO
570              0          0          0          NO
580              0          0          0          NO
584              0          0          0          NO
585              0          0          0          NO
587              0          0          0          NO
596              0          0          0          NO
593              0          0          0          NO
599              0          0          0          NO
601              0          0          0          NO
603              0          0          0          NO
608              0          0          0          NO
613              0          0          0          NO
615              0          0          0          NO
617              0          0          0          NO
620              0          0          0          NO
623              0          0          0          NO
625              0          0          0          NO
627              0          0          0          NO
629              0          0          0          NO
633              0          0          0          NO
635              0          0          0          NO
639              0          0          0          NO
643              0          0          0          NO
647              0          0          0          NO
652              0          0          0          NO
223              0          0          0          NO
655              0          0          0          NO
248              0          0          0          NO
658              0          0          0          NO
315              0          0          0          NO
328              0          0          0          NO
670              0          0          0          NO
673              0          0          0          NO
340_2            0          0          0          NO
345              0          0          0          NO
512              0          0          0          NO
679              0          0          0          NO
561              0          0          0          NO
700              0          0          0          NO
684              0          0          0          NO
686              0          0          0          NO
207_2            0          0          0          NO
209_2            0          0          0          NO
694              0          0          0          NO
692              0          0          0          NO
231              0          0          0          NO
227_2            0          0          0          NO
727              0          0          0          NO
711              0          0          0          NO
713              0          0          0          NO
715              0          0          0          NO
717              0          0          0          NO
365_2            0          0          0          NO
217_2            0          0          0          NO
722              0          0          0          NO
710              0          0          0          NO
725              0          0          0          NO
726              0          0          0          NO
283              0          0          0          NO
731              0          0          0          NO
735              0          0          0          NO
631              0          0          0          NO
605              0          0          0          NO

[INFLOWS]
;;Node           Constituent  Time Series      Type     Mfactor  Sfactor  Baseline Pattern
;;-------------- ------------ ---------------- -------- -------- -------- -------- --------
203              FLOW         ""               FLOW     1.0      1.0      0.00002
205              FLOW         ""               FLOW     1.0      1.0      0.00006
207              FLOW         ""               FLOW     1.0      1.0      0.00009
209              FLOW         ""               FLOW     1.0      1.0      0.00011
211              FLOW         ""               FLOW     1.0      1.0      0.00045
213              FLOW         ""               FLOW     1.0      1.0      0.00011
215              FLOW         ""               FLOW     1.0      1.0      0.00009
217              FLOW         ""               FLOW     1.0      1.0      0.00113
219              FLOW         ""               FLOW     1.0      1.0      0.00021
221              FLOW         ""               FLOW     1.0      1.0      0.00009
223              FLOW         ""               FLOW     1.0      1.0      0.00002
225              FLOW         ""               FLOW     1.0      1.0      0.00016
227              FLOW         ""               FLOW     1.0      1.0      0.00002
229              FLOW         ""               FLOW     1.0      1.0      0.00023
231              FLOW         ""               FLOW     1.0      1.0      0.00023
233              FLOW         ""               FLOW     1.0      1.0      0.00040
235              FLOW         ""               FLOW     1.0      1.0      0.00014
237              FLOW         ""               FLOW     1.0      1.0      0.00023
239              FLOW         ""               FLOW     1.0      1.0      0.00045
242              FLOW         ""               FLOW     1.0      1.0      0.00003
244              FLOW         ""               FLOW     1.0      1.0      0.00006
250              FLOW         ""               FLOW     1.0      1.0      0.00003
251              FLOW         ""               FLOW     1.0      1.0      0.00002
253              FLOW         ""               FLOW     1.0      1.0      0.00006
258              FLOW         ""               FLOW     1.0      1.0      0.00009
283              FLOW         ""               FLOW     1.0      1.0      0.00010
285              FLOW         ""               FLOW     1.0      1.0      0.00016
287              FLOW         ""               FLOW     1.0      1.0      0.00044
290              FLOW         ""               FLOW     1.0      1.0      0.00003
291              FLOW         ""               FLOW     1.0      1.0      0.00011
293              FLOW         ""               FLOW     1.0      1.0      0.00004
296              FLOW         ""               FLOW     1.0      1.0      0.00003
298              FLOW         ""               FLOW     1.0      1.0      0.00004
301              FLOW         ""               FLOW     1.0      1.0      0.00016
303              FLOW         ""               FLOW     1.0      1.0      0.00029
305              FLOW         ""               FLOW     1.0      1.0      0.00006
307              FLOW         ""               FLOW     1.0      1.0      0.00006
309              FLOW         ""               FLOW     1.0      1.0      0.00004
311              FLOW         ""               FLOW     1.0      1.0      0.00002
313              FLOW         ""               FLOW     1.0      1.0      0.00020
315              FLOW         ""               FLOW     1.0      1.0      0.00002
319              FLOW         ""               FLOW     1.0      1.0      0.00006
322              FLOW         ""               FLOW     1.0      1.0      0.00017
324              FLOW         ""               FLOW     1.0      1.0      0.00024
326              FLOW         ""               FLOW     1.0      1.0      0.00011
328              FLOW         ""               FLOW     1.0      1.0      0.00007
330              FLOW         ""               FLOW     1.0      1.0      0.00012
332              FLOW         ""               FLOW     1.0      1.0      0.00013
334              FLOW         ""               FLOW     1.0      1.0      0.00027
336              FLOW         ""               FLOW     1.0      1.0      0.00001
338              FLOW         ""               FLOW     1.0      1.0      0.00007
340              FLOW         ""               FLOW     1.0      1.0      0.00028
342              FLOW         ""               FLOW     1.0      1.0      0.00016
345              FLOW         ""               FLOW     1.0      1.0      0.00007
349              FLOW         ""               FLOW     1.0      1.0      0.00002
351              FLOW         ""               FLOW     1.0      1.0      0.00040
354              FLOW         ""               FLOW     1.0      1.0      0.00045
355              FLOW         ""               FLOW     1.0      1.0      0.00015
357              FLOW         ""               FLOW     1.0      1.0      0.00041
359              FLOW         ""               FLOW     1.0      1.0      0.00020
361              FLOW         ""               FLOW     1.0      1.0      0.00102
363              FLOW         ""               FLOW     1.0      1.0      0.00001
368              FLOW         ""               FLOW     1.0      1.0      0.00050
369              FLOW         ""               FLOW     1.0      1.0      0.00049
371              FLOW         ""               FLOW     1.0      1.0      0.00031
373              FLOW         ""               FLOW     1.0      1.0      0.00019
375              FLOW         ""               FLOW     1.0      1.0      0.00015
378              FLOW         ""               FLOW     1.0      1.0      0.00001
379              FLOW         ""               FLOW     1.0      1.0      0.00021
382              FLOW         ""               FLOW     1.0      1.0      0.00025
383              FLOW         ""               FLOW     1.0      1.0      0.00025
385              FLOW         ""               FLOW     1.0      1.0      0.00005
387              FLOW         ""               FLOW     1.0      1.0      0.00019
390              FLOW         ""               FLOW     1.0      1.0      0.00011
392              FLOW         ""               FLOW     1.0      1.0      0.00015
394              FLOW         ""               FLOW     1.0      1.0      0.00002
396              FLOW         ""               FLOW     1.0      1.0      0.00030
426              FLOW         ""               FLOW     1.0      1.0      0.00013
428              FLOW         ""               FLOW     1.0      1.0      0.00010
432              FLOW         ""               FLOW     1.0      1.0      0.00038
436              FLOW         ""               FLOW     1.0      1.0      0.00030
444              FLOW         ""               FLOW     1.0      1.0      0.00015
446              FLOW         ""               FLOW     1.0      1.0      0.00033
473              FLOW         ""               FLOW     1.0      1.0      0.00010
474              FLOW         ""               FLOW     1.0      1.0      0.00017
476              FLOW         ""               FLOW     1.0      1.0      0.00019
481              FLOW         ""               FLOW     1.0      1.0      0.00013
482              FLOW         ""               FLOW     1.0      1.0      0.00014
486              FLOW         ""               FLOW     1.0      1.0      0.00011
491              FLOW         ""               FLOW     1.0      1.0      0.00013
493              FLOW         ""               FLOW     1.0      1.0      0.00006
495              FLOW         ""               FLOW     1.0      1.0      0.00008
497              FLOW         ""               FLOW     1.0      1.0      0.00002
498              FLOW         ""               FLOW     1.0      1.0      0.00007
501              FLOW         ""               FLOW     1.0      1.0      0.00015
502              FLOW         ""               FLOW     1.0      1.0      0.00031
504              FLOW         ""               FLOW     1.0      1.0      0.00027
508              FLOW         ""               FLOW     1.0      1.0      0.00035
511              FLOW         ""               FLOW     1.0      1.0      0.00010
512              FLOW         ""               FLOW     1.0      1.0      0.00027
515              FLOW         ""               FLOW     1.0      1.0      0.00010
517              FLOW         ""               FLOW     1.0      1.0      0.00005
518              FLOW         ""               FLOW     1.0      1.0      0.00006
539              FLOW         ""               FLOW     1.0      1.0      0.00024
540              FLOW         ""               FLOW     1.0      1.0      0.00035
543              FLOW         ""               FLOW     1.0      1.0      0.00002
545              FLOW         ""               FLOW     1.0      1.0      0.00010
547              FLOW         ""               FLOW     1.0      1.0      0.00002
548              FLOW         ""               FLOW     1.0      1.0      0.00010
551              FLOW         ""               FLOW     1.0      1.0      0.00012
553              FLOW         ""               FLOW     1.0      1.0      0.00010
555              FLOW         ""               FLOW     1.0      1.0      0.00016
557              FLOW         ""               FLOW     1.0      1.0      0.00005
558              FLOW         ""               FLOW     1.0      1.0      0.00015
561              FLOW         ""               FLOW     1.0      1.0      0.00004
562              FLOW         ""               FLOW     1.0      1.0      0.00013
564              FLOW         ""               FLOW     1.0      1.0      0.00021
567              FLOW         ""               FLOW     1.0      1.0      0.00008
569              FLOW         ""               FLOW     1.0      1.0      0.00011
570              FLOW         ""               FLOW     1.0      1.0      0.00023
576              FLOW         ""               FLOW     1.0      1.0      0.00015
580              FLOW         ""               FLOW     1.0      1.0      0.00015
584              FLOW         ""               FLOW     1.0      1.0      0.00010
585              FLOW         ""               FLOW     1.0      1.0      0.00007
587              FLOW         ""               FLOW     1.0      1.0      0.00004
593              FLOW         ""               FLOW     1.0      1.0      0.00009
596              FLOW         ""               FLOW     1.0      1.0      0.00006
599              FLOW         ""               FLOW     1.0      1.0      0.00020
601              FLOW         ""               FLOW     1.0      1.0      0.00007
603              FLOW         ""               FLOW     1.0      1.0      0.00008
605              FLOW         ""               FLOW     1.0      1.0      0.00029
608              FLOW         ""               FLOW     1.0      1.0      0.00016
613              FLOW         ""               FLOW     1.0      1.0      0.00034
615              FLOW         ""               FLOW     1.0      1.0      0.00020
617              FLOW         ""               FLOW     1.0      1.0      0.00011
620              FLOW         ""               FLOW     1.0      1.0      0.00011
623              FLOW         ""               FLOW     1.0      1.0      0.00012
625              FLOW         ""               FLOW     1.0      1.0      0.00013
627              FLOW         ""               FLOW     1.0      1.0      0.00010
631              FLOW         ""               FLOW     1.0      1.0      0.00132
633              FLOW         ""               FLOW     1.0      1.0      0.00018
635              FLOW         ""               FLOW     1.0      1.0      0.00018
639              FLOW         ""               FLOW     1.0      1.0      0.00027
643              FLOW         ""               FLOW     1.0      1.0      0.00018
647              FLOW         ""               FLOW     1.0      1.0      0.00006
652              FLOW         ""               FLOW     1.0      1.0      0.00002
655              FLOW         ""               FLOW     1.0      1.0      0.00024
670              FLOW         ""               FLOW     1.0      1.0      0.00001
673              FLOW         ""               FLOW     1.0      1.0      0.00033
679              FLOW         ""               FLOW     1.0      1.0      0.00028
692              FLOW         ""               FLOW     1.0      1.0      0.00010
694              FLOW         ""               FLOW     1.0      1.0      0.00010
700              FLOW         ""               FLOW     1.0      1.0      0.00047
710              FLOW         ""               FLOW     1.0      1.0      0.00062
713              FLOW         ""               FLOW     1.0      1.0      0.00012
715              FLOW         ""               FLOW     1.0      1.0      0.00004
717              FLOW         ""               FLOW     1.0      1.0      0.00029
725              FLOW         ""               FLOW     1.0      1.0      0.00157
726              FLOW         ""               FLOW     1.0      1.0      0.00211
727              FLOW         ""               FLOW     1.0      1.0      0.00314
735              FLOW         ""               FLOW     1.0      1.0      0.00110

[COORDINATES]
;;Node           X-Coord            Y-Coord
;;-------------- ------------------ ------------------
203              -5766627.09        2476309.77        
205              -5766451.89        2476347.43        
207              -5766349.40        2476384.57        
209              -5766215.50        2476409.46        
211              -5766101.09        2476431.24        
213              -5766015.67        2476448.96        
215              -5765691.45        2476509.69        
217              -5765582.98        2476529.94        
219              -5765640.94        2476874.10        
221              -5765402.09        2476963.43        
223              -5765350.53        2476973.30        
225              -5764839.03        2477063.14        
227              -5764853.30        2477143.82        
229              -5764594.06        2477190.43        
231              -5764376.25        2477234.33        
233              -5764410.87        2477422.48        
235              -5764433.29        2477539.65        
237              -5764453.58        2477653.65        
239              -5764173.06        2477711.73        
242              -5764142.56        2477719.32        
244              -5764070.78        2477724.59        
246              -5764004.56        2477736.63        
248              -5764025.47        2477851.47        
250              -5763980.87        2477213.20        
251              -5764017.48        2477425.77        
253              -5764035.78        2477532.06        
258              -5764572.70        2477066.43        
283              -5764958.02        2477730.39        
285              -5764927.72        2477583.33        
287              -5764901.54        2477438.42        
290              -5765524.45        2476224.35        
291              -5765544.77        2476327.32        
293              -5765569.07        2476450.29        
296              -5765741.25        2477454.51        
298              -5765756.11        2477555.35        
301              -5765714.88        2476649.86        
303              -5765736.75        2476779.08        
305              -5765715.23        2476859.19        
307              -5765741.24        2476926.04        
309              -5765768.34        2477081.26        
311              -5765775.63        2477153.83        
313              -5765773.20        2477248.58        
315              -5765792.65        2477329.21        
319              -5765811.22        2477440.25        
322              -5766492.11        2476549.18        
324              -5766530.61        2476729.00        
326              -5766555.57        2476805.54        
328              -5766573.03        2476945.72        
330              -5766613.77        2477100.06        
332              -5766616.09        2477241.99        
334              -5766635.97        2477359.21        
336              -5766586.91        2477387.01        
338              -5766408.60        2477401.90        
340              -5765972.34        2477474.29        
342              -5765892.45        2477425.85        
345              -5765894.10        2477433.15        
349              -5765752.02        2477460.24        
351              -5765789.11        2477682.90        
354              -5766686.62        2476519.91        
355              -5766726.52        2476663.30        
357              -5766764.83        2476825.87        
359              -5766749.31        2476926.45        
361              -5766782.50        2477145.47        
363              -5766806.87        2477236.50        
365              -5766791.54        2477330.20        
368              -5766518.42        2475834.71        
369              -5766541.83        2475959.83        
371              -5766577.89        2476065.55        
373              -5766604.34        2476161.29        
375              -5766619.41        2476268.99        
378              -5766279.74        2475955.85        
379              -5766311.00        2476111.42        
382              -5766124.51        2475857.00        
383              -5766142.68        2475937.89        
385              -5766171.54        2476141.34        
387              -5766194.03        2476274.15        
390              -5766020.05        2476007.70        
392              -5766274.93        2476675.89        
394              -5766212.41        2476751.68        
396              -5765880.18        2476905.64        
426              -5766920.82        2476102.57        
428              -5766806.48        2476125.15        
432              -5766822.81        2476231.30        
436              -5766844.59        2476346.47        
444              -5767024.15        2476430.03        
446              -5767056.94        2476606.18        
473              -5767318.30        2477231.73        
474              -5766948.05        2477299.48        
476              -5766842.31        2477257.06        
481              -5766441.67        2475973.85        
482              -5766381.78        2475937.71        
486              -5766409.00        2476095.80        
491              -5766667.63        2476694.25        
493              -5766634.97        2476825.23        
495              -5766713.92        2476920.08        
497              -5766663.79        2476985.96        
498              -5766678.52        2477084.94        
501              -5766381.78        2477051.07        
502              -5766360.00        2477130.11        
504              -5765970.69        2477215.92        
508              -5765933.19        2477060.21        
511              -5766354.56        2477279.16        
512              -5766065.98        2477337.87        
515              -5766261.99        2477575.00        
517              -5766468.90        2477069.13        
518              -5766517.90        2477355.94        
539              -5766238.30        2476896.84        
540              -5765904.23        2476942.60        
543              -5766040.21        2476721.44        
545              -5765895.55        2476614.36        
547              -5765740.07        2476447.76        
548              -5765621.79        2476442.66        
551              -5765701.91        2476258.03        
553              -5765804.29        2476440.81        
555              -5765650.72        2476200.80        
557              -5765944.51        2476130.64        
558              -5765704.75        2476160.88        
561              -5765773.13        2476064.18        
562              -5765750.88        2475933.09        
564              -5765994.27        2475882.06        
567              -5766013.51        2475737.39        
569              -5765282.70        2476580.11        
570              -5765315.34        2476753.73        
576              -5765526.56        2476713.91        
580              -5765332.23        2476852.57        
584              -5765518.88        2476989.48        
585              -5765486.24        2477132.83        
587              -5765436.31        2477136.02        
593              -5765449.75        2477225.22        
596              -5765541.92        2477207.70        
599              -5765307.66        2477218.85        
601              -5765225.09        2477237.96        
603              -5765036.91        2477301.67        
605              -5765056.11        2477408.40        
608              -5765420.95        2477344.68        
613              -5765656.10        2477452.81        
615              -5765562.41        2477465.24        
617              -5765198.88        2477530.53        
620              -5765198.88        2477089.08        
623              -5765159.79        2476628.16        
625              -5765021.76        2476634.19        
627              -5764929.74        2476660.30        
629              -5764784.45        2476754.72        
631              -5764762.65        2476638.21        
633              -5764800.23        2476848.13        
635              -5764818.39        2476950.07        
639              -5764985.44        2476814.98        
643              -5765083.63        2476901.90        
647              -5764981.42        2476715.59        
652              -5765527.07        2476941.96        
655              -5765026.65        2477028.79        
658              -5763971.94        2477970.87        
660              -5763951.32        2478026.31        
670              -5766576.59        2476973.88        
673              -5765908.76        2477489.78        
679              -5767187.78        2475670.95        
684              -5765614.33        2477814.25        
686              -5765527.03        2477657.31        
692              -5766358.21        2476441.37        
694              -5766227.51        2476474.23        
700              -5765794.38        2477783.20        
710              -5767227.99        2475897.72        
711              -5767365.51        2477474.87        
713              -5766845.96        2477581.19        
715              -5766761.19        2477596.00        
717              -5766337.32        2477677.42        
722              -5765104.17        2477714.20        
725              -5767297.34        2476181.71        
726              -5767421.91        2476604.32        
727              -5767457.13        2476993.79        
731              -5764646.70        2477615.28        
735              -5765136.60        2476401.01        

[MAP]
DIMENSIONS -5767457.13 2475670.95 -5763951.32 2478026.31
Units      None

[REPORT]
SUBCATCHMENTS ALL
NODES ALL
LINKS ALL
