;; SWMM5 .inp converted from XPSWMM .xp file
;; Generated by XPSWMM Card Reader
;; Source format: XP_CARD | Original title: Stormwater

[TITLE]
;;Project Title/Notes
Stormwater

[OPTIONS]
FLOW_UNITS           CFS
INFILTRATION         HORTON
FLOW_ROUTING         DYNWAVE
LINK_OFFSETS         DEPTH
MIN_SLOPE            0.0
ALLOW_PONDING        NO
SKIP_STEADY_STATE    NO
ROUTING_STEP         00:01:00
VARIABLE_STEP        0.75
INERTIAL_DAMPING     PARTIAL
NORMAL_FLOW_LIMITED  BOTH
START_DATE           01/01/2001
START_TIME           00:00:00
REPORT_START_DATE    01/01/2001
REPORT_START_TIME    00:00:00
END_DATE             01/02/2001
END_TIME             00:00:00
SWEEP_START          01/01
SWEEP_END            12/31
DRY_DAYS             0
REPORT_STEP          00:15:00
WET_STEP             00:05:00
DRY_STEP             01:00:00

[JUNCTIONS]
;;Name           Elev       MaxDepth   InitDepth  SurDepth   Aponded
;;-------------- ---------- ---------- ---------- ---------- ----------
4/1              0          0          0          0          0
3/1              0          0          0          0          0
Junction         0          0          0          0          0
3/2              0          0          0          0          0
6/1              0          0          0          0          0
5/1              0          0          0          0          0
5/2              0          0          0          0          0
5/3              0          0          0          0          0
5/4              0          0          0          0          0

[OUTFALLS]
;;Name           Elev       Type       Stage      Gated
;;-------------- ---------- ---------- ---------- -----
Outfall          0          FREE                  NO

[CONDUITS]
;;Name           From             To               Length     Roughness  InOffset   OutOffset  InitFlow   MaxFlow
;;-------------- ---------------- ---------------- ---------- ---------- ---------- ---------- ---------- ----------
202              4/1              Junction         100.00     0.0140     0          0          0          0
204              3/1              Outfall          100.00     0.0140     0          0          0          0
205              Junction         3/1              100.00     0.0140     0          0          0          0
206              3/2              Junction         100.00     0.0140     0          0          0          0
207              6/1              5/2              100.00     0.0140     0          0          0          0
209              5/2              5/1              100.00     0.0140     0          0          0          0
210              5/3              5/2              100.00     0.0140     0          0          0          0
211              5/4              5/3              100.00     0.0140     0          0          0          0
208              5/1              3/1              100.00     0.0130     0          0          0          0

[XSECTIONS]
;;Link           Shape        Geom1      Geom2      Geom3      Geom4      Barrels
;;-------------- ------------ ---------- ---------- ---------- ---------- ----------
202              CIRCULAR     1.00       0          0          0          1
204              CIRCULAR     1.00       0          0          0          1
205              CIRCULAR     1.00       0          0          0          1
206              CIRCULAR     1.00       0          0          0          1
207              CIRCULAR     1.00       0          0          0          1
209              CIRCULAR     1.00       0          0          0          1
210              CIRCULAR     1.00       0          0          0          1
211              CIRCULAR     1.00       0          0          0          1
208              CIRCULAR     1.00       0          0          0          1

[LOSSES]
;;Link           Inlet      Outlet     Average    Flap Gate
;;-------------- ---------- ---------- ---------- ----------
202              0          0          0          NO
204              0          0          0          NO
205              0          0          0          NO
206              0          0          0          NO
207              0          0          0          NO
209              0          0          0          NO
210              0          0          0          NO
211              0          0          0          NO
208              0          0          0          NO

[COORDINATES]
;;Node           X-Coord            Y-Coord
;;-------------- ------------------ ------------------
4/1              -1972876.44        683564.22         
Outfall          -1973133.75        683261.62         
3/1              -1973085.26        683383.96         
Junction         -1973041.83        683494.74         
3/2              -1972997.55        683613.12         
6/1              -1972728.20        683546.40         
5/1              -1972805.83        683440.30         
5/2              -1972753.98        683547.73         
5/3              -1972672.77        683717.09         
5/4              -1972605.47        683860.69         

[MAP]
DIMENSIONS -1973133.75 683261.62 -1972605.47 683860.69
Units      None

[REPORT]
SUBCATCHMENTS ALL
NODES ALL
LINKS ALL
