;; SWMM5 .inp converted from XPSWMM .xp file
;; Generated by XPSWMM Card Reader
;; Source format: XP_CARD | Original title: St. Peters Creek

[TITLE]
;;Project Title/Notes
St. Peters Creek

[OPTIONS]
FLOW_UNITS           CMS
INFILTRATION         HORTON
FLOW_ROUTING         DYNWAVE
LINK_OFFSETS         DEPTH
MIN_SLOPE            0.0
ALLOW_PONDING        NO
SKIP_STEADY_STATE    NO
ROUTING_STEP         00:00:15
VARIABLE_STEP        0.75
INERTIAL_DAMPING     PARTIAL
NORMAL_FLOW_LIMITED  BOTH
START_DATE           01/01/2001
START_TIME           00:00:00
REPORT_START_DATE    01/01/2001
REPORT_START_TIME    00:00:00
END_DATE             01/02/2001
END_TIME             00:00:00
SWEEP_START          01/01
SWEEP_END            12/31
DRY_DAYS             0
REPORT_STEP          00:15:00
WET_STEP             00:05:00
DRY_STEP             01:00:00

[JUNCTIONS]
;;Name           Elev       MaxDepth   InitDepth  SurDepth   Aponded
;;-------------- ---------- ---------- ---------- ---------- ----------
100              20.00      0          0          0          0
102              20.00      0          0          0          0
103              20.00      0          0          0          0
104              0          0          0          0          0
999              0          0          0          0          0

[OUTFALLS]
;;Name           Elev       Type       Stage      Gated
;;-------------- ---------- ---------- ---------- -----
105              0          FREE                  NO

[CONDUITS]
;;Name           From             To               Length     Roughness  InOffset   OutOffset  InitFlow   MaxFlow
;;-------------- ---------------- ---------------- ---------- ---------- ---------- ---------- ---------- ----------
121              100              102              700.00     0.0350     10.00      8.60       0          0
122              102              103              1100.00    0.0350     8.60       6.40       0          0
123              103              104              2400.00    0.0350     10.00      5.20       0          0
125              104              999              1600.00    0.0350     10.00      9.99       0          0

[PUMPS]
;;Name           From             To               PumpCurve  Status   Startup    Shutoff
;;-------------- ---------------- ---------------- ---------- -------- ---------- ----------
240.1            104              105              PC_240_1   ON       1.00       0         

[CURVES]
;;Name           Type       X-Value    Y-Value
;;-------------- ---------- ---------- ----------
;; Synthesized generic pump curves — replace with actual pump data
PC_240_1         Pump1      0          5
PC_240_1                    10         10

[XSECTIONS]
;;Link           Shape        Geom1      Geom2      Geom3      Geom4      Barrels
;;-------------- ------------ ---------- ---------- ---------- ---------- ----------
121              HORSESHOE    5.00       3.00       0          0          1
122              CIRCULAR     5.00       3.00       0          0          1
123              HORSESHOE    5.00       3.00       0          0          1
125              POWER        7.00       5.00       0          0          1

[LOSSES]
;;Link           Inlet      Outlet     Average    Flap Gate
;;-------------- ---------- ---------- ---------- ----------
121              0          0          0          NO
122              0          0          0          NO
123              0          0          0          NO
125              0          0          0          NO

[COORDINATES]
;;Node           X-Coord            Y-Coord
;;-------------- ------------------ ------------------
100              52.56              6.36              
102              72.96              7.03              
103              92.56              7.03              
104              112.96             7.70              
105              127.33             19.05             
999              132.56             6.36              

[MAP]
DIMENSIONS 52.56 6.36 132.56 19.05
Units      None

[REPORT]
SUBCATCHMENTS ALL
NODES ALL
LINKS ALL
