;; SWMM5 .inp converted from XPSWMM .xp file
;; Generated by XPSWMM Card Reader
;; Source format: XP_CARD | Original title: BASIN: Q   Proposed  DESIGN STORM: 25 yr. - 24 hr.

[TITLE]
;;Project Title/Notes
BASIN: Q   Proposed  DESIGN STORM: 25 yr. - 24 hr.

[OPTIONS]
FLOW_UNITS           CFS
INFILTRATION         HORTON
FLOW_ROUTING         DYNWAVE
LINK_OFFSETS         DEPTH
MIN_SLOPE            0.0
ALLOW_PONDING        NO
SKIP_STEADY_STATE    NO
ROUTING_STEP         00:00:02
VARIABLE_STEP        0.75
INERTIAL_DAMPING     NONE
NORMAL_FLOW_LIMITED  BOTH
MAX_TRIALS           10
START_DATE           01/01/2001
START_TIME           00:00:00
REPORT_START_DATE    01/01/2001
REPORT_START_TIME    00:00:00
END_DATE             01/02/2001
END_TIME             00:00:00
SWEEP_START          01/01
SWEEP_END            12/31
DRY_DAYS             0
REPORT_STEP          00:15:00
WET_STEP             00:05:00
DRY_STEP             01:00:00

[JUNCTIONS]
;;Name           Elev       MaxDepth   InitDepth  SurDepth   Aponded
;;-------------- ---------- ---------- ---------- ---------- ----------
1700011          98.13      0          0          0          0
1700111          97.89      0          0          0          0
1702100          98.00      0          0          0          0
1702102          97.00      0          0          0          0
1701102          97.25      0          0          0          0
1701003          97.00      0          0          0          0
1702104          99.00      0          0          0          0
1702106          100.00     0          0          0          0
1702108          107.85     0          0          0          0
1702009          106.72     0          0          0          0
1702110          109.40     0          0          0          0
1700014          96.80      0          0          0          0
1700014o         96.20      0          0          0          0
1700012          96.20      0          0          0          0
1700012o         96.00      0          0          0          0

[OUTFALLS]
;;Name           Elev       Type       Stage      Gated
;;-------------- ---------- ---------- ---------- -----
1701502          120.00     FREE                  NO

[STORAGE]
;;Name           Elev       MaxDepth   InitDepth  Shape      Curve/Params
;;-------------- ---------- ---------- ---------- ---------- ----------
1700506          120.00     10.00      3.30       FUNCTIONAL 1000.00 0          0
880506           200.00     10.00      0          FUNCTIONAL 50.00 0          0
1701500          120.00     10.00      2.00       FUNCTIONAL 1000.00 0          0
881500           200.00     10.00      0.83       FUNCTIONAL 50.00 0          0
881502           200.00     10.00      0.50       FUNCTIONAL 50.00 0          0
1700508          120.00     10.00      4.20       FUNCTIONAL 1000.00 0          0
880508           200.00     10.00      0          FUNCTIONAL 50.00 0          0
880510           200.00     10.00      0          FUNCTIONAL 50.00 0          0
1700510          120.00     10.00      4.00       FUNCTIONAL 1000.00 0          0
1702500          120.00     10.00      1.00       FUNCTIONAL 1000.00 0          0
882500           200.00     10.00      0          FUNCTIONAL 50.00 0          0
1702502          120.00     10.00      2.00       FUNCTIONAL 1000.00 0          0
882502           200.00     10.00      0          FUNCTIONAL 50.00 0          0
1702504          120.00     10.00      0          FUNCTIONAL 1000.00 0          0
882504           200.00     10.00      0          FUNCTIONAL 50.00 0          0
1702506          120.00     10.00      0          FUNCTIONAL 1000.00 0          0
882506           200.00     10.00      0          FUNCTIONAL 50.00 0          0
1702508          120.00     10.00      0          FUNCTIONAL 1000.00 0          0
882508           200.00     10.00      0.42       FUNCTIONAL 50.00 0          0
1702510          120.00     10.00      0          FUNCTIONAL 1000.00 0          0
1700512          120.00     10.00      2.80       FUNCTIONAL 1000.00 0          0
880512           200.00     10.00      0          FUNCTIONAL 50.00 0          0
1700514          120.00     10.00      2.20       FUNCTIONAL 1000.00 0          0
880514           200.00     10.00      0          FUNCTIONAL 50.00 0          0

[CONDUITS]
;;Name           From             To               Length     Roughness  InOffset   OutOffset  InitFlow   MaxFlow
;;-------------- ---------------- ---------------- ---------- ---------- ---------- ---------- ---------- ----------
426              1701500          1700506          170.00     0.0160     98.67      98.33      0          0
430              1700508          1700506          750.00     0.0330     95.80      95.70      0          0
1700010          1700011          1700111          60.00      0.0230     98.13      97.89      0          0
443              882508           1702508          50.00      0.2000     107.43     107.85     0          0
441              882506           1702506          50.00      0.2000     100.74     100.00     0          0
439              882504           1702504          50.00      0.2000     103.06     99.00      0          0
437              882502           1702502          50.00      0.2000     97.27      97.00      0          0
432              880510           1700510          50.00      0.2000     95.31      95.00      0          0
435              882500           1702500          50.00      0.2000     98.87      98.00      0          0
431              880508           1700508          50.00      0.2000     99.39      94.80      0          0
425              880506           1700506          50.00      0.2000     98.00      97.70      0          0
427              881500           1701500          50.00      0.2000     96.17      97.00      0          0
429              881502           1701502          50.00      0.2000     96.75      97.25      0          0
447              880512           1700512          50.00      0.2000     99.50      96.20      0          0
449              880514           1700514          50.00      0.2000     99.00      96.80      0          0
1702000          1702100          1700510          615.00     0.0132     98.00      96.00      0          0
1702002          1702102          1700510          140.00     0.0140     97.00      96.00      0          0
1701002          1701102          1701003          705.00     0.0140     97.25      97.00      0          0
1702004          1702104          1702502          470.00     0.0250     99.00      97.00      0          0
1702006          1702106          1702504          400.00     0.0250     100.00     99.00      0          0
1702008          1702108          1702009          300.00     0.0130     107.85     106.72     0          0
1702010          1702110          1702508          290.00     0.0130     109.40     108.00     0          0
1700015          1700014          1700014o         620.00     0.0140     96.80      96.20      0          0
1700013          1700012          1700012o         320.00     0.0140     96.20      96.00      0          0

[XSECTIONS]
;;Link           Shape        Geom1      Geom2      Geom3      Geom4      Barrels
;;-------------- ------------ ---------- ---------- ---------- ---------- ----------
426              CIRCULAR     3.00       7.00       0          0          1
430              TRAPEZOIDAL  12.00      15.00      1          1          1
1700010          CIRCULAR     4.00       0          0          0          1
443              RECT_CLOSED  6.00       0.20       0          0          1
441              RECT_CLOSED  10.00      0.20       0          0          1
439              TRAPEZOIDAL  6.00       0.20       2          2          1
437              TRAPEZOIDAL  10.00      0.20       2          2          1
432              TRAPEZOIDAL  10.00      0.20       2          2          1
435              RECT_CLOSED  6.00       0.20       0          0          1
431              RECT_CLOSED  6.00       0.20       0          0          1
425              RECT_CLOSED  6.00       0.20       0          0          1
427              RECT_CLOSED  6.00       0.20       0          0          1
429              RECT_CLOSED  6.00       0.20       0          0          1
447              TRAPEZOIDAL  6.00       0.20       2          2          1
449              RECT_CLOSED  6.00       0.20       0          0          1
1702000          CIRCULAR     4.00       0          0          0          1
1702002          RECT_CLOSED  6.00       8.00       0          0          1
1701002          CIRCULAR     3.50       0          0          0          1
1702004          CIRCULAR     6.00       0          0          0          1
1702006          CIRCULAR     5.50       0          0          0          1
1702008          CIRCULAR     2.50       0          0          0          1
1702010          CIRCULAR     2.00       0          0          0          1
1700015          RECT_CLOSED  8.00       8.00       0          0          1
1700013          RECT_CLOSED  8.00       8.00       0          0          1

[LOSSES]
;;Link           Inlet      Outlet     Average    Flap Gate
;;-------------- ---------- ---------- ---------- ----------
426              0          0          0          NO
430              0          0          0          NO
1700010          0          0          0          NO
443              0          0          0          NO
441              0          0          0          NO
439              0          0          0          NO
437              0          0          0          NO
432              0          0          0          NO
435              0          0          0          NO
431              0          0          0          NO
425              0          0          0          NO
427              0          0          0          NO
429              0          0          0          NO
447              0          0          0          NO
449              0          0          0          NO
1702000          0          0          0          NO
1702002          0          0          0          NO
1701002          0          0          0          NO
1702004          0          0          0          NO
1702006          0          0          0          NO
1702008          0          0          0          NO
1702010          0          0          0          NO
1700015          0          0          0          NO
1700013          0          0          0          NO

[COORDINATES]
;;Node           X-Coord            Y-Coord
;;-------------- ------------------ ------------------
1700506          397.91             71.19             
880506           391.75             73.45             
1701500          403.37             71.47             
881500           402.71             65.39             
1701502          408.67             71.40             
881502           406.96             64.95             
1700508          397.74             62.38             
880508           392.47             65.96             
880510           395.54             51.76             
1700510          397.66             55.82             
1702500          403.12             55.89             
882500           409.23             58.43             
1702502          392.36             55.89             
882502           390.99             51.62             
1702504          386.73             55.96             
882504           385.21             50.96             
1702506          381.68             55.96             
882506           380.98             51.35             
1702508          376.72             56.10             
882508           376.17             51.97             
1702510          371.75             56.03             
1700512          397.58             49.23             
880512           406.65             51.30             
1700514          397.41             42.30             
880514           406.07             45.03             

[MAP]
DIMENSIONS 371.75 42.30 409.23 73.45
Units      None

[REPORT]
SUBCATCHMENTS ALL
NODES ALL
LINKS ALL
