;; SWMM5 .inp converted from XPSWMM .xp file
;; Generated by XPSWMM Card Reader
;; Source format: XP_CARD | Original title: SWMM EXTRAN INPUT DATA FOR NBC SYSTEM               RIDEM 1yr DESIGN STORM
;; Links parsed from source: 835 | Routable in this .inp: 835

[TITLE]
;;Project Title/Notes
SWMM EXTRAN INPUT DATA FOR NBC SYSTEM               RIDEM 1yr DESIGN STORM

[OPTIONS]
FLOW_UNITS           CFS
INFILTRATION         HORTON
FLOW_ROUTING         DYNWAVE
LINK_OFFSETS         DEPTH
MIN_SLOPE            0.0
ALLOW_PONDING        NO
SKIP_STEADY_STATE    NO
ROUTING_STEP         00:00:10
VARIABLE_STEP        0.75
INERTIAL_DAMPING     NONE
NORMAL_FLOW_LIMITED  BOTH
MAX_TRIALS           40
HEAD_TOLERANCE       0.0033
START_DATE           01/01/2001
START_TIME           00:00:00
REPORT_START_DATE    01/01/2001
REPORT_START_TIME    00:00:00
END_DATE             01/02/2001
END_TIME             00:00:00
SWEEP_START          01/01
SWEEP_END            12/31
DRY_DAYS             0
REPORT_STEP          00:15:00
WET_STEP             00:05:00
DRY_STEP             01:00:00

[JUNCTIONS]
;;Name           Elev       MaxDepth   InitDepth  SurDepth   Aponded
;;-------------- ---------- ---------- ---------- ---------- ----------
x9001            181.20     0          0          0          0
x9002            180.30     0          0          0          0
x9003            178.99     0          0          0          0
x9004            177.75     0          0          0          0
x9005            176.95     0          0          0          0
x9006            175.50     0          0          0          0
x9007            165.00     0          0          0          0
x9008            163.78     0          0          0          0
x9009            161.83     0          0          0          0
x9010            159.00     0          0          0          0
x9011            175.00     0          0          0          0
x9012            175.00     0          0          0          0
x9015            172.06     0          0          0          0
x9016            171.69     0          0          0          0
x9017            155.42     0          0          0          0
x9018            161.40     0          0          0          0
x9019            161.34     0          0          0          0
x9041            157.28     0          0          0          0
x9020            161.18     0          0          0          0
x9021            159.67     0          0          0          0
x9022            158.76     0          0          0          0
x9023            158.41     0          0          0          0
x9024            158.13     0          0          0          0
x9026            155.73     0          0          0          0
x9028            155.28     0          0          0          0
x9029            155.28     0          0          0          0
x9030            156.73     0          0          0          0
x9032            149.42     0          0          0          0
x9033            149.21     0          0          0          0
x9034            163.08     0          0          0          0
x9530            146.27     0          0          0          0
x9037            145.19     0          0          0          0
x9038            144.49     0          0          0          0
x9039            146.27     0          0          0          0
x9040            141.51     0          0          0          0
x9043            146.69     0          0          0          0
x9044            145.89     0          0          0          0
x9045            145.91     0          0          0          0
x9046            146.46     0          0          0          0
x9047            146.02     0          0          0          0
x9048            144.51     0          0          0          0
x9049            140.43     0          0          0          0
x9050            148.37     0          0          0          0
x9051            149.06     0          0          0          0
x9053            141.12     0          0          0          0
x9054            139.48     0          0          0          0
x9055            137.09     0          0          0          0
x9500            180.58     0          0          0          0
x9501            180.30     0          0          0          0
x9502            178.99     0          0          0          0
x9503            177.55     0          0          0          0
x9504            176.79     0          0          0          0
x9505            175.50     0          0          0          0
x9506            161.00     0          0          0          0
x9507            175.00     0          0          0          0
x9509            163.78     0          0          0          0
x9511            155.00     0          0          0          0
x902             217.00     0          0          0          0
x9512            155.93     0          0          0          0
x9513            172.06     0          0          0          0
x9514            171.69     0          0          0          0
x9515            155.42     0          0          0          0
x9516            161.40     0          0          0          0
x9517            161.34     0          0          0          0
x9518            161.18     0          0          0          0
x9519            159.67     0          0          0          0
x9520            178.76     0          0          0          0
x9521            178.41     0          0          0          0
x9522            178.76     0          0          0          0
x9523            178.41     0          0          0          0
x9527            169.21     0          0          0          0
x9532            147.98     0          0          0          0
x9534            145.89     0          0          0          0
x9535            145.91     0          0          0          0
x9536            146.46     0          0          0          0
x9537            146.02     0          0          0          0
x9538            144.51     0          0          0          0
x9539            140.43     0          0          0          0
x9540            148.37     0          0          0          0
x9541            149.06     0          0          0          0
x9545            136.29     0          0          0          0
x9546            135.92     0          0          0          0
x9547            134.66     0          0          0          0
x9550            136.00     0          0          0          0
x9552            136.00     0          0          0          0
480              189.50     0          0          0          0
2102             150.70     0          0          0          0
2104             124.00     0          0          0          0
2105             122.00     0          0          0          0
2106             122.00     0          0          0          0
650              166.50     0          0          0          0
2110             141.50     0          0          0          0
2113             122.00     0          0          0          0
2114             122.00     0          0          0          0
2115             122.00     0          0          0          0
2116             122.00     0          0          0          0
2117             122.00     0          0          0          0
2118             122.00     0          0          0          0
2120             122.00     0          0          0          0
461              136.00     0          0          0          0
462              140.30     0          0          0          0
2121             118.91     0          0          0          0
2122             118.91     0          0          0          0
4611             131.00     0          0          0          0
4600             118.91     0          0          0          0
4621             126.50     0          0          0          0
2124             121.00     0          0          0          0
2125             118.02     0          0          0          0
2127             120.21     0          0          0          0
2128             124.30     0          0          0          0
580              119.88     0          0          0          0
5801             119.70     0          0          0          0
2005             188.00     0          0          0          0
2011             185.00     0          0          0          0
2015             183.00     0          0          0          0
2020             182.00     0          0          0          0
2030             178.00     0          0          0          0
2035             177.00     0          0          0          0
2041             175.00     0          0          0          0
2045             177.00     0          0          0          0
2051             175.00     0          0          0          0
2055             170.00     0          0          0          0
2060             170.00     0          0          0          0
454              145.00     0          0          0          0
452              142.00     0          0          0          0
453              146.00     0          0          0          0
4502             140.00     0          0          0          0
4503             139.00     0          0          0          0
4504             145.00     0          0          0          0
4505             127.70     0          0          0          0
4507             144.00     0          0          0          0
4508             143.00     0          0          0          0
2131             146.00     0          0          0          0
2137             139.00     0          0          0          0
2138             137.00     0          0          0          0
2139             139.00     0          0          0          0
2142             118.50     0          0          0          0
2143             118.32     0          0          0          0
2144             118.12     0          0          0          0
2145             118.71     0          0          0          0
2146             119.05     0          0          0          0
2147             119.08     0          0          0          0
2149             118.93     0          0          0          0
2150             118.84     0          0          0          0
440              126.57     0          0          0          0
441              120.29     0          0          0          0
2152             118.84     0          0          0          0
2154             118.67     0          0          0          0
430              122.00     0          0          0          0
431              119.80     0          0          0          0
420              129.00     0          0          0          0
4201             125.00     0          0          0          0
2156             118.59     0          0          0          0
400              122.20     0          0          0          0
2158             121.40     0          0          0          0
2167             116.55     0          0          0          0
2168             115.00     0          0          0          0
2169             114.00     0          0          0          0
2172             117.50     0          0          0          0
2175             115.00     0          0          0          0
a2               170.40     0          0          0          0
a7               170.80     0          0          0          0
a9               172.00     0          0          0          0
a11              170.50     0          0          0          0
a13              169.30     0          0          0          0
a15              162.78     0          0          0          0
a17              162.78     0          0          0          0
a18              103.76     0          0          0          0
a101             172.70     0          0          0          0
a102             170.40     0          0          0          0
a103             174.20     0          0          0          0
a104             171.80     0          0          0          0
a106             168.60     0          0          0          0
a108             171.50     0          0          0          0
a110             170.00     0          0          0          0
a111             169.50     0          0          0          0
a112             169.00     0          0          0          0
a113             168.70     0          0          0          0
a114             168.40     0          0          0          0
a115             168.20     0          0          0          0
a19              172.00     0          0          0          0
a20              172.00     0          0          0          0
a21              166.00     0          0          0          0
a22              164.00     0          0          0          0
a23              145.00     0          0          0          0
a24              144.00     0          0          0          0
a36              113.20     0          0          0          0
a40              113.20     0          0          0          0
a41              113.20     0          0          0          0
a42              113.40     0          0          0          0
a43              114.00     0          0          0          0
a44              112.60     0          0          0          0
a45              113.20     0          0          0          0
a46              114.40     0          0          0          0
a47              120.60     0          0          0          0
a226             129.00     0          0          0          0
a48              118.00     0          0          0          0
a50              116.50     0          0          0          0
a325             113.55     0          0          0          0
a51              115.60     0          0          0          0
a52              115.60     0          0          0          0
a53              116.00     0          0          0          0
a54              115.40     0          0          0          0
a55              114.90     0          0          0          0
a56              115.30     0          0          0          0
a57              115.60     0          0          0          0
a58              115.60     0          0          0          0
a59              116.10     0          0          0          0
a224             122.00     0          0          0          0
a124             121.47     0          0          0          0
a60              116.00     0          0          0          0
a61              115.40     0          0          0          0
a62              115.80     0          0          0          0
a63              115.60     0          0          0          0
a64              115.30     0          0          0          0
a65              115.30     0          0          0          0
a66              120.50     0          0          0          0
a67              120.65     0          0          0          0
a68              120.72     0          0          0          0
a69              120.92     0          0          0          0
a70              121.00     0          0          0          0
a323             117.00     0          0          0          0
a71              121.20     0          0          0          0
a72              111.80     0          0          0          0
a73              111.10     0          0          0          0
a74              113.50     0          0          0          0
a75              112.50     0          0          0          0
a76              115.00     0          0          0          0
a77              135.00     0          0          0          0
a80              127.40     0          0          0          0
a81              122.40     0          0          0          0
a82              121.40     0          0          0          0
a83              120.00     0          0          0          0
a84              119.20     0          0          0          0
a85              120.64     0          0          0          0
a86              121.31     0          0          0          0
a87              120.10     0          0          0          0
a222             116.50     0          0          0          0
a122             116.60     0          0          0          0
a322             115.71     0          0          0          0
a88              117.90     0          0          0          0
a221             117.00     0          0          0          0
a121             117.03     0          0          0          0
a90              121.37     0          0          0          0
a220             126.00     0          0          0          0
a120             118.99     0          0          0          0
a91              120.71     0          0          0          0
a92              119.17     0          0          0          0
a93              120.30     0          0          0          0
a94              121.80     0          0          0          0
a95              119.41     0          0          0          0
a96              121.28     0          0          0          0
a97              118.06     0          0          0          0
a36001           140.00     0          0          0          0
a36002           145.00     0          0          0          0
a36040           152.00     0          0          0          0
a364             158.00     0          0          0          0
a36020           156.00     0          0          0          0
a36021           175.00     0          0          0          0
a36022           194.40     0          0          0          0
a36023           200.00     0          0          0          0
a36098           145.00     0          0          0          0
a36099           140.00     0          0          0          0
a36000           140.00     0          0          0          0
a36011           183.00     0          0          0          0
a361             160.00     0          0          0          0
a36030           150.00     0          0          0          0
a36031           163.00     0          0          0          0
a10036           147.20     0          0          0          0
a10043           132.00     0          0          0          0
a301             139.00     0          0          0          0
a37001           144.00     0          0          0          0
a37000           138.00     0          0          0          0
a37004           169.00     0          0          0          0
a370             174.00     0          0          0          0
a22222           147.00     0          0          0          0
a20003           178.50     0          0          0          0
a205             172.50     0          0          0          0
a20007           160.80     0          0          0          0
a208             153.00     0          0          0          0
a20009           152.00     0          0          0          0
a40001           170.00     0          0          0          0
a40007           186.80     0          0          0          0
a401             186.50     0          0          0          0
a206             149.00     0          0          0          0
a20017           148.00     0          0          0          0
a56000           160.50     0          0          0          0
a56002           190.00     0          0          0          0
a20028           163.00     0          0          0          0
a203             180.00     0          0          0          0
a204             185.00     0          0          0          0
a201             198.20     0          0          0          0
a38004           150.00     0          0          0          0
a38003           150.00     0          0          0          0
a38001           145.00     0          0          0          0
a38007           137.00     0          0          0          0
a38000           140.50     0          0          0          0
a38008           170.50     0          0          0          0
a38009           176.00     0          0          0          0
a10027           130.40     0          0          0          0
a35001           142.00     0          0          0          0
a35000           135.00     0          0          0          0
a350             150.00     0          0          0          0
a10024           126.00     0          0          0          0
a34000           127.00     0          0          0          0
a34002           166.00     0          0          0          0
a343             167.00     0          0          0          0
a10023           126.00     0          0          0          0
a33001           132.75     0          0          0          0
a33000           134.00     0          0          0          0
a332             175.00     0          0          0          0
a10022           126.80     0          0          0          0
a32000           132.00     0          0          0          0
a32003           133.60     0          0          0          0
a32005           135.30     0          0          0          0
a32006           135.50     0          0          0          0
a32007           140.00     0          0          0          0
a32008           159.60     0          0          0          0
a32010           135.50     0          0          0          0
a32011           132.00     0          0          0          0
a392             138.40     0          0          0          0
a32013           152.50     0          0          0          0
a32014           153.00     0          0          0          0
a32017           153.00     0          0          0          0
a32018           160.50     0          0          0          0
a32019           182.50     0          0          0          0
a32021           197.80     0          0          0          0
a39005           199.00     0          0          0          0
a39006           180.00     0          0          0          0
a39007           176.00     0          0          0          0
a39000           146.30     0          0          0          0
a398             246.00     0          0          0          0
a39003           253.00     0          0          0          0
a399             263.00     0          0          0          0
a10020           123.50     0          0          0          0
a31001           123.70     0          0          0          0
a31002           131.70     0          0          0          0
a29002           140.00     0          0          0          0
a29001           149.00     0          0          0          0
a293             183.00     0          0          0          0
a10018           128.00     0          0          0          0
a10014           117.80     0          0          0          0
a12001           119.20     0          0          0          0
a12005           181.00     0          0          0          0
a12007           129.00     0          0          0          0
a30000           125.30     0          0          0          0
a10013           116.40     0          0          0          0
a13000           116.40     0          0          0          0
a13001           116.70     0          0          0          0
a10012           116.70     0          0          0          0
a15000           121.00     0          0          0          0
a15001           117.00     0          0          0          0
a15002           123.00     0          0          0          0
a10003           115.10     0          0          0          0
a16000           130.00     0          0          0          0
a16001           115.00     0          0          0          0
a16002           117.00     0          0          0          0
a16003           121.50     0          0          0          0
a16004           124.50     0          0          0          0
a16005           125.50     0          0          0          0
9890             178.20     0          0          0          0
9880             176.20     0          0          0          0
9870             174.20     0          0          0          0
9860             172.20     0          0          0          0
9861             178.40     0          0          0          0
9862             191.80     0          0          0          0
9863             206.20     0          0          0          0
9864             209.20     0          0          0          0
9865             209.00     0          0          0          0
9866             211.70     0          0          0          0
9867             217.80     0          0          0          0
9850             170.90     0          0          0          0
9840             169.60     0          0          0          0
9830             165.00     0          0          0          0
9820             160.40     0          0          0          0
9810             157.70     0          0          0          0
9800             154.90     0          0          0          0
9705             179.00     0          0          0          0
9715             187.00     0          0          0          0
9720             188.20     0          0          0          0
9725             190.30     0          0          0          0
9735             197.60     0          0          0          0
9740             197.50     0          0          0          0
9745             197.40     0          0          0          0
9750             196.00     0          0          0          0
9755             194.60     0          0          0          0
9760             192.60     0          0          0          0
9770             188.80     0          0          0          0
9550             185.70     0          0          0          0
5501             183.00     0          0          0          0
9525             181.50     0          0          0          0
9500             180.00     0          0          0          0
9475             165.00     0          0          0          0
9450             151.00     0          0          0          0
5401             162.40     0          0          0          0
5402             162.40     0          0          0          0
c5420            186.00     0          0          0          0
9425             148.50     0          0          0          0
9400             146.20     0          0          0          0
9250             153.60     0          0          0          0
5252             166.00     0          0          0          0
9200             137.10     0          0          0          0
9000             135.20     0          0          0          0
5001             134.80     0          0          0          0
5002             134.80     0          0          0          0
4905             126.60     0          0          0          0
4912             134.00     0          0          0          0
4917             136.60     0          0          0          0
4916             136.90     0          0          0          0
4301             136.60     0          0          0          0
4300             133.60     0          0          0          0
c4200            124.40     0          0          0          0
4920             139.20     0          0          0          0
c4930            136.00     0          0          0          0
4940             140.40     0          0          0          0
4950             146.80     0          0          0          0
4960             161.00     0          0          0          0
4970             163.10     0          0          0          0
4975             165.20     0          0          0          0
4980             177.50     0          0          0          0
c4990            180.00     0          0          0          0
9100             138.50     0          0          0          0
9110             138.00     0          0          0          0
9120             137.60     0          0          0          0
9130             139.40     0          0          0          0
9140             147.80     0          0          0          0
5102             148.20     0          0          0          0
c5150            166.40     0          0          0          0
9300             136.60     0          0          0          0
9305             138.20     0          0          0          0
9310             147.40     0          0          0          0
5302             153.20     0          0          0          0
5303             150.00     0          0          0          0
5313             150.00     0          0          0          0
5351             150.00     0          0          0          0
5352             155.60     0          0          0          0
d2               140.00     0          0          0          0
d3               134.00     0          0          0          0
d41              136.00     0          0          0          0
d61              126.04     0          0          0          0
d100             135.00     0          0          0          0
d101             134.00     0          0          0          0
d102             134.00     0          0          0          0
d103             134.00     0          0          0          0
d104             134.00     0          0          0          0
d105             133.00     0          0          0          0
d106             133.00     0          0          0          0
d107             133.00     0          0          0          0
d108             133.00     0          0          0          0
d109             132.00     0          0          0          0
d110             132.00     0          0          0          0
d111             132.00     0          0          0          0
d113             129.00     0          0          0          0
d63              125.45     0          0          0          0
d43              125.00     0          0          0          0
d1               165.00     0          0          0          0
d500             164.00     0          0          0          0
d501             163.00     0          0          0          0
d502             162.00     0          0          0          0
d503             160.00     0          0          0          0
d152             152.00     0          0          0          0
d153             147.00     0          0          0          0
d154             140.00     0          0          0          0
d155             139.00     0          0          0          0
d156             139.00     0          0          0          0
d157             139.00     0          0          0          0
d158             138.00     0          0          0          0
d159             138.00     0          0          0          0
d160             138.00     0          0          0          0
d161             138.00     0          0          0          0
d162             138.00     0          0          0          0
d163             137.00     0          0          0          0
d164             137.00     0          0          0          0
d4               137.00     0          0          0          0
d165             136.00     0          0          0          0
d166             136.00     0          0          0          0
d167             136.00     0          0          0          0
d168             135.00     0          0          0          0
d115             129.00     0          0          0          0
d116             128.00     0          0          0          0
d117             128.00     0          0          0          0
d64              127.63     0          0          0          0
d44              137.00     0          0          0          0
d510             155.00     0          0          0          0
d511             151.00     0          0          0          0
d513             150.00     0          0          0          0
d514             146.00     0          0          0          0
d515             143.00     0          0          0          0
d516             138.00     0          0          0          0
d118             128.00     0          0          0          0
d119             128.00     0          0          0          0
d120             128.00     0          0          0          0
d121             127.00     0          0          0          0
d122             127.00     0          0          0          0
d45              127.00     0          0          0          0
d124             126.00     0          0          0          0
d125             126.00     0          0          0          0
d126             125.00     0          0          0          0
d127             125.00     0          0          0          0
d128             125.00     0          0          0          0
d129             125.00     0          0          0          0
d130             125.00     0          0          0          0
d131             124.00     0          0          0          0
d132             124.00     0          0          0          0
d133             123.00     0          0          0          0
d134             123.00     0          0          0          0
d135             123.00     0          0          0          0
d136             123.00     0          0          0          0
d138             140.00     0          0          0          0
d139             140.00     0          0          0          0
d67              137.38     0          0          0          0
d8               125.00     0          0          0          0
d9               147.00     0          0          0          0
d47              127.00     0          0          0          0
d4604            125.40     0          0          0          0
d4605            126.20     0          0          0          0
d4661            126.70     0          0          0          0
d7561            132.00     0          0          0          0
d7461            161.00     0          0          0          0
d7905            163.10     0          0          0          0
d7105            164.70     0          0          0          0
d7205            167.00     0          0          0          0
c555             185.70     0          0          0          0
d6               137.00     0          0          0          0
d7261            163.50     0          0          0          0
d7104            136.90     0          0          0          0
5502             183.00     0          0          0          0
045              122.00     0          0          0          0
442              115.00     0          0          0          0
443              118.00     0          0          0          0
413              122.00     0          0          0          0
a345             118.00     0          0          0          0
a318             117.24     0          0          0          0
a319             119.98     0          0          0          0
a422             115.33     0          0          0          0
a523             118.76     0          0          0          0
a425             111.97     0          0          0          0
a10030           155.00     0          0          0          0
d7505            161.30     0          0          0          0
d7204            161.00     0          0          0          0
d26050           128.30     0          0          0          0
x9510            181.83     0          0          0          0
x29              150.00     0          0          0          0
a219s            121.85     0          0          0          0
a219w            121.00     0          0          0          0
a220s            126.00     0          0          0          0
a221s            117.00     0          0          0          0
a222s            116.50     0          0          0          0
a223s            120.50     0          0          0          0
a223w            120.50     0          0          0          0
a224s            122.00     0          0          0          0
a475             119.30     0          0          0          0
a226s            123.62     0          0          0          0
a225s            116.01     0          0          0          0
d24w             136.00     0          0          0          0
x16w             154.00     0          0          0          0
x18s             153.00     0          0          0          0
x19w             156.00     0          0          0          0
a49              117.20     0          0          0          0
a12000           122.50     0          0          0          0
a129             124.50     0          0          0          0
a12001s          119.20     0          0          0          0
a13001s          116.70     0          0          0          0
x25w             169.00     0          0          0          0
x27w             158.00     0          0          0          0
a15001s          117.00     0          0          0          0
a16001s          115.00     0          0          0          0
a30001           128.00     0          0          0          0
a31001s          123.70     0          0          0          0
a1699n           114.90     0          0          0          0
a225w            116.01     0          0          0          0
a32001s          132.47     0          0          0          0
a32001n          125.18     0          0          0          0
a33001s          132.75     0          0          0          0
a34001s          142.00     0          0          0          0
a34001w          142.00     0          0          0          0
a35001s          142.00     0          0          0          0
a36010s          150.00     0          0          0          0
a36010n          150.00     0          0          0          0
a36020s          156.00     0          0          0          0
a36030s          150.00     0          0          0          0
a36040s          152.00     0          0          0          0
a37001s          144.00     0          0          0          0
a39001s          197.63     0          0          0          0
a56001s          156.00     0          0          0          0
a38035           152.00     0          0          0          0
2151s            119.80     0          0          0          0
2148s            120.00     0          0          0          0
2157s            119.00     0          0          0          0
2137s            140.00     0          0          0          0
2139s            127.70     0          0          0          0
2153s            119.80     0          0          0          0
2121s            131.00     0          0          0          0
x9057            135.16     0          0          0          0
046              115.00     0          0          0          0
4602             120.00     0          0          0          0
4501             129.00     0          0          0          0
444              119.80     0          0          0          0
446              118.00     0          0          0          0
5314             122.00     0          0          0          0
5309             136.60     0          0          0          0
5311             123.90     0          0          0          0
4101             123.00     0          0          0          0
5307             148.60     0          0          0          0
5308             148.60     0          0          0          0
5101             148.60     0          0          0          0
5435             200.00     0          0          0          0
9599             178.00     0          0          0          0
5422             181.00     0          0          0          0
5424             183.00     0          0          0          0
5430             178.00     0          0          0          0
5316             121.00     0          0          0          0
4506             140.00     0          0          0          0
4512             130.00     0          0          0          0
4510             125.00     0          0          0          0
4509             127.00     0          0          0          0
4513             140.00     0          0          0          0
2109             200.00     0          0          0          0
065              125.00     0          0          0          0
2028             181.00     0          0          0          0
d2059            159.00     0          0          0          0
d40              137.00     0          0          0          0
a2071            149.00     0          0          0          0
a212             148.00     0          0          0          0
a209             146.00     0          0          0          0
a210             145.00     0          0          0          0
d27w             127.00     0          0          0          0
HW_Link_1        0          0          0          0          0
TW_Link_1        0          0          0          0          0
21076            0          0          0          0          0
Node_1125        162.70     0          0          0          0
Node_2115375     161.88     0          0          0          0
Node_45004       111.13     0          0          0          0
Node_20152101    109.70     0          0          0          0
Node_36013       107.56     0          0          0          0
Node_1144477     107.39     0          0          0          0
Node_1027        118.40     0          0          0          0
Node_1344612     115.80     0          0          0          0
Node_75050       131.30     0          0          0          0
Node_1452910     131.20     0          0          0          0
Node_26051       108.28     0          0          0          0
Node_1468896     106.20     0          0          0          0
Node_72040       130.95     0          0          0          0
Node_1458920     106.90     0          0          0          0
Node_26041       106.20     0          0          0          0
Node_1473895     105.41     0          0          0          0
Node_87          117.37     0          0          0          0
Node_2136894     108.10     0          0          0          0
Node_11010       145.98     0          0          0          0
Node_1495288     145.83     0          0          0          0
Node_90302       147.00     0          0          0          0
Node_1583292     144.30     0          0          0          0
Node_26024       144.00     0          0          0          0
Node_1586222     143.06     0          0          0          0
Node_90502       148.00     0          0          0          0
Node_1590218     144.15     0          0          0          0
Node_90503       148.97     0          0          0          0
Node_1590294     138.38     0          0          0          0
Node_90603       144.00     0          0          0          0
Node_1594226     141.44     0          0          0          0
Node_90802       138.40     0          0          0          0
Node_1601301     131.49     0          0          0          0
Node_90902       137.00     0          0          0          0
Node_1604241     135.67     0          0          0          0
Node_91002       135.80     0          0          0          0
Node_1607244     135.21     0          0          0          0
Node_91003       136.30     0          0          0          0
Node_1607303     128.51     0          0          0          0
Node_91402       131.50     0          0          0          0
Node_1621260     130.48     0          0          0          0
Node_91502       134.00     0          0          0          0
Node_1624263     129.79     0          0          0          0
Node_91702       129.40     0          0          0          0
Node_1629270     125.57     0          0          0          0
Node_91902       124.73     0          0          0          0
Node_1634321     113.30     0          0          0          0
HW_UL45          0          0          0          0          0
Node_1583213     0          0          0          0          0
Node_219         106.30     0          0          0          0
Node_1765548     102.90     0          0          0          0
Node_14219       108.30     0          0          0          0
Node_17661217    106.50     0          0          0          0
HW_220i          113.00     0          0          0          0
HW_221i          105.24     0          0          0          0
HW_222i          106.14     0          0          0          0
HW_223i          104.97     0          0          0          0
Node_14223       106.29     0          0          0          0
Node_17831224    104.62     0          0          0          0
HW_224i          112.25     0          0          0          0
Node_360025      106.83     0          0          0          0
Node_1789488     106.79     0          0          0          0
HW_225i          108.40     0          0          0          0
Node_83          105.30     0          0          0          0
Node_1811821     103.10     0          0          0          0
HW_MUL23W        0          0          0          0          0
Node_18131811    0          0          0          0          0
Node_84          107.50     0          0          0          0
Node_1821856     104.31     0          0          0          0
Node_90402       144.33     0          0          0          0
Node_1586296     137.14     0          0          0          0
HW_MULx16w       0          0          0          0          0
Node_15941827    0          0          0          0          0
Node_90602       143.90     0          0          0          0
Node_1827299     134.23     0          0          0          0
HW_MULx17w       0          0          0          0          0
Node_15981832    0          0          0          0          0
Node_90702       143.40     0          0          0          0
Node_1832300     132.73     0          0          0          0
HW_MULx17s       0          0          0          0          0
Node_15981836    0          0          0          0          0
Node_90017       141.50     0          0          0          0
Node_1836232     139.15     0          0          0          0
HW_MULx18s       0          0          0          0          0
Node_16011839    0          0          0          0          0
Node_90018       138.00     0          0          0          0
Node_1839236     137.65     0          0          0          0
Node_90019       136.90     0          0          0          0
Node_1842302     129.22     0          0          0          0
HW_MULx19w       0          0          0          0          0
Node_16041842    0          0          0          0          0
HW_MULx24w       0          0          0          0          0
Node_16211848    0          0          0          0          0
Node_90024       127.50     0          0          0          0
Node_1848308     122.66     0          0          0          0
Node_36027       106.72     0          0          0          0
Node_1851489     106.69     0          0          0          0
Node_1202        110.50     0          0          0          0
Node_1858668     109.18     0          0          0          0
Node_12001       106.18     0          0          0          0
Node_1860667     104.81     0          0          0          0
Node_13001       104.92     0          0          0          0
Node_1863676     104.38     0          0          0          0
HW_MULx25w       0          0          0          0          0
Node_16241866    0          0          0          0          0
Node_91503       133.90     0          0          0          0
Node_1866309     121.74     0          0          0          0
HW_MULx27w       0          0          0          0          0
Node_16291869    0          0          0          0          0
Node_91703       129.30     0          0          0          0
Node_1869320     115.35     0          0          0          0
HW_a226i         117.90     0          0          0          0
Node_15001       106.14     0          0          0          0
Node_1873680     105.13     0          0          0          0
Node_16001       104.95     0          0          0          0
Node_1876685     102.43     0          0          0          0
Node_3099        115.00     0          0          0          0
Node_1881673     106.50     0          0          0          0
Node_30001       0          0          0          0          0
Node_1881666     0          0          0          0          0
Node_31001       109.70     0          0          0          0
Node_1888656     109.60     0          0          0          0
Node_1699        102.80     0          0          0          0
Node_1891686     102.76     0          0          0          0
Node_72125       109.30     0          0          0          0
Node_1894492     105.91     0          0          0          0
Node_4224        166.33     0          0          0          0
Node_2083728     164.00     0          0          0          0
Node_32001       116.98     0          0          0          0
Node_19181921    113.88     0          0          0          0
Node_1921625     112.38     0          0          0          0
Node_33001       118.70     0          0          0          0
Node_1924621     112.53     0          0          0          0
Node_34001       127.80     0          0          0          0
Node_1928616     114.60     0          0          0          0
Node_3499        128.95     0          0          0          0
Node_1931618     122.50     0          0          0          0
Node_35001       118.67     0          0          0          0
Node_1936612     117.80     0          0          0          0
Node_36010       135.15     0          0          0          0
Node_19391940    128.05     0          0          0          0
Node_3611        127.80     0          0          0          0
Node_1940556     123.10     0          0          0          0
Node_36020       144.87     0          0          0          0
Node_1944557     134.68     0          0          0          0
Node_36030       136.00     0          0          0          0
Node_1947557     134.68     0          0          0          0
Node_36040       138.45     0          0          0          0
Node_1950557     134.68     0          0          0          0
Node_37001       130.86     0          0          0          0
Node_1953575     124.10     0          0          0          0
Node_39001       182.94     0          0          0          0
Node_1962647     182.87     0          0          0          0
Node_56001       142.50     0          0          0          0
Node_1965592     132.00     0          0          0          0
HW_023           147.00     0          0          0          0
Node_1968597     145.00     0          0          0          0
Node_8030        125.30     0          0          0          0
Node_1970603     123.30     0          0          0          0
Node_20070       128.90     0          0          0          0
Node_1972585     126.90     0          0          0          0
Node_1078        103.50     0          0          0          0
Node_1974435     101.50     0          0          0          0
Node_1127        163.88     0          0          0          0
Node_1976375     161.88     0          0          0          0
Node_50          108.90     0          0          0          0
Node_1978413     105.11     0          0          0          0
Node_148         110.16     0          0          0          0
Node_1980410     105.44     0          0          0          0
Node_56          108.40     0          0          0          0
Node_1982427     104.55     0          0          0          0
Node_136         125.08     0          0          0          0
Node_1984402     115.96     0          0          0          0
Node_139         113.70     0          0          0          0
Node_1986404     108.46     0          0          0          0
Node_52          108.24     0          0          0          0
Node_1988418     106.91     0          0          0          0
Node_121         110.90     0          0          0          0
Node_1990350     108.08     0          0          0          0
Node_11053       121.51     0          0          0          0
Node_1992277     105.52     0          0          0          0
Node_4601        0          0          0          0          0
Node_10572004    0          0          0          0          0
Node_46002       107.54     0          0          0          0
Node_20042002    104.90     0          0          0          0
Node_44001       107.91     0          0          0          0
Node_10961099    107.47     0          0          0          0
Node_44002       106.47     0          0          0          0
Node_10992019    106.31     0          0          0          0
Node_42002       105.76     0          0          0          0
Node_11022019    104.51     0          0          0          0
Node_44003       104.00     0          0          0          0
Node_20192021    103.95     0          0          0          0
Node_44004       110.20     0          0          0          0
Node_20212026    110.10     0          0          0          0
Node_53514       101.00     0          0          0          0
Node_20912031    100.00     0          0          0          0
Node_53512       112.60     0          0          0          0
Node_20342035    112.50     0          0          0          0
Node_53513       112.63     0          0          0          0
Node_20322030    112.23     0          0          0          0
Node_3501        122.06     0          0          0          0
Node_2033762     121.20     0          0          0          0
Node_53508       126.90     0          0          0          0
Node_20362033    122.89     0          0          0          0
Node_53507       127.40     0          0          0          0
Node_20372038    130.00     0          0          0          0
Node_51002       134.60     0          0          0          0
Node_21382036    132.60     0          0          0          0
Node_53509       123.29     0          0          0          0
Node_20332032    113.39     0          0          0          0
Node_5307        0          0          0          0          0
Node_20362037    0          0          0          0          0
Node_54230       164.50     0          0          0          0
Node_20652056    163.62     0          0          0          0
Node_54234       153.00     0          0          0          0
Node_21092057    151.00     0          0          0          0
Node_5429        0          0          0          0          0
Node_20582088    0          0          0          0          0
Node_20582059    0          0          0          0          0
Node_4232        145.00     0          0          0          0
Node_2059710     144.40     0          0          0          0
Node_5421        0          0          0          0          0
Node_20762077    0          0          0          0          0
Node_4222        170.00     0          0          0          0
Node_2077734     144.60     0          0          0          0
Node_20762080    0          0          0          0          0
Node_5423        0          0          0          0          0
Node_20822083    0          0          0          0          0
Node_54223       172.98     0          0          0          0
Node_20802082    167.43     0          0          0          0
Node_54226       166.43     0          0          0          0
Node_20822054    164.29     0          0          0          0
54228            169.43     0          0          0          0
54229            166.79     0          0          0          0
Node_54233       157.90     0          0          0          0
Node_20882108    157.07     0          0          0          0
Node_5312        0          0          0          0          0
Node_20302091    0          0          0          0          0
Node_92006       120.00     0          0          0          0
Node_20932095    111.50     0          0          0          0
Node_92007       106.00     0          0          0          0
Node_20952097    105.00     0          0          0          0
Node_4511        0          0          0          0          0
Node_20972099    0          0          0          0          0
Node_92008       112.00     0          0          0          0
Node_20992101    109.70     0          0          0          0
Node_92009       124.98     0          0          0          0
Node_21032093    120.00     0          0          0          0
Node_45005       109.70     0          0          0          0
Node_21011093    107.00     0          0          0          0
Node_5431        0          0          0          0          0
Node_20562109    0          0          0          0          0
Node_2111        0          0          0          0          0
Node_21082109    0          0          0          0          0
Node_2112        150.10     0          0          0          0
Node_21082056    150.00     0          0          0          0
Node_7059        129.07     0          0          0          0
Node_21172119    107.51     0          0          0          0
Node_2060        130.72     0          0          0          0
Node_21212123    130.40     0          0          0          0
Node_2062        130.40     0          0          0          0
Node_21232125    127.20     0          0          0          0
Node_2064        127.20     0          0          0          0
Node_21252127    123.75     0          0          0          0
Node_2066        123.75     0          0          0          0
Node_21272130    123.68     0          0          0          0
Node_2067        123.68     0          0          0          0
Node_2130603     123.30     0          0          0          0
Node_2068        132.00     0          0          0          0
Node_2130607     127.60     0          0          0          0

[OUTFALLS]
;;Name           Elev       Type       Stage      Gated
;;-------------- ---------- ---------- ---------- -----
x9553            136.00     FREE                  NO

[STORAGE]
;;Name           Elev       MaxDepth   InitDepth  Shape      Curve/Params
;;-------------- ---------- ---------- ---------- ---------- ----------
x9014            195.93     10.00      0          FUNCTIONAL 250.00 0          0
x903             165.00     10.00      0          FUNCTIONAL 250.00 0          0
x905             161.00     10.00      0          FUNCTIONAL 250.00 0          0
x904             165.00     10.00      0          FUNCTIONAL 1000.00 0          0
x906             156.00     10.00      0          FUNCTIONAL 250.00 0          0
x9025            157.38     10.00      0          FUNCTIONAL 250.00 0          0
x907             194.00     10.00      0          FUNCTIONAL 1000.00 0          0
x908             155.00     10.00      0          FUNCTIONAL 250.00 0          0
x909             197.00     10.00      0          FUNCTIONAL 2000.00 0          0
x910             152.00     10.00      0          FUNCTIONAL 250.00 0          0
x9035            144.89     10.00      0          FUNCTIONAL 250.00 0          0
x9036            146.11     10.00      0          FUNCTIONAL 1000.00 0          0
x911             163.00     10.00      0          FUNCTIONAL 250.00 0          0
x912             201.00     10.00      0          FUNCTIONAL 1000.00 0          0
x2100            161.00     10.00      0          FUNCTIONAL 250.00 0          0
x9042            147.98     10.00      0          FUNCTIONAL 250.00 0          0
x914             190.00     10.00      0          FUNCTIONAL 1000.00 0          0
x919             140.00     10.00      0          FUNCTIONAL 250.00 0          0
x9056            135.16     10.00      0          FUNCTIONAL 1000.00 0          0
x901             169.00     10.00      0          FUNCTIONAL 250.00 0          0
x9526            149.42     10.00      0          FUNCTIONAL 250.00 0          0
x9528            144.89     10.00      0          FUNCTIONAL 250.00 0          0
x9531            157.28     10.00      0          FUNCTIONAL 250.00 0          0
x913             198.00     10.00      0          FUNCTIONAL 1000.00 0          0
x916             150.00     10.00      0          FUNCTIONAL 250.00 0          0
x917             158.00     10.00      0          FUNCTIONAL 1000.00 0          0
x918             147.00     10.00      0          FUNCTIONAL 350.00 0          0
x9548            136.20     10.00      0          FUNCTIONAL 1000.00 0          0
x920             160.00     10.00      0          FUNCTIONAL 1000.00 0          0
2100             181.30     10.00      0          FUNCTIONAL 250.00 0          0
2103             135.70     10.00      0          FUNCTIONAL 250.00 0          0
2107             151.00     10.00      0          FUNCTIONAL 250.00 0          0
2119             131.00     10.00      0          FUNCTIONAL 250.00 0          0
2123             126.50     10.00      0          FUNCTIONAL 250.00 0          0
2126             119.88     10.00      0          FUNCTIONAL 250.00 0          0
2000             190.00     10.00      0          FUNCTIONAL 250.00 0          0
2010             187.00     10.00      0          FUNCTIONAL 250.00 0          0
2025             181.00     10.00      0          FUNCTIONAL 250.00 0          0
2040             175.00     10.00      0          FUNCTIONAL 250.00 0          0
2050             175.00     10.00      0          FUNCTIONAL 250.00 0          0
451              129.70     10.00      0          FUNCTIONAL 1000.00 0          0
2141             127.70     10.00      0          FUNCTIONAL 250.00 0          0
2130             143.00     10.00      0          FUNCTIONAL 250.00 0          0
2132             144.00     10.00      0          FUNCTIONAL 250.00 0          0
2136             140.00     10.00      0          FUNCTIONAL 250.00 0          0
2148             120.29     10.00      0          FUNCTIONAL 250.00 0          0
2151             119.80     10.00      0          FUNCTIONAL 250.00 0          0
2153             119.80     10.00      0          FUNCTIONAL 250.00 0          0
2157             119.10     10.00      0          FUNCTIONAL 250.00 0          0
410              129.30     10.00      0          FUNCTIONAL 250.00 0          0
412              119.10     10.00      0          FUNCTIONAL 250.00 0          0
2162             116.55     10.00      0          FUNCTIONAL 250.00 0          0
2163             120.00     10.00      0          FUNCTIONAL 250.00 0          0
2178             113.60     10.00      0          FUNCTIONAL 250.00 0          0
a126             147.55     10.00      0          FUNCTIONAL 250.00 0          0
a225             116.01     10.00      0          FUNCTIONAL 250.00 0          0
a125             121.32     10.00      0          FUNCTIONAL 250.00 0          0
a223             120.50     10.00      0          FUNCTIONAL 250.00 0          0
a219             121.85     10.00      0          FUNCTIONAL 250.00 0          0
a119             122.50     10.00      0          FUNCTIONAL 250.00 0          0
a10000           116.58     10.00      10.00      FUNCTIONAL 1000.00 0          0
a10001           118.00     10.00      10.00      FUNCTIONAL 1000.00 0          0
a10002           116.30     10.00      0          FUNCTIONAL 250.00 0          0
a362             209.00     10.00      0          FUNCTIONAL 250.00 0          0
a36010           150.00     10.00      0          FUNCTIONAL 250.00 0          0
a363             170.00     10.00      0          FUNCTIONAL 250.00 0          0
a56001           156.00     10.00      0          FUNCTIONAL 250.00 0          0
a563             194.60     10.00      0          FUNCTIONAL 250.00 0          0
a380             183.00     10.00      0          FUNCTIONAL 250.00 0          0
a34001           142.00     10.00      0          FUNCTIONAL 250.00 0          0
a32001           132.47     10.00      0          FUNCTIONAL 250.00 0          0
a394             137.00     10.00      0          FUNCTIONAL 250.00 0          0
a329             186.20     10.00      0          FUNCTIONAL 250.00 0          0
a395             158.00     10.00      0          FUNCTIONAL 1000.00 0          0
a396             149.00     10.00      0          FUNCTIONAL 250.00 0          0
a397             195.00     10.00      0          FUNCTIONAL 250.00 0          0
a39001           197.63     10.00      0          FUNCTIONAL 250.00 0          0
a313             164.00     10.00      0          FUNCTIONAL 250.00 0          0
a302             140.00     10.00      0          FUNCTIONAL 250.00 0          0
a130             160.00     10.00      0          FUNCTIONAL 250.00 0          0
a153             126.00     10.00      0          FUNCTIONAL 250.00 0          0
a160             130.00     10.00      0          FUNCTIONAL 250.00 0          0
9600             152.90     2.00       0          FUNCTIONAL 500.00 0          0
c9700            164.40     10.00      0          FUNCTIONAL 1000.00 0          0
c9710            181.60     10.00      0          FUNCTIONAL 1000.00 0          0
c9730            192.40     10.00      0          FUNCTIONAL 1000.00 0          0
c9765            186.00     10.00      0          FUNCTIONAL 1000.00 0          0
5500             183.00     10.00      0          FUNCTIONAL 500.00 0          0
5400             162.40     10.00      0          FUNCTIONAL 250.00 0          0
5250             174.40     10.00      0          FUNCTIONAL 250.00 0          0
c5255            180.00     10.00      0          FUNCTIONAL 1000.00 0          0
5000             134.80     10.00      0          FUNCTIONAL 250.00 0          0
c5005            159.40     10.00      0          FUNCTIONAL 250.00 0          0
4910             129.40     10.00      0          FUNCTIONAL 250.00 0          0
4900             123.30     10.00      0          FUNCTIONAL 250.00 0          0
4915             136.60     10.00      0          FUNCTIONAL 250.00 0          0
4251             129.70     10.00      0          FUNCTIONAL 250.00 0          0
4102             123.60     10.00      0          FUNCTIONAL 250.00 0          0
4250             129.70     10.00      0          FUNCTIONAL 250.00 0          0
4100             123.90     10.00      0          FUNCTIONAL 500.00 0          0
c9105            136.00     10.00      0          FUNCTIONAL 250.00 0          0
5100             148.20     10.00      0          FUNCTIONAL 250.00 0          0
5300             153.20     10.00      0          FUNCTIONAL 250.00 0          0
c5305            156.00     10.00      0          FUNCTIONAL 1000.00 0          0
5350             155.60     10.00      0          FUNCTIONAL 250.00 0          0
c5355            154.20     10.00      0          FUNCTIONAL 250.00 0          0
d21              136.00     10.00      0          FUNCTIONAL 250.00 0          0
d112             129.00     10.00      0          FUNCTIONAL 250.00 0          0
d114             129.00     10.00      0          FUNCTIONAL 500.00 0          0
d23              135.00     10.00      0          FUNCTIONAL 250.00 0          0
d150             159.00     10.00      0          FUNCTIONAL 250.00 0          0
d5               165.00     10.00      0          FUNCTIONAL 250.00 0          0
d24              136.00     10.00      0          FUNCTIONAL 250.00 0          0
d123             126.00     10.00      0          FUNCTIONAL 250.00 0          0
d65              127.18     10.00      0          FUNCTIONAL 250.00 0          0
d25              137.00     10.00      0          FUNCTIONAL 250.00 0          0
d137             122.00     10.00      0          FUNCTIONAL 4000.00 0          0
d27              147.00     10.00      0          FUNCTIONAL 250.00 0          0
d6605            126.45     10.00      0          FUNCTIONAL 250.00 0          0
d2604            129.00     10.00      0          FUNCTIONAL 1000.00 0          0
d2605            128.30     10.00      0          FUNCTIONAL 250.00 0          0
d7361            161.60     10.00      0          FUNCTIONAL 250.00 0          0
d7805            161.20     10.00      0          FUNCTIONAL 250.00 0          0
d7405            161.50     10.00      0          FUNCTIONAL 250.00 0          0
d7705            163.60     10.00      0          FUNCTIONAL 250.00 0          0
x915             150.00     10.00      0          FUNCTIONAL 1000.00 0          0
4601             120.00     10.00      0          FUNCTIONAL 36000.00 0          0
d26040           129.00     10.00      0          FUNCTIONAL 1000.00 0          0
x13              162.00     10.00      0          FUNCTIONAL 250.00 0          0
x14              162.00     10.00      0          FUNCTIONAL 500.00 0          0
x15              160.00     10.00      0          FUNCTIONAL 250.00 0          0
x16              154.00     10.00      0          FUNCTIONAL 250.00 0          0
x17              152.00     10.00      0          FUNCTIONAL 250.00 0          0
x18              153.00     10.00      0          FUNCTIONAL 250.00 0          0
x19              156.00     10.00      0          FUNCTIONAL 250.00 0          0
x20              152.00     10.00      0          FUNCTIONAL 250.00 0          0
x24              160.00     10.00      0          FUNCTIONAL 250.00 0          0
x25              149.00     10.00      0          FUNCTIONAL 250.00 0          0
x27              158.00     10.00      0          FUNCTIONAL 250.00 0          0
d23we            135.00     10.00      0          FUNCTIONAL 250.00 0          0
d23w             135.00     10.00      0          FUNCTIONAL 250.00 0          0
x17w             172.00     10.00      0          FUNCTIONAL 250.00 0          0
x17s             172.00     10.00      0          FUNCTIONAL 250.00 0          0
x24w             160.00     10.00      0          FUNCTIONAL 250.00 0          0
a20023           180.00     10.00      0          FUNCTIONAL 1000.00 0          0
a207             164.00     10.00      0          FUNCTIONAL 1000.00 0          0
2165             121.00     10.00      0          FUNCTIONAL 1000.00 0          0
2027             181.00     10.00      0          FUNCTIONAL 1000.00 0          0
445              118.00     10.00      0          FUNCTIONAL 13500.00 0          0
5312             128.00     10.00      0          FUNCTIONAL 70400.00 0          0
5310             123.90     10.00      0          FUNCTIONAL 250.00 0          0
5425             184.00     10.00      0          FUNCTIONAL 500.00 0          0
5431             200.00     10.00      0          FUNCTIONAL 37000.00 0          0
5429             178.00     10.00      0          FUNCTIONAL 250.00 0          0
5427             179.00     10.00      0          FUNCTIONAL 250.00 0          0
5421             181.00     10.00      0          FUNCTIONAL 250.00 0          0
5432             180.00     10.00      0          FUNCTIONAL 250.00 0          0
5423             184.00     10.00      0          FUNCTIONAL 500.00 0          0
4511             125.00     10.00      0          FUNCTIONAL 26000.00 0          0
c2108            200.00     10.00      0          FUNCTIONAL 15275.00 0          0
a211             144.00     10.00      0          FUNCTIONAL 250.00 0          0
5100w            148.20     10.00      0          FUNCTIONAL 250.00 0          0

[CONDUITS]
;;Name           From             To               Length     Roughness  InOffset   OutOffset  InitFlow   MaxFlow
;;-------------- ---------------- ---------------- ---------- ---------- ---------- ---------- ---------- ----------
Link_1           HW_Link_1        TW_Link_1        500.00     0.0140     0          0          0          0
53500            c5355            5350             439.00     0.0200     150.00     141.50     0          0
83300            5352             9310             415.00     0.0120     138.30     134.60     0          0
53005            c5305            5300             400.00     0.0120     149.20     140.70     0          0
53502            5351             5303             350.00     0.0200     137.00     134.50     0          0
53504            5303             5313             1100.00    0.0140     134.50     129.44     0          0
83200            5302             9310             58.00      0.0080     138.70     134.60     0          0
83100            9310             9305             990.00     0.0200     134.00     125.60     0          0
83050            9305             9300             600.00     0.0200     125.60     125.00     0          0
83000            9300             9110             400.00     0.0090     125.00     124.92     0          0
51000            c5150            5100             550.00     0.0150     152.90     134.70     0          0
81500            5102             9140             50.00      0.0110     132.70     131.60     0          0
81510            9140             9130             428.00     0.0200     131.60     127.55     0          0
81520            9130             9120             400.00     0.0170     127.30     125.90     0          0
81530            9120             9110             400.00     0.0200     124.80     124.60     0          0
81100            9110             9100             515.00     0.0200     124.60     124.00     0          0
81050            c9105            9100             410.00     0.0150     126.20     124.00     0          0
81000            9100             4920             400.00     0.0200     124.00     123.76     0          0
49900            c4990            4980             400.00     0.0250     150.40     146.93     0          0
49800            4980             4975             531.00     0.0250     146.60     146.10     0          0
49700            4975             4970             501.00     0.0250     146.10     145.60     0          0
49600            4970             4960             471.00     0.0250     145.60     140.30     0          0
49500            4960             4950             400.00     0.0190     140.30     131.10     0          0
49400            4950             4940             520.00     0.0250     131.10     126.20     0          0
49300            4940             c4930            525.00     0.0250     126.20     124.63     0          0
49200            c4930            4920             738.00     0.0250     124.30     122.50     0          0
88000            9800             9600             540.00     0.0150     145.80     144.40     0          0
86000            9600             9550             517.00     0.0170     144.40     143.50     0          0
55000            c555             5500             400.00     0.0180     172.00     168.80     0          0
85550            5502             9550             180.00     0.0140     166.80     143.50     0          0
85500            9550             9525             600.00     0.0170     143.50     142.30     0          0
85250            9525             9500             610.00     0.0170     142.30     141.30     0          0
85000            9500             9475             550.00     0.0170     141.30     139.10     0          0
84750            9475             9450             555.00     0.0170     139.10     136.30     0          0
54221            c5420            5421             600.00     0.0140     176.59     172.99     0          0
84550            5402             9450             60.00      0.0150     142.60     138.30     0          0
84500            9450             9425             600.00     0.0150     136.30     132.10     0          0
84250            9425             9400             687.00     0.0150     132.10     127.20     0          0
84000            9400             9250             820.00     0.0100     127.20     125.70     0          0
52500            c5255            5250             550.00     0.0130     168.50     162.50     0          0
52502            5250             5252             400.00     0.0120     163.90     158.00     0          0
82500            5250             9250             340.00     0.0130     162.50     125.70     0          0
82000            9250             9200             654.00     0.0160     125.70     122.40     0          0
80500            9200             9000             650.00     0.0160     122.40     118.20     0          0
50050            c5005            5000             400.00     0.0130     147.30     123.20     0          0
50052            5001             5002             400.00     0.0200     124.20     120.00     0          0
50000            5000             9000             400.00     0.0120     123.20     120.70     0          0
80000            9000             4910             621.00     0.0160     118.20     115.50     0          0
49160            4920             4916             400.00     0.0140     122.50     122.20     0          0
49430            4916             4915             400.00     0.0170     122.20     122.00     0          0
49120            4917             4912             400.00     0.0190     116.80     116.30     0          0
49100            4912             4910             540.00     0.0170     116.30     115.50     0          0
49050            4910             4905             500.00     0.0130     115.50     112.30     0          0
49000            4905             4900             410.00     0.0120     112.30     109.60     0          0
42500            4251             4910             400.00     0.0060     117.00     115.50     0          0
53511            4301             5309             200.00     0.0140     122.00     121.99     0          0
42000            4300             4250             515.00     0.0120     121.20     118.10     0          0
41500            4250             c4200            465.00     0.0120     118.10     114.10     0          0
41000            c4200            4100             240.00     0.0120     114.10     112.70     0          0
40010            4102             4900             15.00      0.0060     110.40     109.60     0          0
10000            4900             2106             250.00     0.0110     109.60     107.48     0          0
88100            9810             9800             598.00     0.0150     147.20     145.80     0          0
88200            9820             9810             598.00     0.0150     148.60     147.20     0          0
88300            9830             9820             616.00     0.0150     150.50     148.60     0          0
88400            9840             9830             615.00     0.0150     152.30     150.50     0          0
88500            9850             9840             659.00     0.0150     154.30     152.30     0          0
88600            9860             9850             659.00     0.0150     156.30     154.30     0          0
88610            9861             9860             400.00     0.0130     165.30     157.30     0          0
88620            9862             9861             447.00     0.0200     179.00     165.30     0          0
88630            9863             9862             400.00     0.0140     190.60     179.00     0          0
8640             9864             9863             400.00     0.0110     192.00     190.60     0          0
8650             9865             9864             798.00     0.0200     194.00     192.00     0          0
8660             9866             9865             460.00     0.0200     197.00     194.00     0          0
8670             9867             9866             632.00     0.0200     201.10     197.10     0          0
8700             9870             9860             534.00     0.0150     158.50     156.30     0          0
8800             9880             9870             534.00     0.0150     160.70     158.50     0          0
8900             9890             9880             535.00     0.0150     162.90     160.70     0          0
7050             9705             c9700            400.00     0.0150     162.90     146.80     0          0
1006             2106             2105             774.10     0.0140     107.48     107.09     0          0
1007             2105             2113             148.80     0.0140     107.09     107.02     0          0
1015             2113             2114             154.20     0.0140     107.02     106.61     0          0
1016             2114             2115             149.40     0.0140     106.61     106.54     0          0
1017             2115             2116             151.00     0.0140     106.54     106.46     0          0
1018             2116             2117             146.90     0.0140     106.46     106.39     0          0
1019             2117             2118             159.50     0.0140     106.39     106.14     0          0
1020             2118             2120             128.80     0.0140     106.14     106.08     0          0
1023             2120             2121             140.00     0.0140     106.08     106.01     0          0
1024             2121             2122             416.70     0.0140     106.01     105.81     0          0
1027             2122             2124             388.90     0.0140     105.81     105.61     0          0
1028             2124             2125             244.00     0.0140     105.61     105.41     0          0
1031             2125             2127             381.50     0.0140     105.41     105.22     0          0
1032             2127             2128             639.60     0.0140     105.22     104.90     0          0
1033             2128             2139             115.34     0.0140     104.90     104.46     0          0
1047             2139             2142             335.60     0.0140     104.46     104.23     0          0
1050             2142             2143             269.70     0.0140     104.23     104.10     0          0
1051             2143             2144             159.32     0.0140     104.10     104.02     0          0
1052             2144             2145             611.30     0.0140     104.02     103.71     0          0
1053             2145             2146             325.45     0.0140     103.71     103.55     0          0
1054             2146             2147             284.30     0.0140     103.55     103.44     0          0
1057             2147             2149             152.50     0.0140     103.44     103.33     0          0
1058             2149             2150             435.04     0.0140     103.33     103.11     0          0
1061             2150             2152             410.00     0.0140     103.11     102.91     0          0
1064             2152             2154             111.50     0.0140     102.91     102.85     0          0
1065             2154             2156             594.47     0.0140     102.85     102.55     0          0
1069             2156             2162             151.06     0.0140     102.55     102.27     0          0
21075            21076            2163             120.00     0.0140     0          0.30       0          0
1079             2163             2167             200.00     0.0140     101.50     101.30     0          0
1081             2167             2168             400.00     0.0140     101.30     101.00     0          0
1082             2168             2169             400.00     0.0140     101.00     100.60     0          0
1085             2169             2172             669.00     0.0140     100.60     100.14     0          0
1088             2172             2175             634.00     0.0140     100.14     99.83      0          0
1090             2175             2178             329.00     0.0140     99.83      99.70      0          0
1000             480              2100             200.00     0.0130     178.50     170.80     0          0
1002             2100             2102             452.00     0.0120     170.80     139.70     0          0
1003             2102             2103             228.70     0.0120     139.70     124.95     0          0
1004             2103             2104             389.70     0.0120     124.95     113.00     0          0
1005             2104             2105             200.00     0.0120     113.00     107.09     0          0
1008             650              2107             200.50     0.0140     152.80     136.11     0          0
1012             2110             2113             355.00     0.0140     119.34     107.02     0          0
1021             461              2119             200.00     0.0140     112.20     111.00     0          0
6101             4611             4600             270.00     0.0140     111.00     108.14     0          0
46001            4600             4601             900.00     0.0140     108.14     100.04     0          0
1025             462              2123             200.00     0.0140     114.10     112.52     0          0
6201             4621             4600             316.70     0.0140     110.10     108.14     0          0
1029             580              2126             200.00     0.0140     112.93     112.16     0          0
8001             2126             5801             410.00     0.0140     112.16     110.11     0          0
1100             2000             2005             308.00     0.0140     172.15     170.56     0          0
1105             2005             2010             462.00     0.0140     170.56     167.87     0          0
1110             2011             2015             353.00     0.0140     167.77     165.91     0          0
1115             2015             2020             464.00     0.0140     165.91     164.44     0          0
1120             2020             2025             455.00     0.0140     164.44     162.80     0          0
1125             Node_1125        Node_2115375     275.00     0.0140     162.70     161.88     0          0
1130             2030             2035             275.00     0.0140     161.88     160.96     0          0
1135             2035             2040             505.00     0.0140     160.96     158.25     0          0
1140             2041             2045             393.00     0.0140     158.15     156.58     0          0
1145             2045             2050             633.00     0.0140     156.58     152.54     0          0
1150             2051             2055             420.00     0.0140     152.44     149.11     0          0
1155             2055             2060             465.00     0.0140     149.11     148.18     0          0
1160             2060             454              470.00     0.0140     149.11     127.00     0          0
1034             454              2130             200.00     0.0140     127.00     126.36     0          0
1037             453              2132             200.00     0.0140     127.00     125.08     0          0
2004             4507             4503             240.00     0.0140     125.08     118.00     0          0
1041             452              2136             200.00     0.0140     128.00     125.08     0          0
1035             2130             2131             140.00     0.0140     126.36     120.46     0          0
1042             2131             2137             204.98     0.0140     120.46     115.96     0          0
1043             2137             2138             362.90     0.0140     115.96     110.70     0          0
1044             2138             2139             519.00     0.0140     110.70     104.46     0          0
1048             451              2141             240.24     0.0140     114.80     113.80     0          0
92005            4505             4512             100.00     0.0140     113.80     106.00     0          0
5001             4504             4503             200.00     0.0065     125.13     118.00     0          0
5002             4503             4502             347.00     0.0140     118.00     115.00     0          0
45004            Node_45004       Node_20152101    200.00     0.0140     111.13     109.70     0          0
1055             440              2148             315.19     0.0140     112.65     110.26     0          0
21056            441              442              40.00      0.0140     110.26     108.07     0          0
1059             430              2151             200.00     0.0140     111.00     109.00     0          0
43001            431              443              30.00      0.0140     109.00     107.96     0          0
1062             420              2153             200.00     0.0140     114.21     108.34     0          0
42001            4201             413              30.00      0.0140     108.94     105.76     0          0
1067             410              2157             200.00     0.0140     109.00     108.50     0          0
41001            412              413              730.00     0.0140     108.40     106.76     0          0
1070             400              2158             200.00     0.0140     116.90     116.10     0          0
1071             2158             2162             417.00     0.0140     116.10     106.04     0          0
7100             c9710            9705             545.00     0.0150     165.60     162.90     0          0
7150             9715             c9710            755.00     0.0150     166.40     165.60     0          0
7200             9720             9715             400.00     0.0150     166.70     166.40     0          0
7250             9725             9720             492.00     0.0150     167.20     166.70     0          0
7300             c9730            9725             493.00     0.0150     167.70     167.20     0          0
7350             9735             c9730            525.00     0.0150     168.20     167.70     0          0
7400             9740             9735             588.00     0.0150     168.90     168.20     0          0
7450             9745             9740             640.00     0.0150     169.60     168.90     0          0
7500             9750             9745             508.00     0.0150     170.10     169.60     0          0
7550             9755             9750             509.00     0.0150     170.60     170.10     0          0
7600             9760             9755             595.00     0.0150     171.20     170.60     0          0
7650             c9765            9760             425.00     0.0150     171.70     171.20     0          0
7700             9770             c9765            420.00     0.0150     173.80     172.40     0          0
48002            a7               a9               155.60     0.0150     157.93     157.41     0          0
48003            a9               a11              402.20     0.0150     157.41     156.08     0          0
48004            a11              a13              414.90     0.0150     156.08     154.70     0          0
48005            a13              a15              110.00     0.0150     154.70     144.40     0          0
48006            a15              a17              212.00     0.0150     142.45     123.78     0          0
101102           a101             a102             163.00     0.0150     165.68     165.04     0          0
102103           a102             a103             162.50     0.0150     165.04     164.67     0          0
15003            a103             a104             138.80     0.0150     164.67     164.21     0          0
15004            a104             a106             164.00     0.0150     164.21     163.66     0          0
15006            a106             a108             222.60     0.0150     163.66     162.80     0          0
15007            a108             a110             191.10     0.0150     162.80     162.17     0          0
15009            a110             a111             211.20     0.0150     162.17     161.45     0          0
15010            a111             a112             255.00     0.0150     161.45     160.61     0          0
15011            a112             a113             159.90     0.0150     160.61     160.08     0          0
15012            a113             a114             110.50     0.0150     160.08     159.72     0          0
15013            a114             a115             191.00     0.0150     159.72     159.09     0          0
15216            a115             a19              179.00     0.0150     159.09     155.93     0          0
15217            a19              a20              222.00     0.0150     155.93     155.20     0          0
15218            a20              a21              380.00     0.0150     155.20     153.74     0          0
15219            a21              a22              300.00     0.0150     153.74     152.72     0          0
15220            a22              a23              262.00     0.0150     152.72     138.97     0          0
15221            a23              a24              400.00     0.0150     138.97     135.77     0          0
a15222           a24              a345             348.00     0.0150     135.77     107.56     0          0
36013            Node_36013       Node_1144477     158.00     0.0150     107.56     107.39     0          0
36015            a36              a40              150.30     0.0150     107.39     107.34     0          0
36018            a40              a41              160.30     0.0150     107.34     107.30     0          0
36019            a41              a42              150.30     0.0150     107.30     107.23     0          0
4243             a42              a43              160.30     0.0150     107.23     107.15     0          0
4344             a43              a44              139.70     0.0150     107.15     107.07     0          0
4445             a44              a45              143.80     0.0150     107.07     107.00     0          0
4546             a45              a46              130.70     0.0150     107.00     106.94     0          0
36024            a46              a47              140.40     0.0150     106.94     106.87     0          0
40002            a51              a52              199.65     0.0160     106.28     106.18     0          0
40003            a52              a53              198.14     0.0160     106.18     106.08     0          0
40004            a53              a54              151.00     0.0160     106.08     106.00     0          0
40005            a54              a55              151.60     0.0160     106.00     105.93     0          0
40006            a55              a56              149.46     0.0160     105.93     105.85     0          0
5657             a56              a57              150.50     0.0160     105.85     105.78     0          0
40008            a57              a58              111.82     0.0160     105.78     105.73     0          0
40009            a58              a59              120.07     0.0160     105.73     105.67     0          0
40010_2          a59              a60              227.52     0.0160     105.67     105.55     0          0
40011            a60              a61              180.36     0.0160     105.55     105.46     0          0
40012            a61              a62              134.61     0.0160     105.46     105.39     0          0
40013            a62              a63              132.36     0.0160     105.39     105.33     0          0
40014            a63              a64              136.50     0.0160     105.33     105.26     0          0
40015            a64              a65              132.20     0.0160     105.26     105.19     0          0
40016            a65              a66              129.96     0.0160     105.19     105.14     0          0
40017            a66              a67              280.34     0.0160     105.14     104.99     0          0
40018            a67              a68              145.27     0.0160     104.99     104.92     0          0
40019            a68              a69              399.19     0.0160     104.92     104.72     0          0
40020            a69              a70              168.24     0.0160     104.72     104.64     0          0
42001_2          a70              a71              212.08     0.0170     104.64     104.54     0          0
42002            a71              a72              833.26     0.0150     104.54     104.12     0          0
42003            a72              a73              276.81     0.0150     104.12     103.98     0          0
42004            a73              a74              181.71     0.0150     103.98     103.83     0          0
42005            a74              a75              149.60     0.0150     103.83     103.70     0          0
42006            a75              a76              553.49     0.0150     103.70     103.42     0          0
42007            a76              a77              409.22     0.0170     103.42     103.22     0          0
42008            a77              a80              305.90     0.0170     103.22     102.86     0          0
46001_2          a80              a81              229.38     0.0170     103.86     102.74     0          0
46002            a81              a82              251.35     0.0170     102.74     102.62     0          0
46003            a82              a83              240.55     0.0170     102.62     102.50     0          0
46004            a83              a84              261.06     0.0170     102.50     102.38     0          0
46005            a84              a85              270.12     0.0170     102.38     102.24     0          0
46006            a85              a86              198.25     0.0170     102.24     102.14     0          0
46007            a86              a87              182.83     0.0170     102.14     102.05     0          0
50001            a87              a88              211.46     0.0170     102.05     102.43     0          0
50003            a88              a90              413.70     0.0170     101.93     101.72     0          0
50004            a90              a91              275.76     0.0170     101.72     101.59     0          0
50005            a91              a92              276.41     0.0170     101.59     101.45     0          0
50006            a92              a93              308.19     0.0170     101.45     101.30     0          0
50007            a93              a94              315.90     0.0170     101.30     101.15     0          0
50008            a94              a95              433.97     0.0170     101.15     100.90     0          0
50009            a95              a96              455.62     0.0170     100.90     100.70     0          0
50010            a96              a97              376.00     0.0170     100.70     100.53     0          0
50011            a97              a10000           270.00     0.0170     100.53     99.74      0          0
1003_2           a10000           a10001           780.00     0.0230     74.48      74.10      0          0
1004_2           a10001           a10002           966.00     0.0150     98.08      96.50      0          0
4819             a119             a219             250.00     0.0160     109.03     108.40     0          0
3620             a120             a220             250.00     0.0160     115.58     114.59     0          0
2221             a121             a221             250.00     0.0150     106.77     106.74     0          0
4522             a122             a222             250.00     0.0150     106.89     106.79     0          0
6623             a323             a223             416.10     0.0160     107.20     106.39     0          0
1224             a124             a224             250.00     0.0140     119.22     113.75     0          0
7225             a125             a225             250.00     0.0160     113.68     109.40     0          0
1226             a126             a226             270.47     0.0140     139.47     119.31     0          0
48001            a2               a7               572.40     0.0150     159.82     157.93     0          0
a14218           a97              a318             103.93     0.0140     106.86     106.60     0          0
14122            a222             a322             395.00     0.0150     106.79     106.00     0          0
a14222           a322             a422             95.50      0.0020     106.67     105.62     0          0
a72225           a325             a425             115.20     0.0020     105.91     104.33     0          0
48007            a17              a18              266.00     0.0150     123.78     99.76      0          0
3601             a36001           a10036           310.00     0.0150     123.10     122.30     0          0
3602             a36002           a36001           214.00     0.0150     132.60     123.10     0          0
3612             a36011           a36010           990.00     0.0150     142.20     136.82     0          0
3613             a361             a36011           718.00     0.0150     146.20     142.20     0          0
3622             a36021           a36020           357.00     0.0150     164.80     145.62     0          0
3623             a36022           a36021           242.00     0.0150     181.30     165.00     0          0
3624             a36023           a36022           700.00     0.0150     186.90     181.30     0          0
3625             a362             a36023           490.00     0.0150     196.40     187.40     0          0
3632             a36031           a36030           267.00     0.0150     146.30     137.73     0          0
3633             a363             a36031           269.00     0.0150     158.30     146.50     0          0
3642             a364             a36040           525.00     0.0150     148.90     141.00     0          0
3694             a36040           a36098           275.00     0.0150     140.95     135.50     0          0
3695             a36010           a36099           100.00     0.0150     137.65     130.80     0          0
3696             a36030           a36098           175.00     0.0150     139.43     136.50     0          0
3697             a36020           a36098           128.00     0.0150     145.62     142.00     0          0
3698             a36098           a36099           210.00     0.0150     135.50     129.32     0          0
3699             a36099           a36000           361.00     0.0150     129.32     127.00     0          0
3705             a370             a37004           232.00     0.0150     159.60     154.89     0          0
3799             a37001           a37000           845.00     0.0130     133.57     130.00     0          0
1033_2           a10036           a22222           1639.00    0.0150     122.30     119.60     0          0
1036             a10043           a10036           1509.00    0.0150     124.10     122.30     0          0
1043_2           a301             a10043           1249.00    0.0150     125.60     124.10     0          0
5602             a56002           a56001           339.00     0.0120     175.50     145.91     0          0
5603             a563             a56002           1305.00    0.0120     184.50     175.50     0          0
5699             a56001           a56000           100.00     0.0120     145.91     145.50     0          0
2001             a20003           a22222           925.00     0.0150     121.90     119.60     0          0
2003             a205             a20003           1780.00    0.0150     126.40     121.90     0          0
2005             a20007           a205             411.00     0.0150     126.90     126.40     0          0
2007             a208             a20007           798.00     0.0150     128.20     126.90     0          0
2008             a20009           a208             129.00     0.0150     128.50     128.20     0          0
2009             a40001           a20009           549.00     0.0150     129.40     128.50     0          0
2000             a206             a40001           681.00     0.0150     131.00     129.40     0          0
2016             a20017           a206             154.00     0.0150     132.00     131.00     0          0
2017             a20028           a20017           1640.00    0.0150     145.00     132.00     0          0
2028             a203             a20028           441.00     0.0150     167.50     145.00     0          0
2031             a204             a203             396.00     0.0150     172.30     167.50     0          0
2034             a201             a204             937.00     0.0150     177.80     172.30     0          0
4001             a40007           a40001           610.00     0.0150     160.70     159.40     0          0
4007             a401             a40007           2817.00    0.0150     166.30     160.70     0          0
1205             a12005           a12001           1913.00    0.0150     170.60     107.68     0          0
1302             a130             a13001           260.00     0.0150     142.00     106.42     0          0
1399             a13001           a13000           40.00      0.0150     106.42     106.00     0          0
1502             a15002           a15001           190.00     0.0150     111.00     107.85     0          0
1503             a153             a15002           480.00     0.0150     114.30     111.00     0          0
1599             a15001           a15000           35.00      0.0150     107.85     106.00     0          0
1602             a16002           a16001           330.00     0.0150     106.70     106.45     0          0
1603             a16003           a16002           710.00     0.0150     108.30     107.00     0          0
1604             a16004           a16003           216.00     0.0150     109.90     108.30     0          0
1605             a16005           a16004           313.00     0.0150     110.80     109.90     0          0
1606             a160             a16005           815.00     0.0150     115.00     111.10     0          0
2901             a29002           a31001           400.00     0.0150     112.60     111.15     0          0
2903             a293             a29001           490.00     0.0150     170.50     135.70     0          0
3002             a302             a12007           182.00     0.0150     130.30     117.00     0          0
3102             a31002           a31001           377.00     0.0150     118.80     111.20     0          0
3103             a313             a31002           765.00     0.0150     151.80     119.00     0          0
3203             a32003           a32001           321.00     0.0150     119.70     118.90     0          0
3204             a394             a32001           420.00     0.0150     124.90     119.40     0          0
3205             a32005           a32003           550.00     0.0150     120.80     119.70     0          0
3206             a32006           a32005           383.00     0.0150     123.10     121.60     0          0
3207             a32007           a32006           130.00     0.0150     127.40     124.30     0          0
3208             a32008           a32007           280.00     0.0150     137.70     127.60     0          0
3209             a329             a32008           359.00     0.0150     160.10     137.70     0          0
3210             a32010           a32005           400.00     0.0150     121.60     120.80     0          0
3211             a32011           a32010           941.00     0.0150     123.50     121.60     0          0
3212             a392             a32011           500.00     0.0150     124.50     123.50     0          0
3213             a32013           a32010           653.00     0.0150     123.80     122.00     0          0
3214             a32014           a32013           300.00     0.0150     124.60     123.80     0          0
3215             a395             a32014           400.00     0.0130     126.60     124.60     0          0
3216             a396             a32014           773.00     0.0120     128.80     124.70     0          0
3217             a32017           a396             612.00     0.0150     139.90     128.80     0          0
3218             a32018           a32017           238.00     0.0150     147.50     140.20     0          0
3219             a32019           a32018           718.00     0.0150     169.60     147.80     0          0
3220             a397             a32019           231.00     0.0150     172.20     169.60     0          0
3221             a32021           a397             1247.00    0.0150     182.20     172.20     0          0
3299             a32001           a32000           113.00     0.0230     118.90     118.80     0          0
3302             a332             a33001           850.00     0.0150     162.30     120.03     0          0
3399             a33001           a33000           77.00      0.0280     120.03     119.10     0          0
3402             a34002           a34001           700.00     0.0150     154.60     129.75     0          0
3403             a343             a34002           240.00     0.0150     155.70     152.70     0          0
3502             a350             a35001           152.00     0.0130     134.70     121.67     0          0
3599             a35001           a35000           453.00     0.0100     121.67     121.35     0          0
3803             a38003           a38004           1155.00    0.0150     123.30     120.30     0          0
a3804            a38004           a10030           550.00     0.0150     120.30     118.40     0          0
3808             a38008           a38001           495.00     0.0150     145.50     134.14     0          0
3809             a38009           a38008           120.00     0.0150     164.20     157.50     0          0
3810             a380             a38009           590.00     0.0150     170.10     164.20     0          0
3899             a38007           a38000           820.00     0.0150     127.60     125.50     0          0
3902             a398             a39001           1525.00    0.0150     233.70     184.49     0          0
3903             a39003           a398             708.00     0.0150     239.60     234.20     0          0
3904             a399             a39003           910.00     0.0150     250.80     239.90     0          0
3996             a39001           a39005           120.00     0.0150     184.49     184.00     0          0
3997             a39005           a39006           1525.00    0.0150     184.00     164.80     0          0
3998             a39006           a39007           152.00     0.0150     164.80     152.00     0          0
3999             a39007           a39000           450.00     0.0150     152.00     138.00     0          0
1002_2           a10012           a10003           3029.00    0.0150     102.89     100.30     0          0
1012_2           a10013           a10012           518.00     0.0150     103.40     102.90     0          0
1013             a10014           a10013           180.00     0.0150     104.00     103.40     0          0
1014             a10018           a10014           2162.00    0.0150     111.60     103.50     0          0
1018_2           a10020           a10018           501.00     0.0150     108.60     107.70     0          0
1020_2           a10022           a10020           880.00     0.0150     110.33     108.60     0          0
1022             a10023           a10022           555.00     0.0150     111.30     110.66     0          0
1023_2           a10024           a10023           562.00     0.0150     112.60     111.30     0          0
1024_2           a10027           a10024           1105.00    0.0150     115.80     112.60     0          0
1027_2           Node_1027        Node_1344612     1000.00    0.0150     118.40     115.80     0          0
a1030            a22222           a10030           915.00     0.0150     119.60     118.40     0          0
1207             a12005           a12007           314.00     0.0150     170.60     117.00     0          0
1001             a10003           a10000           609.00     0.0150     100.30     99.74      0          0
200              d100             d101             115.00     0.0130     105.04     104.85     0          0
201              d101             d102             121.00     0.0130     104.85     104.65     0          0
202              d102             d103             121.00     0.0130     104.65     104.45     0          0
203              d103             d104             194.00     0.0130     104.20     104.08     0          0
204              d104             d105             125.00     0.0130     104.08     103.90     0          0
205              d105             d106             123.00     0.0130     103.67     103.47     0          0
206              d106             d107             125.00     0.0130     103.47     103.26     0          0
207              d107             d108             125.00     0.0130     103.26     103.06     0          0
208              d108             d109             125.00     0.0130     103.06     102.83     0          0
209              d109             d110             125.00     0.0130     102.83     102.63     0          0
210              d110             d111             130.00     0.0130     102.63     102.41     0          0
211              d111             d112             99.00      0.0130     102.41     102.31     0          0
212              d112             d113             263.00     0.0130     99.41      99.31      0          0
213              d113             d114             273.00     0.0130     99.31      99.21      0          0
214              d114             d115             270.00     0.0130     99.21      99.00      0          0
215              d115             d116             172.00     0.0130     99.00      98.86      0          0
216              d116             d117             300.00     0.0130     98.86      98.78      0          0
217              d117             d118             260.00     0.0130     98.78      98.58      0          0
218              d118             d119             280.00     0.0130     98.58      98.48      0          0
219              d119             d120             500.00     0.0130     98.48      98.09      0          0
220              d120             d121             340.00     0.0130     98.09      97.94      0          0
221              d121             d122             300.00     0.0130     97.94      97.81      0          0
222              d122             d123             285.00     0.0130     97.81      97.65      0          0
223              d123             d124             365.00     0.0130     96.25      96.17      0          0
224              d124             d125             590.00     0.0130     96.17      96.07      0          0
225              d125             d126             420.00     0.0130     96.07      95.78      0          0
226              d126             d127             462.00     0.0130     95.78      95.57      0          0
227              d127             d128             460.00     0.0130     95.57      95.35      0          0
228              d128             d129             480.00     0.0130     95.35      95.10      0          0
229              d129             d130             340.00     0.0130     95.10      95.00      0          0
230              d130             d131             260.00     0.0130     95.00      94.64      0          0
231              d131             d132             589.00     0.0130     94.64      94.54      0          0
232              d132             d133             593.00     0.0130     94.54      93.97      0          0
233              d133             d134             463.00     0.0130     93.97      93.47      0          0
234              d134             d135             521.00     0.0130     93.47      93.22      0          0
235              d135             d136             404.00     0.0130     93.22      93.02      0          0
236              d136             d137             250.00     0.0130     93.02      91.00      0          0
238              d138             d139             1390.00    0.0130     124.00     118.07     0          0
252              d152             d153             215.00     0.0130     121.95     117.60     0          0
253              d153             d154             334.00     0.0130     117.60     110.13     0          0
254              d154             d155             100.00     0.0130     110.13     109.50     0          0
255              d155             d156             200.00     0.0130     109.50     109.32     0          0
256              d156             d157             260.00     0.0130     109.32     109.08     0          0
257              d157             d158             150.00     0.0130     109.08     108.95     0          0
258              d158             d159             150.00     0.0130     108.95     108.82     0          0
259              d159             d160             200.00     0.0130     108.82     108.64     0          0
260              d160             d161             100.00     0.0130     108.64     108.55     0          0
261              d161             d162             200.00     0.0130     108.55     108.37     0          0
262              d162             d163             656.00     0.0130     108.37     107.78     0          0
263              d163             d164             653.00     0.0130     107.78     107.19     0          0
264              d164             d165             670.00     0.0130     107.19     106.59     0          0
265              d165             d166             300.00     0.0130     106.59     106.32     0          0
266              d166             d167             337.00     0.0130     106.32     106.02     0          0
267              d167             d168             329.00     0.0130     106.02     105.72     0          0
268              d168             d23              300.00     0.0130     105.72     105.45     0          0
600              d1               d500             316.00     0.0130     135.03     134.15     0          0
601              d500             d501             205.00     0.0130     134.15     133.58     0          0
602              d501             d502             533.00     0.0130     133.58     132.00     0          0
603              d502             d503             497.00     0.0130     132.00     130.49     0          0
610              d5               d510             1000.00    0.0130     135.00     125.00     0          0
611              d510             d511             380.00     0.0130     125.00     121.20     0          0
612              d511             d513             241.00     0.0130     121.20     120.42     0          0
614              d513             d514             120.00     0.0130     120.42     116.92     0          0
615              d514             d515             120.00     0.0130     116.92     113.62     0          0
616              d515             d516             296.00     0.0130     113.62     108.29     0          0
617              d516             d24              116.00     0.0130     108.29     107.63     0          0
520              d2               d21              1000.00    0.0130     110.50     106.04     0          0
81               d21              d41              950.00     0.0130     106.04     106.00     0          0
530              d6               d25              1000.00    0.0130     107.50     107.18     0          0
85               d25              d45              595.00     0.0130     107.18     105.75     0          0
72610            d7261            d7361            350.00     0.0150     133.50     131.60     0          0
d73610           d7361            d7505            270.00     0.0050     131.60     131.30     0          0
71050            d7105            d7405            350.00     0.0150     134.70     131.53     0          0
d74050           d7405            d7505            400.00     0.0038     131.53     131.30     0          0
74051            d7405            d7461            320.00     0.0038     137.00     131.01     0          0
75050            Node_75050       Node_1452910     360.00     0.0025     131.30     131.20     0          0
d78050           d7805            d7204            270.00     0.0050     131.20     130.95     0          0
72050            d7205            d7705            350.00     0.0150     137.00     133.64     0          0
d77050           d7705            d7204            280.00     0.0075     133.64     130.95     0          0
77051            d7705            d7905            240.00     0.0075     138.44     133.08     0          0
77052            d7705            d7461            260.00     0.0075     136.70     131.01     0          0
74610            d7461            d7561            1590.00    0.0150     131.01     112.06     0          0
75610            d7561            d4661            950.00     0.0150     112.06     106.70     0          0
79050            d7905            d2605            2250.00    0.0150     133.08     108.33     0          0
66050            d6605            d124             100.00     0.0130     105.00     96.17      0          0
26051            Node_26051       Node_1468896     750.00     0.0150     108.28     106.20     0          0
72040            Node_72040       Node_1458920     1300.00    0.0150     130.95     106.90     0          0
71040            d7104            d2604            530.00     0.0130     106.90     106.25     0          0
66040            d2604            d125             30.00      0.0120     104.17     101.72     0          0
26041            Node_26041       Node_1473895     510.00     0.0130     106.20     105.41     0          0
552              d9               d27              500.00     0.0130     117.50     117.38     0          0
87               Node_87          Node_2136894     400.00     0.0130     117.37     108.10     0          0
562              d3               d104             500.00     0.0130     105.12     104.08     0          0
565              d8               d126             500.00     0.0130     96.80      95.78      0          0
572              d4               d164             500.00     0.0130     108.20     107.19     0          0
582              2178             d114             500.00     0.0130     99.70      99.21      0          0
592              a10002           d123             500.00     0.0150     96.50      96.25      0          0
71               d61              d100             100.00     0.0130     105.54     105.04     0          0
73               d63              d114             40.00      0.0130     103.45     101.71     0          0
74               d64              d117             36.00      0.0130     105.63     102.38     0          0
75               d65              d119             40.00      0.0130     105.18     101.48     0          0
77               d67              d131             400.00     0.0130     115.38     98.89      0          0
11001            x9500            x9501            170.57     0.0140     168.30     167.50     0          0
11002            x9501            x9502            178.30     0.0140     167.50     166.73     0          0
11003            x9502            x9503            201.30     0.0140     166.48     165.50     0          0
11004            x9503            x9504            200.00     0.0140     165.50     164.20     0          0
11005            x9504            x9505            202.10     0.0140     164.03     162.12     0          0
11006            x9505            x9506            209.71     0.0140     162.12     153.70     0          0
11007            x9506            x9507            160.23     0.0140     153.28     150.68     0          0
11008            x9507            x9509            167.74     0.0140     150.68     150.20     0          0
x11009           x9509            x9510            258.70     0.0140     150.20     147.15     0          0
11010            Node_11010       Node_1495288     252.00     0.0140     145.98     145.83     0          0
11011            x9511            x9512            200.00     0.0140     144.83     144.76     0          0
11012            x9512            x9513            280.00     0.0140     144.59     144.40     0          0
11013            x9513            x9514            120.00     0.0140     144.40     144.30     0          0
11014            x9514            x9515            376.10     0.0140     144.30     139.00     0          0
11015            x9515            x9516            312.10     0.0140     139.00     138.38     0          0
11016            x9516            x9517            311.20     0.0140     138.38     137.75     0          0
11017            x9517            x9518            307.80     0.0140     137.75     137.14     0          0
11018            x9518            x9519            308.32     0.0140     137.14     136.52     0          0
11019            x9519            x9520            672.60     0.0140     136.52     135.26     0          0
11020            x9520            x9521            520.13     0.0140     135.26     134.23     0          0
11021            x9521            x9522            748.98     0.0140     134.23     132.73     0          0
11022            x9522            x9523            621.97     0.0140     132.73     132.32     0          0
11024            x9523            x9526            251.60     0.0140     131.49     130.05     0          0
11026            x9526            x9527            356.20     0.0140     129.22     128.51     0          0
11027            x9527            x9528            785.00     0.0140     128.51     126.89     0          0
11029            x9528            x9530            728.92     0.0140     126.89     125.33     0          0
11030            x9530            x9531            497.20     0.0140     125.33     124.22     0          0
11031            x9531            x9532            426.14     0.0140     123.55     122.66     0          0
11033            x9532            x9534            430.18     0.0140     122.66     121.74     0          0
11034            x9534            x9535            429.30     0.0140     121.74     120.84     0          0
11035            x9535            x9536            397.20     0.0140     120.84     119.98     0          0
11036            x9536            x9537            464.34     0.0140     119.98     118.98     0          0
11037            x9537            x9538            281.10     0.0140     118.98     118.38     0          0
11038            x9538            x9539            537.80     0.0140     118.38     117.24     0          0
11039            x9539            x9540            357.05     0.0140     117.07     116.31     0          0
11040            x9540            x9541            446.50     0.0140     116.31     115.35     0          0
11041            x9541            x9545            678.03     0.0140     115.35     113.30     0          0
11047            x9545            x9546            686.80     0.0140     113.30     111.80     0          0
11048            x9546            x9547            222.89     0.0140     111.80     111.20     0          0
11049            x9547            x9548            435.40     0.0140     111.20     110.30     0          0
26001            x9001            x9002            230.10     0.0140     149.11     148.89     0          0
26002            x9002            x9003            178.58     0.0140     148.89     148.71     0          0
26004            x9003            x9004            201.30     0.0140     148.71     148.51     0          0
26005            x9004            x9005            200.00     0.0140     148.51     148.31     0          0
26006            x9005            x9006            202.10     0.0140     148.31     147.80     0          0
26007            x9006            x9007            209.71     0.0140     147.80     147.57     0          0
26009            x9007            x9008            327.97     0.0140     147.57     147.54     0          0
26010            x9008            x9009            100.00     0.0140     147.54     147.37     0          0
26011            x9009            x9010            258.70     0.0140     147.31     146.40     0          0
26012            x9010            x9011            252.00     0.0140     146.40     146.33     0          0
26013            x9011            x9012            200.00     0.0140     146.00     145.89     0          0
26014            x9012            x9014            280.00     0.0140     145.89     145.68     0          0
26018            x9014            x9015            299.17     0.0140     145.68     145.08     0          0
26019            x9015            x9016            234.00     0.0140     145.08     144.61     0          0
26020            x9016            x9017            234.10     0.0140     144.61     144.15     0          0
26021            x9017            x9018            232.05     0.0140     144.15     143.67     0          0
26022            x9018            x9019            307.78     0.0140     143.67     143.06     0          0
26025            x9019            x9020            177.54     0.0140     143.06     142.95     0          0
26026            x9020            x9021            506.90     0.0140     142.70     141.44     0          0
26027            x9021            x9022            251.40     0.0140     141.44     140.94     0          0
26028            x9022            x9023            251.33     0.0140     140.94     140.43     0          0
26029            x9023            x9024            268.80     0.0140     140.43     139.90     0          0
26030            x9024            x9025            375.21     0.0140     139.90     139.15     0          0
26031            x9025            x9026            373.78     0.0140     139.15     138.40     0          0
26032            x9026            x9028            373.90     0.0140     138.40     137.65     0          0
26033            x9028            x9029            248.09     0.0140     137.65     137.15     0          0
26034            x9029            x9030            128.83     0.0140     137.15     136.90     0          0
26035            x9030            x9032            122.80     0.0140     136.90     135.92     0          0
26037            x9032            x9033            356.19     0.0140     135.67     135.21     0          0
26038            x9033            x9034            392.50     0.0140     135.21     134.42     0          0
26039            x9034            x9035            392.50     0.0140     134.42     134.13     0          0
26040            x9035            x9036            109.91     0.0140     133.63     133.41     0          0
26041_2          x9036            x9037            258.60     0.0140     133.41     132.89     0          0
26042            x9037            x9038            250.50     0.0140     132.89     132.39     0          0
26043            x9038            x9039            109.91     0.0140     132.39     132.17     0          0
26044            x9039            x9040            247.90     0.0140     132.17     131.67     0          0
26045            x9040            x9041            249.30     0.0140     131.67     131.17     0          0
26046            x9041            x9042            426.14     0.0140     131.17     130.48     0          0
26047            x9042            x9043            425.75     0.0140     130.48     129.79     0          0
26048            x9043            x9044            280.18     0.0140     129.79     129.40     0          0
26049            x9044            x9045            429.30     0.0140     129.40     129.11     0          0
26050            x9045            x9046            397.20     0.0140     129.11     128.46     0          0
26051_2          x9046            x9047            464.32     0.0140     128.46     127.72     0          0
26052            x9047            x9048            281.10     0.0140     127.72     126.81     0          0
26053            x9048            x9049            537.80     0.0140     126.81     126.40     0          0
26054            x9049            x9050            357.80     0.0140     126.15     125.57     0          0
26055            x9050            x9051            446.50     0.0140     125.57     124.86     0          0
26057            x9051            x9053            453.72     0.0140     124.86     123.97     0          0
26058            x9053            x9054            454.55     0.0140     123.97     123.03     0          0
26059            x9054            x9055            456.91     0.0140     123.03     122.29     0          0
x26060           x9055            x9057            890.43     0.0140     122.29     121.51     0          0
90101            x901             x9509            1000.00    0.0140     156.20     151.20     0          0
90201            x902             x9511            1000.00    0.0140     147.00     144.83     0          0
x90301           x903             x13              1000.00    0.0140     149.00     147.00     0          0
90302            Node_90302       Node_1583292     200.00     0.0140     147.00     144.30     0          0
x90401           x904             x14              1000.00    0.0140     145.00     144.00     0          0
26024            Node_26024       Node_1586222     200.00     0.0120     144.00     143.06     0          0
x90501           x905             x15              1000.00    0.0140     149.00     148.00     0          0
90502            Node_90502       Node_1590218     200.00     0.0140     148.00     144.15     0          0
90503            Node_90503       Node_1590294     200.00     0.0140     148.97     138.38     0          0
x90601           x906             x16              1000.00    0.0140     146.00     144.00     0          0
90603            Node_90603       Node_1594226     200.00     0.0140     144.00     141.44     0          0
x90701           x907             x17              200.00     0.0140     144.00     143.50     0          0
x90801           x908             x18              1000.00    0.0140     139.00     138.40     0          0
90802            Node_90802       Node_1601301     200.00     0.0140     138.40     131.49     0          0
x90901           x909             x19              200.00     0.0120     138.00     137.00     0          0
90902            Node_90902       Node_1604241     200.00     0.0140     137.00     135.67     0          0
x91001           x910             x20              1000.00    0.0140     136.50     135.80     0          0
91002            Node_91002       Node_1607244     200.00     0.0140     135.80     135.21     0          0
91003            Node_91003       Node_1607303     200.00     0.0140     136.30     128.51     0          0
91103            x2100            x9530            200.00     0.0140     136.50     127.91     0          0
91301            x913             x9531            1000.00    0.0140     133.00     123.55     0          0
x91401           x914             x24              1000.00    0.0140     136.50     131.50     0          0
91402            Node_91402       Node_1621260     200.00     0.0140     131.50     130.48     0          0
x91501           x915             x25              200.00     0.0140     135.00     134.00     0          0
91502            Node_91502       Node_1624263     200.00     0.0120     134.00     129.79     0          0
91601            x916             x9540            1000.00    0.0140     131.00     116.31     0          0
x91701           x917             x27              200.00     0.0140     130.00     129.40     0          0
91702            Node_91702       Node_1629270     200.00     0.0140     129.40     125.57     0          0
91801            x918             x9541            1000.00    0.0140     128.00     115.35     0          0
x91901           x919             x29              1000.00    0.0140     125.00     123.90     0          0
91902            Node_91902       Node_1634321     200.00     0.0140     124.73     113.30     0          0
92001            x920             x9547            1000.00    0.0120     124.00     111.20     0          0
11050            x9550            x9056            120.00     0.0120     108.00     105.52     0          0
11052            x9056            d137             18.00      0.0140     105.52     101.50     0          0
11051            x9552            x9553            900.00     0.0120     110.20     108.30     0          0
cross-conn       x9035            x9528            200.00     0.0140     136.88     135.22     0          0
219i             Node_219         Node_1765548     30.00      0.0130     106.30     102.90     0          0
a14219           Node_14219       Node_17661217    150.00     0.0160     108.30     106.50     0          0
220i             HW_220i          x905             70.00      0.0130     113.00     104.59     0          0
221i             HW_221i          x9018            12.00      0.0130     105.24     104.01     0          0
222i             HW_222i          x9019            58.00      0.0130     106.14     104.13     0          0
223i             HW_223i          x9041            137.00     0.0130     104.97     105.62     0          0
a14223           Node_14223       Node_17831224    183.50     0.0160     106.29     104.62     0          0
224i             HW_224i          x904             69.10      0.0130     112.25     107.67     0          0
a360024          a47              a475             35.00      0.0150     106.87     106.83     0          0
360025           Node_360025      Node_1789488     125.00     0.0150     106.83     106.79     0          0
225i             HW_225i          x9020            16.00      0.0130     108.40     108.35     0          0
250              d150             d152             511.00     0.0130     129.08     121.95     0          0
83w              Node_83          Node_1811821     500.00     0.0130     105.30     103.10     0          0
d83              d23              d23w             50.00      0.0130     105.45     105.40     0          0
604              d503             d150             507.00     0.0130     130.49     129.08     0          0
84               Node_84          Node_1821856     634.00     0.0130     107.50     104.31     0          0
90402            Node_90402       Node_1586296     200.00     0.0120     144.33     137.14     0          0
90602            Node_90602       Node_1827299     200.00     0.0140     143.90     134.23     0          0
90702            Node_90702       Node_1832300     200.00     0.0140     143.40     132.73     0          0
90017s           Node_90017       Node_1836232     200.00     0.0140     141.50     139.15     0          0
90018s           Node_90018       Node_1839236     200.00     0.0140     138.00     137.65     0          0
90019w           Node_90019       Node_1842302     200.00     0.0140     136.90     129.22     0          0
91101            x911             x2100            200.00     0.0140     138.00     136.50     0          0
91201            x912             x2100            200.00     0.0140     137.50     136.50     0          0
91104            x2100            x9036            200.00     0.0140     136.50     135.11     0          0
90024w           Node_90024       Node_1848308     200.00     0.0140     127.50     122.66     0          0
a36026           a48              a49              116.30     0.0150     106.79     106.72     0          0
36027            Node_36027       Node_1851489     80.20      0.0150     106.72     106.69     0          0
36028            a50              a51              147.82     0.0160     106.35     106.28     0          0
a1299            a12001           a12000           57.00      0.0190     107.68     107.50     0          0
1202             Node_1202        Node_1858668     372.00     0.0190     110.50     109.18     0          0
12001i           Node_12001       Node_1860667     283.00     0.0230     106.18     104.81     0          0
13001i           Node_13001       Node_1863676     253.00     0.0230     104.92     104.38     0          0
91503            Node_91503       Node_1866309     200.00     0.0140     133.90     121.74     0          0
91703            Node_91703       Node_1869320     200.00     0.0140     129.30     115.35     0          0
a226i            HW_a226i         x9021            117.70     0.0130     117.90     108.35     0          0
15001i           Node_15001       Node_1873680     10.50      0.0320     106.14     105.13     0          0
16001i           Node_16001       Node_1876685     28.00      0.0230     104.95     102.43     0          0
3099             Node_3099        Node_1881673     80.00      0.0230     115.00     106.50     0          0
a3098            a12007           a30001           230.00     0.0150     117.00     115.00     0          0
31001i           Node_31001       Node_1888656     105.00     0.0150     109.70     109.60     0          0
a1699i           a16001           a1699n           26.50      0.0150     106.45     106.41     0          0
1699             Node_1699        Node_1891686     21.50      0.0190     102.80     102.76     0          0
72125            Node_72125       Node_1894492     158.20     0.0160     109.30     105.91     0          0
3001             5300             5303             60.00      0.0140     140.70     134.50     0          0
4001_2           5400             5401             250.00     0.0140     146.80     141.00     0          0
4224             Node_4224        Node_2083728     400.00     0.0140     166.33     164.00     0          0
a32001i          Node_32001       Node_19181921    53.00      0.0240     116.98     113.88     0          0
32001z           Node_32001       Node_1921625     31.90      0.0130     113.05     112.38     0          0
33001i           Node_33001       Node_1924621     62.00      0.0130     118.70     112.53     0          0
34001i           Node_34001       Node_1928616     120.00     0.0120     127.80     114.60     0          0
3499             Node_3499        Node_1931618     57.00      0.0130     128.95     122.50     0          0
35001i           Node_35001       Node_1936612     300.00     0.0130     118.67     117.80     0          0
a36010i          Node_36010       Node_19391940    100.00     0.0130     135.15     128.05     0          0
3611             Node_3611        Node_1940556     320.00     0.0130     127.80     123.10     0          0
36020i           Node_36020       Node_1944557     128.00     0.0150     144.87     134.68     0          0
36030i           Node_36030       Node_1947557     175.70     0.0130     136.00     134.68     0          0
36040i           Node_36040       Node_1950557     275.00     0.0150     138.45     134.68     0          0
37001i           Node_37001       Node_1953575     1140.00    0.0150     130.86     124.10     0          0
3704             a37004           a37001           279.35     0.0130     154.89     135.57     0          0
39001i           Node_39001       Node_1962647     110.00     0.0130     182.94     182.87     0          0
56001i           Node_56001       Node_1965592     238.00     0.0120     142.50     132.00     0          0
023              HW_023           Node_1968597     400.00     0.0130     147.00     145.00     0          0
8030             Node_8030        Node_1970603     400.00     0.0140     125.30     123.30     0          0
20070            Node_20070       Node_1972585     400.00     0.0140     128.90     126.90     0          0
1078             Node_1078        Node_1974435     400.00     0.0140     103.50     101.50     0          0
1127             Node_1127        Node_1976375     400.00     0.0130     163.88     161.88     0          0
151s50           Node_50          Node_1978413     50.00      0.0140     108.90     105.11     0          0
148s47           Node_148         Node_1980410     50.00      0.0140     110.16     105.44     0          0
157s56           Node_56          Node_1982427     50.00      0.0140     108.40     104.55     0          0
136s37           Node_136         Node_1984402     130.00     0.0140     125.08     115.96     0          0
139s39           Node_139         Node_1986404     55.00      0.0140     113.70     108.46     0          0
153s52           Node_52          Node_1988418     20.00      0.0140     108.24     106.91     0          0
121s21           Node_121         Node_1990350     43.00      0.0140     110.90     108.08     0          0
11053            Node_11053       Node_1992277     120.00     0.0140     121.51     105.52     0          0
46002_2          Node_46002       Node_20042002    300.00     0.0140     107.54     104.90     0          0
58002            5801             4601             790.00     0.0140     110.11     106.50     0          0
44001            Node_44001       Node_10961099    600.00     0.0140     107.91     107.47     0          0
44002            Node_44002       Node_10992019    155.00     0.0140     106.47     106.31     0          0
42002_2          Node_42002       Node_11022019    250.00     0.0140     105.76     104.51     0          0
44003            Node_44003       Node_20192021    210.00     0.0140     104.00     103.95     0          0
44004            Node_44004       Node_20212026    75.00      0.0140     110.20     110.10     0          0
48002_2          2100             5312             1200.00    0.0140     172.67     107.00     0          0
53514            Node_53514       Node_20912031    400.00     0.0140     101.00     100.00     0          0
53512            Node_53512       Node_20342035    400.00     0.0140     112.60     112.50     0          0
53513            Node_53513       Node_20322030    220.00     0.0140     112.63     112.23     0          0
3501             Node_3501        Node_2033762     200.00     0.0140     122.06     121.20     0          0
53506            5313             5307             680.00     0.0140     129.10     127.40     0          0
53508            Node_53508       Node_20362033    800.00     0.0140     126.90     122.89     0          0
53507            Node_53507       Node_20372038    60.00      0.0140     127.40     130.00     0          0
51002            Node_51002       Node_21382036    400.00     0.0140     134.60     132.60     0          0
53509            Node_53509       Node_20332032    1640.00    0.0140     123.29     113.39     0          0
54230            Node_54230       Node_20652056    400.00     0.0140     164.50     163.62     0          0
54234            Node_54234       Node_21092057    400.00     0.0140     153.00     151.00     0          0
54231            c9700            5429             460.00     0.0140     146.80     145.10     0          0
4232             Node_4232        Node_2059710     190.00     0.0140     145.00     144.40     0          0
4222             Node_4222        Node_2077734     600.00     0.0140     170.00     144.60     0          0
54223            Node_54223       Node_20802082    1810.00    0.0140     172.98     167.43     0          0
54226            Node_54226       Node_20822054    40.00      0.0140     166.43     164.29     0          0
54227            54228            54229            500.00     0.0140     169.43     166.79     0          0
54233            Node_54233       Node_20882108    400.00     0.0140     157.90     157.07     0          0
45003            4502             4501             673.00     0.0140     115.00     111.13     0          0
92003            4508             4506             550.00     0.0140     126.36     120.00     0          0
92006            Node_92006       Node_20932095    675.00     0.0140     120.00     111.50     0          0
92007            Node_92007       Node_20952097    350.00     0.0140     106.00     105.00     0          0
92008            Node_92008       Node_20992101    100.00     0.0140     112.00     109.70     0          0
92009            Node_92009       Node_21032093    130.00     0.0140     124.98     120.00     0          0
45005            Node_45005       Node_21011093    400.00     0.0140     109.70     107.00     0          0
2112             Node_2112        Node_21082056    100.00     0.0140     150.10     150.00     0          0
65001            2107             065              672.00     0.0140     137.06     119.74     0          0
d7059            Node_7059        Node_21172119    1925.00    0.0140     129.07     107.51     0          0
a2059            a206             a2071            10.00      0.0140     134.05     133.80     0          0
a2060            Node_2060        Node_21212123    150.00     0.0140     130.72     130.40     0          0
a2062            Node_2062        Node_21232125    1900.00    0.0140     130.40     127.20     0          0
a2064            Node_2064        Node_21252127    2470.00    0.0140     127.20     123.75     0          0
a2061            a56000           a212             150.00     0.0140     145.50     134.50     0          0
a2066            Node_2066        Node_21272130    50.00      0.0140     123.75     123.68     0          0
2067             Node_2067        Node_2130603     150.00     0.0140     123.68     123.30     0          0
2068             Node_2068        Node_2130607     250.00     0.0140     132.00     127.60     0          0
a2065            a38001           a210             30.00      0.0140     133.38     125.50     0          0
a2063            a39000           a209             100.00     0.0140     138.00     127.20     0          0

[ORIFICES]
;;Name           From             To               Type       Offset     Qcoeff     Gated    CloseTime
;;-------------- ---------------- ---------------- ---------- ---------- ---------- -------- ----------
UL2              4100             4102             SIDE       0          0.650      NO       0
UL4              4915             4917             SIDE       0          0.650      NO       0
UL5              4250             4251             SIDE       0          0.650      NO       0
53A              5300             5302             SIDE       0          0.650      NO       0
53b              5350             5352             SIDE       0          0.650      NO       0
UL8              5100             5102             SIDE       0          0.650      NO       0
UL11             5000             5001             SIDE       0          0.650      NO       0
UL12             5500             5502             SIDE       0          0.650      NO       0
UL13             5400             5402             SIDE       0          0.650      NO       0
UL14             2107             2110             SIDE       0          0.650      NO       0
UL15             2126             2125             SIDE       0          0.650      NO       0
MUL16            2148             2148s            SIDE       0          0.650      NO       0
MUL17            2151             2151s            SIDE       0          0.650      NO       0
MUL18            2157             2157s            SIDE       0          0.650      NO       0
UL19             2010             2011             SIDE       0          0.650      NO       0
UL20             2040             2041             SIDE       0          0.650      NO       0
UL21             2050             2051             SIDE       0          0.650      NO       0
UL22             2132             2131             SIDE       0          0.650      NO       0
MUL23            2136             2137s            SIDE       0          0.650      NO       0
MUL24            2141             2139s            SIDE       0          0.650      NO       0
MUL25            2153             2153s            SIDE       0          0.650      NO       0
MUL26            2119             2121s            SIDE       0          0.650      NO       0
UL27             2123             2122             SIDE       0          0.650      NO       0
29001sor         a29001           a29002           SIDE       0          0.650      NO       0
UL38             d21              d61              SIDE       0          0.650      NO       0
UL39             d23              d63              SIDE       0          0.650      NO       0
UL40             d24              d64              SIDE       0          0.650      NO       0
UL41             d25              d65              SIDE       0          0.650      NO       0
UL43             d2605            d6605            SIDE       0          0.650      NO       0
UL44             d27              d67              SIDE       0          0.650      NO       0
UL45             HW_UL45          Node_1583213     SIDE       0          0.650      NO       0
UL66             a104             a7               SIDE       0          0.650      NO       0
UL67             a108             a9               SIDE       0          0.650      NO       0
UL68             a111             a11              SIDE       0          0.650      NO       0
UL69             a113             a13              SIDE       0          0.650      NO       0
MUL73            d2604            d26040           SIDE       0          0.650      NO       0
a219sor          a219             a219s            SIDE       0          0.650      NO       0
a220sor          a220             a220s            SIDE       0          0.650      NO       0
a221sor          a221             a221s            SIDE       0          0.650      NO       0
a222sor          a222             a222s            SIDE       0          0.650      NO       0
a223sor          a223             a223s            SIDE       0          0.650      NO       0
a224sor          a224             a224s            SIDE       0          0.650      NO       0
a226sor          a226             a226s            SIDE       0          0.650      NO       0
a225sor          a225             a225s            SIDE       0          0.650      NO       0
MUL24W           d24              d24w             SIDE       0          0.650      NO       0
MULx17s          HW_MULx17s       Node_15981836    SIDE       0          0.650      NO       0
MULx18s          HW_MULx18s       Node_16011839    SIDE       0          0.650      NO       0
a12001sor        a12001           a12001s          SIDE       0          0.650      NO       0
a13001sor        a13001           a13001s          SIDE       0          0.650      NO       0
a15001sor        a15001           a15001s          SIDE       0          0.650      NO       0
a16001sor        a16001           a16001s          SIDE       0          0.650      NO       0
30001sor         Node_30001       Node_1881666     SIDE       0          0.650      NO       0
a31001sor        a31001           a31001s          SIDE       0          0.650      NO       0
a225weir         a225             a225w            SIDE       0          0.650      NO       0
a32001sor        a32001           a32001s          SIDE       0          0.650      NO       0
a33001sor        a33001           a33001s          SIDE       0          0.650      NO       0
a34001sor        a34001           a34001s          SIDE       0          0.650      NO       0
a35001sor        a35001           a35001s          SIDE       0          0.650      NO       0
a36010sor        a36010           a36010s          SIDE       0          0.650      NO       0
a36020sor        a36020           a36020s          SIDE       0          0.650      NO       0
a36030sor        a36030           a36030s          SIDE       0          0.650      NO       0
a36040sor        a36040           a36040s          SIDE       0          0.650      NO       0
a37001sor        a37001           a37001s          SIDE       0          0.650      NO       0
a39001sor        a39001           a39001s          SIDE       0          0.650      NO       0
a56001sor        a56001           a56001s          SIDE       0          0.650      NO       0
5429o            Node_5429        Node_20582059    SIDE       0          0.650      NO       0
5421ow           Node_5421        Node_20762077    SIDE       0          0.650      NO       0
2116             2025             2028             SIDE       0          0.650      NO       0

[WEIRS]
;;Name           From             To               Type       CrestHt    Qcoeff     Gated    EndCon   EndCoeff   Surcharge
;;-------------- ---------------- ---------------- ---------- ---------- ---------- -------- -------- ---------- ----------
UL3              4915             4301             TRANSVERSE 123.30     1.840      NO       0        0          YES
UL53             2157             412              TRANSVERSE 110.50     1.840      NO       0        0          YES
UL54             2153             4201             TRANSVERSE 110.34     1.840      NO       0        0          YES
UL56             2151             431              TRANSVERSE 109.70     1.840      NO       0        0          YES
UL57             2148             441              TRANSVERSE 111.66     1.840      NO       0        0          YES
UL58             2141             4505             TRANSVERSE 117.03     1.840      NO       0        0          YES
MUL60            2136             4513             TRANSVERSE 129.08     1.840      NO       0        0          YES
UL61             2132             4507             TRANSVERSE 129.08     1.840      NO       0        0          YES
UL62             2130             4508             TRANSVERSE 130.36     1.840      NO       0        0          YES
UL63             2119             4611             TRANSVERSE 114.90     1.840      NO       0        0          YES
UL64             2123             4621             TRANSVERSE 114.82     1.840      NO       0        0          YES
UL71             d7361            d7461            V-NOTCH    133.85     1.840      NO       0        0          YES
UL72             d7805            d7905            V-NOTCH    133.80     1.840      NO       0        0          YES
MUL74            d2605            d26050           TRANSVERSE 110.41     1.840      NO       0        0          YES
UL78             x9548            x9552            TRANSVERSE 113.30     1.840      NO       0        0          YES
a219weir         a219             a219w            TRANSVERSE 109.90     1.840      NO       0        0          YES
a223weir         a223             a223w            TRANSVERSE 109.19     1.840      NO       0        0          YES
MUL23W           HW_MUL23W        Node_18131811    TRANSVERSE 107.65     1.840      NO       0        0          YES
MULx16w          HW_MULx16w       Node_15941827    V-NOTCH    144.33     1.840      NO       0        0          YES
MULx17w          HW_MULx17w       Node_15981832    TRANSVERSE 144.17     1.840      NO       0        0          YES
MULx19w          HW_MULx19w       Node_16041842    V-NOTCH    137.67     1.840      NO       0        0          YES
MULx24w          HW_MULx24w       Node_16211848    TRANSVERSE 133.50     1.840      NO       0        0          YES
MULx25w          HW_MULx25w       Node_16241866    V-NOTCH    134.33     1.840      NO       0        0          YES
MULx27w          HW_MULx27w       Node_16291869    TRANSVERSE 129.73     1.840      NO       0        0          YES
350w             5350             5351             TRANSVERSE 143.00     1.840      NO       0        0          YES
5500wer          5500             5423             TRANSVERSE 169.70     1.840      NO       0        0          YES
a34001weir       a34001           a34001w          TRANSVERSE 129.72     1.840      NO       0        0          YES
4601w            Node_4601        Node_10572004    TRANSVERSE 110.00     1.840      NO       0        0          YES
4100sw           4100             5310             V-NOTCH    114.70     1.840      NO       0        0          YES
4100tw           4100             5311             TRANSVERSE 119.00     1.840      NO       0        0          YES
5307sw           Node_5307        Node_20362037    V-NOTCH    131.22     1.840      NO       0        0          YES
5429w            Node_5429        Node_20582088    TRANSVERSE 158.90     1.840      NO       0        0          YES
5421smw          Node_5421        Node_20762080    TRANSVERSE 174.99     1.840      NO       0        0          YES
5423w            Node_5423        Node_20822083    TRANSVERSE 170.58     1.840      NO       0        0          YES
5312w            Node_5312        Node_20302091    TRANSVERSE 110.00     1.840      NO       0        0          YES
4511w            Node_4511        Node_20972099    TRANSVERSE 115.00     1.840      NO       0        0          YES
CWEST54/55       Node_5431        Node_20562109    TRANSVERSE 163.00     1.840      NO       0        0          YES
2111             Node_2111        Node_21082109    TRANSVERSE 157.00     1.840      NO       0        0          YES
d150w            d150             d2059            V-NOTCH    133.08     1.840      NO       0        0          YES
of62w            d27              d27w             TRANSVERSE 118.01     1.840      NO       0        0          YES
2145             5100             5100w            TRANSVERSE 141.00     1.840      NO       0        0          YES

[PUMPS]
;;Name           From             To               PumpCurve  Status   Startup    Shutoff
;;-------------- ---------------- ---------------- ---------- -------- ---------- ----------
Ernest_PS        d137             d138             PC_Ernest_PS ON       1.00       0         
Hydrobrk         x9548            x9550            PC_Hydrobrk ON       1.00       0         

[CURVES]
;;Name           Type       X-Value    Y-Value
;;-------------- ---------- ---------- ----------
;; Synthesized generic pump curves — replace with actual pump data
PC_Ernest_PS     Pump1      0          5
PC_Ernest_PS                10         10
PC_Hydrobrk      Pump1      0          5
PC_Hydrobrk                 10         10

[XSECTIONS]
;;Link           Shape        Geom1      Geom2      Geom3      Geom4      Barrels
;;-------------- ------------ ---------- ---------- ---------- ---------- ----------
Link_1           CIRCULAR     8.00       0          0          0          1
53500            CIRCULAR     3.00       0          0          0          1
83300            CIRCULAR     1.00       0          0          0          1
53005            CIRCULAR     1.25       0          0          0          1
53502            CIRCULAR     4.00       0          0          0          1
53504            CIRCULAR     4.00       0          0          0          1
83200            CIRCULAR     1.00       0          0          0          1
83100            CIRCULAR     1.67       0          0          0          1
83050            CIRCULAR     1.67       0          0          0          1
83000            CIRCULAR     1.67       0          0          0          1
51000            CIRCULAR     2.50       0          0          0          1
81500            CIRCULAR     1.00       0          0          0          1
81510            CIRCULAR     1.25       0          0          0          1
81520            CIRCULAR     1.50       0          0          0          1
81530            CIRCULAR     2.00       0          0          0          1
81100            CIRCULAR     2.00       0          0          0          1
81050            CIRCULAR     1.25       0          0          0          1
81000            CIRCULAR     2.00       0          0          0          1
49900            CIRCULAR     2.50       0          0          0          1
49800            CIRCULAR     5.00       0          0          0          1
49700            CIRCULAR     5.00       0          0          0          1
49600            RECT_CLOSED  2.83       4.25       0          0          1
49500            RECT_CLOSED  2.50       3.75       0          0          1
49400            RECT_CLOSED  3.17       4.75       0          0          1
49300            CIRCULAR     5.00       0          0          0          1
49200            CIRCULAR     5.33       0          0          0          1
88000            CIRCULAR     3.00       0          0          0          1
86000            CIRCULAR     3.00       0          0          0          1
55000            CIRCULAR     2.67       0          0          0          1
85550            CIRCULAR     1.00       0          0          0          1
85500            CIRCULAR     3.00       0          0          0          1
85250            CIRCULAR     3.00       0          0          0          1
85000            CIRCULAR     3.00       0          0          0          1
84750            CIRCULAR     3.00       0          0          0          1
54221            CIRCULAR     4.17       0          0          0          1
84550            CIRCULAR     1.25       0          0          0          1
84500            CIRCULAR     3.00       0          0          0          1
84250            CIRCULAR     3.00       0          0          0          1
84000            CIRCULAR     3.00       0          0          0          1
52500            CIRCULAR     1.25       0          0          0          1
52502            CIRCULAR     1.25       0          0          0          1
82500            CIRCULAR     1.50       0          0          0          1
82000            CIRCULAR     3.00       0          0          0          1
80500            CIRCULAR     3.00       0          0          0          1
50050            CIRCULAR     1.30       0          0          0          1
50052            CIRCULAR     2.00       0          0          0          1
50000            CIRCULAR     1.30       1.30       0          0          1
80000            CIRCULAR     3.00       0          0          0          1
49160            CIRCULAR     5.00       0          0          0          1
49430            CIRCULAR     5.00       0          0          0          1
49120            CIRCULAR     2.00       0          0          0          1
49100            CIRCULAR     2.00       0          0          0          1
49050            CIRCULAR     3.00       0          0          0          1
49000            CIRCULAR     3.00       0          0          0          1
42500            CIRCULAR     1.00       0          0          0          1
53511            CIRCULAR     5.33       4.30       0          0          1
42000            CIRCULAR     4.67       0          0          0          1
41500            CIRCULAR     4.67       0          0          0          1
41000            CIRCULAR     4.67       0          0          0          1
40010            CIRCULAR     1.25       0          0          0          1
10000            CIRCULAR     3.00       0          0          0          1
88100            CIRCULAR     3.00       0          0          0          1
88200            CIRCULAR     3.00       0          0          0          1
88300            CIRCULAR     3.00       0          0          0          1
88400            CIRCULAR     3.00       0          0          0          1
88500            CIRCULAR     3.00       0          0          0          1
88600            CIRCULAR     3.00       0          0          0          1
88610            CIRCULAR     1.25       0          0          0          1
88620            CIRCULAR     1.25       0          0          0          1
88630            CIRCULAR     1.25       0          0          0          1
8640             CIRCULAR     1.25       0          0          0          1
8650             CIRCULAR     1.25       0          0          0          1
8660             CIRCULAR     1.25       0          0          0          1
8670             CIRCULAR     1.00       0          0          0          1
8700             CIRCULAR     2.50       0          0          0          1
8800             CIRCULAR     2.50       0          0          0          1
8900             CIRCULAR     2.50       0          0          0          1
7050             CIRCULAR     3.00       0          0          0          1
1006             CIRCULAR     4.83       0          0          0          1
1007             CIRCULAR     4.50       0          0          0          1
1015             CIRCULAR     4.50       0          0          0          1
1016             CIRCULAR     4.83       0          0          0          1
1017             CIRCULAR     4.83       0          0          0          1
1018             CIRCULAR     4.83       0          0          0          1
1019             CIRCULAR     4.83       0          0          0          1
1020             CIRCULAR     4.83       0          0          0          1
1023             CIRCULAR     5.00       0          0          0          1
1024             CIRCULAR     5.00       0          0          0          1
1027             CIRCULAR     5.00       0          0          0          1
1028             CIRCULAR     5.00       0          0          0          1
1031             CIRCULAR     5.00       0          0          0          1
1032             CIRCULAR     5.00       0          0          0          1
1033             CIRCULAR     5.67       0          0          0          1
1047             CIRCULAR     5.67       0          0          0          1
1050             CIRCULAR     5.67       0          0          0          1
1051             CIRCULAR     5.67       0          0          0          1
1052             CIRCULAR     5.67       0          0          0          1
1053             CIRCULAR     5.67       0          0          0          1
1054             CIRCULAR     5.67       0          0          0          1
1057             CIRCULAR     5.67       0          0          0          1
1058             CIRCULAR     5.67       0          0          0          1
1061             CIRCULAR     5.67       0          0          0          1
1064             CIRCULAR     5.67       0          0          0          1
1065             CIRCULAR     5.67       0          0          0          1
1069             CIRCULAR     5.67       0          0          0          1
21075            CIRCULAR     3.33       0          0          0          1
1079             CIRCULAR     5.83       0          0          0          1
1081             CIRCULAR     5.83       0          0          0          1
1082             CIRCULAR     5.83       0          0          0          1
1085             CIRCULAR     5.83       0          0          0          1
1088             CIRCULAR     5.83       0          0          0          1
1090             CIRCULAR     5.83       0          0          0          1
1000             CIRCULAR     3.00       0          0          0          1
1002             CIRCULAR     1.25       0          0          0          1
1003             CIRCULAR     1.25       0          0          0          1
1004             CIRCULAR     1.25       0          0          0          1
1005             CIRCULAR     1.25       0          0          0          1
1008             CIRCULAR     1.00       0          0          0          1
1012             CIRCULAR     1.00       0          0          0          1
1021             HORSESHOE    3.50       2.33       0          0          1
6101             CIRCULAR     4.16       0          0          0          1
46001            CIRCULAR     4.50       0          0          0          1
1025             CIRCULAR     1.25       0          0          0          1
6201             CIRCULAR     2.00       0          0          0          1
1029             CIRCULAR     1.76       0          0          0          1
8001             CIRCULAR     2.00       0          0          0          1
1100             CIRCULAR     6.50       0          0          0          1
1105             CIRCULAR     6.50       0          0          0          1
1110             CIRCULAR     7.00       0          0          0          1
1115             CIRCULAR     7.00       0          0          0          1
1120             CIRCULAR     7.00       0          0          0          1
1125             CIRCULAR     4.00       0          0          0          1
1130             CIRCULAR     7.00       0          0          0          1
1135             CIRCULAR     7.00       0          0          0          1
1140             CIRCULAR     7.00       0          0          0          1
1145             CIRCULAR     7.00       0          0          0          1
1150             CIRCULAR     7.00       0          0          0          1
1155             CIRCULAR     5.83       0          0          0          1
1160             CIRCULAR     5.83       0          0          0          1
1034             CIRCULAR     5.83       0          0          0          1
1037             CIRCULAR     5.83       0          0          0          1
2004             CIRCULAR     5.83       0          0          0          1
1041             CIRCULAR     2.50       0          0          0          1
1035             CIRCULAR     1.50       0          0          0          1
1042             CIRCULAR     1.75       0          0          0          1
1043             CIRCULAR     1.75       0          0          0          1
1044             CIRCULAR     1.75       0          0          0          1
1048             HORSESHOE    2.67       1.83       0          0          1
92005            CIRCULAR     2.50       0          0          0          1
5001             CIRCULAR     4.84       0          0          0          1
5002             CIRCULAR     5.83       0          0          0          1
45004            CIRCULAR     5.83       9.00       0          0          1
1055             CIRCULAR     1.67       0          0          0          1
21056            CIRCULAR     2.00       0          0          0          1
1059             CIRCULAR     1.50       0          0          0          1
43001            CIRCULAR     2.00       0          0          0          1
1062             CIRCULAR     1.30       0          0          0          1
42001            CIRCULAR     3.00       0          0          0          1
1067             CIRCULAR     1.50       0          0          0          1
41001            CIRCULAR     2.50       0          0          0          1
1070             CIRCULAR     1.00       0          0          0          1
1071             CIRCULAR     1.00       0          0          0          1
7100             CIRCULAR     3.00       0          0          0          1
7150             CIRCULAR     3.00       0          0          0          1
7200             CIRCULAR     3.00       0          0          0          1
7250             CIRCULAR     3.00       0          0          0          1
7300             CIRCULAR     3.00       0          0          0          1
7350             CIRCULAR     3.00       0          0          0          1
7400             CIRCULAR     3.00       0          0          0          1
7450             CIRCULAR     3.00       0          0          0          1
7500             CIRCULAR     3.00       0          0          0          1
7550             CIRCULAR     3.00       0          0          0          1
7600             CIRCULAR     3.00       0          0          0          1
7650             CIRCULAR     3.00       0          0          0          1
7700             CIRCULAR     1.50       0          0          0          1
48002            HORSESHOE    6.00       4.00       0          0          1
48003            HORSESHOE    6.00       4.00       0          0          1
48004            HORSESHOE    6.00       4.00       0          0          1
48005            HORSESHOE    6.00       4.00       0          0          1
48006            CIRCULAR     4.00       0          0          0          1
101102           CIRCULAR     1.25       0          0          0          1
102103           CIRCULAR     1.25       0          0          0          1
15003            CIRCULAR     1.25       0          0          0          1
15004            CIRCULAR     1.25       0          0          0          1
15006            CIRCULAR     1.25       0          0          0          1
15007            CIRCULAR     1.25       0          0          0          1
15009            CIRCULAR     1.25       0          0          0          1
15010            CIRCULAR     1.25       0          0          0          1
15011            CIRCULAR     1.25       0          0          0          1
15012            CIRCULAR     1.25       0          0          0          1
15013            CIRCULAR     1.25       0          0          0          1
15216            CIRCULAR     1.25       0          0          0          1
15217            CIRCULAR     1.25       0          0          0          1
15218            CIRCULAR     1.25       0          0          0          1
15219            CIRCULAR     1.25       0          0          0          1
15220            CIRCULAR     1.25       0          0          0          1
15221            CIRCULAR     1.25       0          0          0          1
a15222           CIRCULAR     1.25       0          0          0          1
36013            CIRCULAR     1.25       0          0          0          1
36015            CIRCULAR     3.00       0          0          0          1
36018            CIRCULAR     3.00       0          0          0          1
36019            CIRCULAR     3.00       0          0          0          1
4243             CIRCULAR     3.00       0          0          0          1
4344             CIRCULAR     3.00       0          0          0          1
4445             CIRCULAR     3.00       0          0          0          1
4546             CIRCULAR     3.00       0          0          0          1
36024            CIRCULAR     3.00       0          0          0          1
40002            CIRCULAR     3.33       0          0          0          1
40003            CIRCULAR     3.33       0          0          0          1
40004            CIRCULAR     3.33       0          0          0          1
40005            CIRCULAR     3.33       0          0          0          1
40006            CIRCULAR     3.33       0          0          0          1
5657             CIRCULAR     3.33       0          0          0          1
40008            CIRCULAR     3.33       0          0          0          1
40009            CIRCULAR     3.33       0          0          0          1
40010_2          CIRCULAR     3.33       0          0          0          1
40011            CIRCULAR     3.33       0          0          0          1
40012            CIRCULAR     3.33       0          0          0          1
40013            CIRCULAR     3.33       0          0          0          1
40014            CIRCULAR     3.33       0          0          0          1
40015            CIRCULAR     3.33       0          0          0          1
40016            CIRCULAR     3.33       0          0          0          1
40017            CIRCULAR     3.33       0          0          0          1
40018            CIRCULAR     3.33       0          0          0          1
40019            CIRCULAR     3.33       0          0          0          1
40020            CIRCULAR     3.33       0          0          0          1
42001_2          CIRCULAR     3.06       0          0          0          1
42002            CIRCULAR     3.06       0          0          0          1
42003            CIRCULAR     3.06       0          0          0          1
42004            CIRCULAR     3.06       0          0          0          1
42005            CIRCULAR     3.06       0          0          0          1
42006            CIRCULAR     3.06       0          0          0          1
42007            CIRCULAR     3.06       0          0          0          1
42008            CIRCULAR     3.06       0          0          0          1
46001_2          CIRCULAR     2.28       0          0          0          1
46002            CIRCULAR     2.28       0          0          0          1
46003            CIRCULAR     2.28       0          0          0          1
46004            CIRCULAR     2.28       0          0          0          1
46005            CIRCULAR     2.28       0          0          0          1
46006            CIRCULAR     2.28       0          0          0          1
46007            CIRCULAR     2.28       0          0          0          1
50001            CIRCULAR     3.43       0          0          0          1
50003            CIRCULAR     3.43       0          0          0          1
50004            CIRCULAR     3.43       0          0          0          1
50005            CIRCULAR     3.43       0          0          0          1
50006            CIRCULAR     3.43       0          0          0          1
50007            CIRCULAR     3.43       0          0          0          1
50008            CIRCULAR     3.43       0          0          0          1
50009            CIRCULAR     3.43       0          0          0          1
50010            CIRCULAR     3.43       0          0          0          1
50011            CIRCULAR     3.43       0          0          0          1
1003_2           CIRCULAR     4.00       0          0          0          1
1004_2           CIRCULAR     6.50       0          0          0          1
4819             CIRCULAR     4.00       0          0          0          1
3620             HORSESHOE    3.00       2.00       0          0          1
2221             CIRCULAR     1.83       0          0          0          1
4522             HORSESHOE    3.75       2.50       0          0          1
6623             HORSESHOE    5.50       3.67       0          0          1
1224             CIRCULAR     1.00       0          0          0          1
7225             HORSESHOE    4.16       6.00       0          0          1
1226             CIRCULAR     1.00       0          0          0          1
48001            HORSESHOE    6.00       4.00       0          0          1
a14218           CIRCULAR     3.50       0          0          0          1
14122            CIRCULAR     3.50       0          0          0          1
a14222           CIRCULAR     1.33       0          0          0          1
a72225           CIRCULAR     2.67       0          0          0          1
48007            CIRCULAR     4.00       0          0          0          1
3601             CIRCULAR     1.50       0          0          0          1
3602             CIRCULAR     1.25       0          0          0          1
3612             CIRCULAR     3.83       0          0          0          1
3613             CIRCULAR     3.00       0          0          0          1
3622             CIRCULAR     1.50       0          0          0          1
3623             CIRCULAR     2.00       0          0          0          1
3624             CIRCULAR     2.00       0          0          0          1
3625             CIRCULAR     2.00       0          0          0          1
3632             CIRCULAR     1.25       0          0          0          1
3633             CIRCULAR     1.00       0          0          0          1
3642             CIRCULAR     3.00       0          0          0          1
3694             CIRCULAR     3.00       0          0          0          1
3695             CIRCULAR     3.00       0          0          0          1
3696             CIRCULAR     1.25       0          0          0          1
3697             CIRCULAR     1.50       0          0          0          1
3698             CIRCULAR     4.17       0          0          0          1
3699             CIRCULAR     5.00       0          0          0          1
3705             CIRCULAR     3.50       0          0          0          1
3799             CIRCULAR     4.83       0          0          0          1
1033_2           CIRCULAR     3.00       0          0          0          1
1036             CIRCULAR     3.00       0          0          0          1
1043_2           CIRCULAR     3.00       0          0          0          1
5602             CIRCULAR     2.50       0          0          0          1
5603             CIRCULAR     2.50       2.17       0          0          1
5699             CIRCULAR     1.25       0          0          0          1
2001             CIRCULAR     4.00       0          0          0          1
2003             CIRCULAR     4.00       0          0          0          1
2005             CIRCULAR     2.67       0          0          0          1
2007             CIRCULAR     4.00       0          0          0          1
2008             CIRCULAR     3.33       0          0          0          1
2009             CIRCULAR     3.33       0          0          0          1
2000             CIRCULAR     3.33       0          0          0          1
2016             CIRCULAR     3.33       0          0          0          1
2017             CIRCULAR     3.00       0          0          0          1
2028             CIRCULAR     1.67       0          0          0          1
2031             CIRCULAR     1.67       0          0          0          1
2034             CIRCULAR     1.67       0          0          0          1
4001             CIRCULAR     2.50       0          0          0          1
4007             CIRCULAR     2.50       0          0          0          1
1205             HORSESHOE    2.75       1.83       0          0          1
1302             CIRCULAR     2.00       0          0          0          1
1399             CIRCULAR     2.00       0          0          0          1
1502             CIRCULAR     1.00       0          0          0          1
1503             CIRCULAR     1.00       0          0          0          1
1599             CIRCULAR     1.00       0          0          0          1
1602             HORSESHOE    3.00       2.00       0          0          1
1603             HORSESHOE    2.75       1.83       0          0          1
1604             HORSESHOE    2.75       1.83       0          0          1
1605             HORSESHOE    2.75       1.83       0          0          1
1606             HORSESHOE    2.75       1.83       0          0          1
2901             CIRCULAR     1.00       0          0          0          1
2903             CIRCULAR     1.83       0          0          0          1
3002             CIRCULAR     1.67       0          0          0          1
3102             CIRCULAR     1.67       0          0          0          1
3103             CIRCULAR     1.50       0          0          0          1
3203             CIRCULAR     4.00       0          0          0          1
3204             CIRCULAR     1.00       0          0          0          1
3205             CIRCULAR     4.00       0          0          0          1
3206             CIRCULAR     2.50       0          0          0          1
3207             CIRCULAR     1.95       0          0          0          1
3208             CIRCULAR     1.95       0          0          0          1
3209             CIRCULAR     1.95       0          0          0          1
3210             CIRCULAR     4.00       0          0          0          1
3211             CIRCULAR     4.00       0          0          0          1
3212             CIRCULAR     4.00       0          0          0          1
3213             HORSESHOE    3.25       2.17       0          0          1
3214             HORSESHOE    2.75       1.83       0          0          1
3215             CIRCULAR     2.00       0          0          0          1
3216             CIRCULAR     2.00       0          0          0          1
3217             CIRCULAR     2.33       0          0          0          1
3218             CIRCULAR     2.00       0          0          0          1
3219             CIRCULAR     1.67       0          0          0          1
3220             CIRCULAR     1.83       0          0          0          1
3221             CIRCULAR     1.67       0          0          0          1
3299             CIRCULAR     4.00       0          0          0          1
3302             CIRCULAR     1.83       0          0          0          1
3399             CIRCULAR     1.83       0          0          0          1
3402             CIRCULAR     2.33       0          0          0          1
3403             CIRCULAR     1.67       0          0          0          1
3502             CIRCULAR     6.00       0          0          0          1
3599             CIRCULAR     6.00       0          0          0          1
3803             CIRCULAR     3.00       0          0          0          1
a3804            CIRCULAR     3.50       0          0          0          1
3808             CIRCULAR     1.67       0          0          0          1
3809             CIRCULAR     1.50       0          0          0          1
3810             CIRCULAR     1.50       0          0          0          1
3899             HORSESHOE    4.25       6.00       0          0          1
3902             CIRCULAR     2.33       0          0          0          1
3903             CIRCULAR     2.00       0          0          0          1
3904             CIRCULAR     1.67       0          0          0          1
3996             CIRCULAR     2.33       0          0          0          1
3997             CIRCULAR     2.83       0          0          0          1
3998             CIRCULAR     2.50       0          0          0          1
3999             CIRCULAR     2.50       0          0          0          1
1002_2           CIRCULAR     5.17       0          0          0          1
1012_2           CIRCULAR     5.17       0          0          0          1
1013             CIRCULAR     5.17       0          0          0          1
1014             CIRCULAR     4.50       0          0          0          1
1018_2           CIRCULAR     4.50       0          0          0          1
1020_2           CIRCULAR     4.50       0          0          0          1
1022             CIRCULAR     4.00       0          0          0          1
1023_2           CIRCULAR     4.00       0          0          0          1
1024_2           CIRCULAR     4.00       0          0          0          1
1027_2           CIRCULAR     4.00       0          0          0          1
a1030            CIRCULAR     4.00       0          0          0          1
1207             CIRCULAR     1.25       0          0          0          1
1001             CIRCULAR     5.17       0          0          0          1
200              CIRCULAR     1.00       0          0          0          1
201              CIRCULAR     1.00       0          0          0          1
202              CIRCULAR     1.00       0          0          0          1
203              CIRCULAR     1.25       0          0          0          1
204              CIRCULAR     1.25       0          0          0          1
205              CIRCULAR     1.25       0          0          0          1
206              CIRCULAR     1.25       0          0          0          1
207              CIRCULAR     1.25       0          0          0          1
208              CIRCULAR     1.25       0          0          0          1
209              CIRCULAR     1.25       0          0          0          1
210              CIRCULAR     1.25       0          0          0          1
211              CIRCULAR     1.25       0          0          0          1
212              CIRCULAR     6.17       0          0          0          1
213              CIRCULAR     6.17       0          0          0          1
214              CIRCULAR     6.17       0          0          0          1
215              CIRCULAR     6.17       0          0          0          1
216              CIRCULAR     6.17       0          0          0          1
217              CIRCULAR     6.17       0          0          0          1
218              CIRCULAR     6.17       0          0          0          1
219              CIRCULAR     6.17       0          0          0          1
220              CIRCULAR     6.17       0          0          0          1
221              CIRCULAR     6.17       0          0          0          1
222              CIRCULAR     6.17       0          0          0          1
223              CIRCULAR     8.50       0          0          0          1
224              CIRCULAR     8.50       0          0          0          1
225              CIRCULAR     8.50       0          0          0          1
226              CIRCULAR     8.50       0          0          0          1
227              CIRCULAR     8.50       0          0          0          1
228              CIRCULAR     8.50       0          0          0          1
229              CIRCULAR     8.50       0          0          0          1
230              CIRCULAR     8.50       0          0          0          1
231              CIRCULAR     8.50       0          0          0          1
232              CIRCULAR     8.50       0          0          0          1
233              CIRCULAR     6.00       0          0          0          1
234              CIRCULAR     8.50       0          0          0          1
235              CIRCULAR     8.50       0          0          0          1
236              CIRCULAR     8.50       0          0          0          1
238              CIRCULAR     7.33       0          0          0          1
252              HORSESHOE    3.50       2.33       0          0          1
253              HORSESHOE    3.50       2.33       0          0          1
254              HORSESHOE    4.75       3.17       0          0          1
255              CIRCULAR     5.50       0          0          0          1
256              CIRCULAR     5.50       0          0          0          1
257              CIRCULAR     5.50       0          0          0          1
258              CIRCULAR     5.50       0          0          0          1
259              CIRCULAR     5.50       0          0          0          1
260              CIRCULAR     5.50       0          0          0          1
261              CIRCULAR     5.50       0          0          0          1
262              CIRCULAR     5.50       0          0          0          1
263              CIRCULAR     5.50       0          0          0          1
264              CIRCULAR     5.50       0          0          0          1
265              CIRCULAR     5.50       0          0          0          1
266              CIRCULAR     5.50       0          0          0          1
267              CIRCULAR     5.50       0          0          0          1
268              CIRCULAR     5.50       0          0          0          1
600              HORSESHOE    5.00       3.33       0          0          1
601              HORSESHOE    5.00       3.33       0          0          1
602              HORSESHOE    5.00       3.33       0          0          1
603              HORSESHOE    5.00       3.33       0          0          1
610              HORSESHOE    4.50       3.00       0          0          1
611              HORSESHOE    5.00       3.33       0          0          1
612              HORSESHOE    5.00       3.33       0          0          1
614              HORSESHOE    5.00       3.33       0          0          1
615              HORSESHOE    5.00       3.33       0          0          1
616              HORSESHOE    5.00       3.33       0          0          1
617              HORSESHOE    5.00       3.33       0          0          1
520              CIRCULAR     1.50       0          0          0          1
81               CIRCULAR     1.50       0          0          0          1
530              HORSESHOE    4.25       2.83       0          0          1
85               HORSESHOE    4.25       2.83       0          0          1
72610            HORSESHOE    4.50       3.00       0          0          1
d73610           HORSESHOE    4.50       3.00       0          0          1
71050            HORSESHOE    4.75       3.17       0          0          1
d74050           HORSESHOE    4.75       3.17       0          0          1
74051            CIRCULAR     2.00       0          0          0          1
75050            HORSESHOE    4.75       3.17       0          0          1
d78050           HORSESHOE    4.75       3.17       0          0          1
72050            HORSESHOE    2.75       1.83       0          0          1
d77050           HORSESHOE    2.75       1.83       0          0          1
77051            CIRCULAR     1.25       0          0          0          1
77052            CIRCULAR     1.25       0          0          0          1
74610            CIRCULAR     4.00       0          0          0          1
75610            CIRCULAR     5.50       0          0          0          1
79050            CIRCULAR     3.17       0          0          0          1
66050            CIRCULAR     0.67       0          0          0          1
26051            CIRCULAR     3.17       0          0          0          1
72040            HORSESHOE    4.75       3.17       0          0          1
71040            CIRCULAR     5.81       5.50       0          0          1
66040            CIRCULAR     1.25       0          0          0          1
26041            CIRCULAR     5.81       5.50       0          0          1
552              CIRCULAR     1.25       0          0          0          1
87               CIRCULAR     1.25       0          0          0          1
562              CIRCULAR     1.50       0          0          0          1
565              CIRCULAR     1.00       0          0          0          1
572              CIRCULAR     5.50       0          0          0          1
582              CIRCULAR     5.83       0          0          0          1
592              CIRCULAR     6.50       0          0          0          1
71               CIRCULAR     1.00       0          0          0          1
73               CIRCULAR     1.25       0          0          0          1
74               CIRCULAR     1.25       0          0          0          1
75               CIRCULAR     1.00       0          0          0          1
77               CIRCULAR     1.50       0          0          0          1
11001            CIRCULAR     1.25       0          0          0          1
11002            CIRCULAR     1.25       0          0          0          1
11003            CIRCULAR     1.50       0          0          0          1
11004            CIRCULAR     1.50       0          0          0          1
11005            CIRCULAR     1.67       0          0          0          1
11006            CIRCULAR     1.25       0          0          0          1
11007            CIRCULAR     1.67       0          0          0          1
11008            CIRCULAR     1.67       0          0          0          1
x11009           CIRCULAR     1.67       0          0          0          1
11010            CIRCULAR     2.83       0          0          0          1
11011            CIRCULAR     3.83       0          0          0          1
11012            HORSESHOE    4.00       3.83       0          0          1
11013            HORSESHOE    4.00       3.83       0          0          1
11014            CIRCULAR     6.67       0          0          0          1
11015            CIRCULAR     6.67       0          0          0          1
11016            CIRCULAR     6.67       0          0          0          1
11017            CIRCULAR     6.67       0          0          0          1
11018            CIRCULAR     6.67       0          0          0          1
11019            CIRCULAR     6.67       0          0          0          1
11020            CIRCULAR     6.67       0          0          0          1
11021            CIRCULAR     6.67       0          0          0          1
11022            CIRCULAR     6.67       0          0          0          1
11024            CIRCULAR     7.50       0          0          0          1
11026            CIRCULAR     8.33       0          0          0          1
11027            CIRCULAR     8.33       0          0          0          1
11029            CIRCULAR     8.33       0          0          0          1
11030            CIRCULAR     8.33       0          0          0          1
11031            CIRCULAR     9.00       0          0          0          1
11033            CIRCULAR     9.00       0          0          0          1
11034            CIRCULAR     9.00       0          0          0          1
11035            CIRCULAR     9.00       0          0          0          1
11036            CIRCULAR     9.00       0          0          0          1
11037            CIRCULAR     9.00       0          0          0          1
11038            CIRCULAR     9.00       0          0          0          1
11039            CIRCULAR     9.17       0          0          0          1
11040            CIRCULAR     9.17       0          0          0          1
11041            CIRCULAR     9.17       0          0          0          1
11047            CIRCULAR     9.17       0          0          0          1
11048            CIRCULAR     9.17       0          0          0          1
11049            CIRCULAR     9.17       0          0          0          1
26001            CIRCULAR     1.25       0          0          0          1
26002            CIRCULAR     1.25       0          0          0          1
26004            CIRCULAR     1.50       0          0          0          1
26005            CIRCULAR     1.50       0          0          0          1
26006            CIRCULAR     1.50       0          0          0          1
26007            CIRCULAR     1.50       0          0          0          1
26009            CIRCULAR     1.50       0          0          0          1
26010            CIRCULAR     1.50       0          0          0          1
26011            CIRCULAR     1.50       0          0          0          1
26012            CIRCULAR     1.50       0          0          0          1
26013            CIRCULAR     1.83       0          0          0          1
26014            CIRCULAR     1.83       0          0          0          1
26018            HORSESHOE    2.25       1.50       0          0          1
26019            HORSESHOE    2.25       1.50       0          0          1
26020            HORSESHOE    2.25       1.50       0          0          1
26021            HORSESHOE    2.25       1.50       0          0          1
26022            HORSESHOE    2.25       1.50       0          0          1
26025            HORSESHOE    2.25       1.50       0          0          1
26026            HORSESHOE    2.50       1.67       0          0          1
26027            HORSESHOE    2.50       1.67       0          0          1
26028            HORSESHOE    2.50       1.67       0          0          1
26029            HORSESHOE    2.50       1.67       0          0          1
26030            HORSESHOE    2.50       1.67       0          0          1
26031            HORSESHOE    2.50       1.67       0          0          1
26032            HORSESHOE    2.50       1.67       0          0          1
26033            HORSESHOE    2.50       1.67       0          0          1
26034            HORSESHOE    2.50       1.67       0          0          1
26035            HORSESHOE    2.50       1.67       0          0          1
26037            HORSESHOE    2.75       1.83       0          0          1
26038            HORSESHOE    2.75       1.83       0          0          1
26039            HORSESHOE    2.75       1.83       0          0          1
26040            HORSESHOE    3.25       2.17       0          0          1
26041_2          HORSESHOE    3.25       2.17       0          0          1
26042            HORSESHOE    3.25       2.17       0          0          1
26043            HORSESHOE    3.25       2.17       0          0          1
26044            HORSESHOE    3.25       2.17       0          0          1
26045            HORSESHOE    3.25       2.17       0          0          1
26046            HORSESHOE    3.25       2.17       0          0          1
26047            HORSESHOE    3.25       2.17       0          0          1
26048            HORSESHOE    3.25       2.17       0          0          1
26049            HORSESHOE    3.25       2.17       0          0          1
26050            HORSESHOE    3.25       2.17       0          0          1
26051_2          HORSESHOE    3.25       2.17       0          0          1
26052            HORSESHOE    3.25       2.17       0          0          1
26053            HORSESHOE    3.25       2.17       0          0          1
26054            HORSESHOE    3.50       2.33       0          0          1
26055            HORSESHOE    3.50       2.33       0          0          1
26057            HORSESHOE    3.50       2.33       0          0          1
26058            HORSESHOE    3.50       2.33       0          0          1
26059            HORSESHOE    3.50       2.33       0          0          1
x26060           HORSESHOE    3.50       2.33       0          0          1
90101            CIRCULAR     2.25       0          0          0          1
90201            CIRCULAR     2.40       0          0          0          1
x90301           CIRCULAR     5.83       0          0          0          1
90302            CIRCULAR     4.33       0          0          0          1
x90401           CIRCULAR     2.00       0          0          0          1
26024            CIRCULAR     0.50       0          0          0          1
x90501           CIRCULAR     1.83       0          0          0          1
90502            CIRCULAR     0.97       0          0          0          1
90503            CIRCULAR     1.15       0          0          0          1
x90601           CIRCULAR     1.00       0          0          0          1
90603            CIRCULAR     0.50       0          0          0          1
x90701           CIRCULAR     2.17       0          0          0          1
x90801           CIRCULAR     1.89       0          0          0          1
90802            CIRCULAR     1.60       0          0          0          1
x90901           CIRCULAR     2.19       0          0          0          1
90902            CIRCULAR     0.67       0          0          0          1
x91001           CIRCULAR     2.40       0          0          0          1
91002            CIRCULAR     0.50       0          0          0          1
91003            CIRCULAR     1.25       0          0          0          1
91103            HORSESHOE    5.75       3.83       0          0          1
91301            CIRCULAR     1.25       0          0          0          1
x91401           CIRCULAR     2.10       0          0          0          1
91402            CIRCULAR     2.00       0          0          0          1
x91501           CIRCULAR     3.33       0          0          0          1
91502            CIRCULAR     0.50       0          0          0          1
91601            CIRCULAR     4.33       0          0          0          1
x91701           CIRCULAR     3.00       0          0          0          1
91702            CIRCULAR     0.67       0          0          0          1
91801            CIRCULAR     3.00       0          0          0          1
x91901           CIRCULAR     3.00       0          0          0          1
91902            CIRCULAR     3.00       0          0          0          1
92001            CIRCULAR     2.00       0          0          0          1
11050            CIRCULAR     2.50       0          0          0          1
11052            CIRCULAR     1.50       0          0          0          1
11051            CIRCULAR     9.17       0          0          0          1
cross-conn       CIRCULAR     0.83       0          0          0          1
219i             CIRCULAR     1.00       0          0          0          1
a14219           CIRCULAR     4.00       0          0          0          1
220i             CIRCULAR     1.00       0          0          0          1
221i             CIRCULAR     0.67       0          0          0          1
222i             CIRCULAR     1.83       0          0          0          1
223i             CIRCULAR     0.67       0          0          0          1
a14223           HORSESHOE    6.00       3.50       0          0          1
224i             CIRCULAR     0.67       0          0          0          1
a360024          CIRCULAR     3.00       0          0          0          1
360025           CIRCULAR     3.00       0          0          0          1
225i             CIRCULAR     0.67       0          0          0          1
250              CIRCULAR     3.50       2.33       0          0          1
83w              CIRCULAR     5.50       0          0          0          1
d83              CIRCULAR     5.50       0          0          0          1
604              HORSESHOE    5.00       3.33       0          0          1
84               CIRCULAR     4.00       0          0          0          1
90402            CIRCULAR     1.00       0          0          0          1
90602            CIRCULAR     1.00       0          0          0          1
90702            CIRCULAR     1.50       0          0          0          1
90017s           CIRCULAR     0.83       0          0          0          1
90018s           CIRCULAR     0.94       0          0          0          1
90019w           CIRCULAR     2.83       0          0          0          1
91101            CIRCULAR     4.50       3.33       0          0          1
91201            CIRCULAR     4.50       0          0          0          1
91104            HORSESHOE    2.00       1.33       0          0          1
90024w           CIRCULAR     1.00       0          0          0          1
a36026           CIRCULAR     3.00       0          0          0          1
36027            CIRCULAR     3.00       0          0          0          1
36028            CIRCULAR     3.33       0          0          0          1
a1299            HORSESHOE    3.50       2.33       0          0          1
1202             HORSESHOE    3.50       2.33       0          0          1
12001i           CIRCULAR     1.00       0          0          0          1
13001i           CIRCULAR     1.00       0          0          0          1
91503            CIRCULAR     1.50       0          0          0          1
91703            CIRCULAR     2.33       0          0          0          1
a226i            CIRCULAR     0.67       0          0          0          1
15001i           CIRCULAR     0.67       0          0          0          1
16001i           CIRCULAR     1.00       0          0          0          1
3099             CIRCULAR     2.00       0          0          0          1
a3098            CIRCULAR     2.00       0          0          0          1
31001i           CIRCULAR     0.67       0          0          0          1
a1699i           HORSESHOE    3.00       2.00       0          0          1
1699             CIRCULAR     2.50       0          0          0          1
72125            HORSESHOE    6.00       4.17       0          0          1
3001             CIRCULAR     1.50       0          0          0          1
4001_2           CIRCULAR     3.00       0          0          0          1
4224             RECT_CLOSED  2.17       4.02       0          0          1
a32001i          CIRCULAR     1.25       0          0          0          1
32001z           CIRCULAR     1.33       0          0          0          1
33001i           CIRCULAR     0.67       0          0          0          1
34001i           CIRCULAR     0.67       0          0          0          1
3499             CIRCULAR     2.33       0          0          0          1
35001i           CIRCULAR     1.00       0          0          0          1
a36010i          CIRCULAR     1.25       0          0          0          1
3611             CIRCULAR     1.50       0          0          0          1
36020i           CIRCULAR     1.00       0          0          0          1
36030i           CIRCULAR     1.00       0          0          0          1
36040i           CIRCULAR     1.25       0          0          0          1
37001i           CIRCULAR     1.25       0          0          0          1
3704             CIRCULAR     2.83       0          0          0          1
39001i           CIRCULAR     1.00       0          0          0          1
56001i           CIRCULAR     0.67       0          0          0          1
023              CIRCULAR     2.00       0          0          0          1
8030             CIRCULAR     1.00       0          0          0          1
20070            CIRCULAR     2.13       0          0          0          1
1078             CIRCULAR     2.50       0          0          0          1
1127             CIRCULAR     4.64       0          0          0          1
151s50           CIRCULAR     0.50       0          0          0          1
148s47           CIRCULAR     0.50       0          0          0          1
157s56           CIRCULAR     0.50       0          0          0          1
136s37           CIRCULAR     1.50       0          0          0          1
139s39           CIRCULAR     0.67       0          0          0          1
153s52           CIRCULAR     0.50       0          0          0          1
121s21           CIRCULAR     0.50       0          0          0          1
11053            CIRCULAR     1.50       0          0          0          1
46002_2          CIRCULAR     4.16       0          0          0          1
58002            CIRCULAR     3.00       0          0          0          1
44001            CIRCULAR     2.50       0          0          0          1
44002            CIRCULAR     3.50       0          0          0          1
42002_2          CIRCULAR     3.50       0          0          0          1
44003            CIRCULAR     4.00       0          0          0          1
44004            CIRCULAR     4.00       0          0          0          1
48002_2          CIRCULAR     2.31       0          0          0          1
53514            CIRCULAR     6.50       0          0          0          1
53512            CIRCULAR     4.67       0          0          0          1
53513            CIRCULAR     7.14       8.00       0          0          1
3501             CIRCULAR     5.33       0          0          0          1
53506            CIRCULAR     4.00       0          0          0          1
53508            CIRCULAR     4.50       0          0          0          1
53507            CIRCULAR     4.00       0          0          0          1
51002            CIRCULAR     4.00       0          0          0          1
53509            CIRCULAR     4.00       0          0          0          1
54230            CIRCULAR     5.00       0          0          0          1
54234            CIRCULAR     6.50       0          0          0          1
54231            CIRCULAR     3.00       0          0          0          1
4232             CIRCULAR     3.00       0          0          0          1
4222             CIRCULAR     4.17       0          0          0          1
54223            CIRCULAR     4.00       0          0          0          1
54226            CIRCULAR     5.00       0          0          0          1
54227            CIRCULAR     3.00       0          0          0          1
54233            CIRCULAR     3.50       0          0          0          1
45003            CIRCULAR     5.83       0          0          0          1
92003            CIRCULAR     4.00       0          0          0          1
92006            CIRCULAR     4.33       0          0          0          1
92007            CIRCULAR     5.00       0          0          0          1
92008            CIRCULAR     3.00       0          0          0          1
92009            CIRCULAR     5.83       0          0          0          1
45005            CIRCULAR     5.83       0          0          0          1
2112             CIRCULAR     3.00       0          0          0          1
65001            CIRCULAR     1.23       0          0          0          1
d7059            CIRCULAR     4.00       0          0          0          1
a2059            CIRCULAR     3.00       0          0          0          1
a2060            CIRCULAR     7.00       0          0          0          1
a2062            CIRCULAR     7.00       0          0          0          1
a2064            CIRCULAR     7.00       0          0          0          1
a2061            CIRCULAR     1.00       0          0          0          1
a2066            CIRCULAR     7.00       0          0          0          1
2067             CIRCULAR     1.25       0          0          0          1
2068             CIRCULAR     2.67       0          0          0          1
a2065            CIRCULAR     2.67       0          0          0          1
a2063            CIRCULAR     5.50       0          0          0          1
UL2              RECT_CLOSED  1.62       1.62       0          0
UL4              RECT_CLOSED  1.73       1.73       0          0
UL5              RECT_CLOSED  1.15       1.15       0          0
53A              RECT_CLOSED  1.18       1.18       0          0
53b              RECT_CLOSED  1.25       1.25       0          0
UL8              RECT_CLOSED  1.22       1.22       0          0
UL11             RECT_CLOSED  1.04       1.04       0          0
UL12             RECT_CLOSED  0.82       0.82       0          0
UL13             RECT_CLOSED  0.94       0.94       0          0
UL14             RECT_CLOSED  0.89       0.89       0          0
UL15             RECT_CLOSED  0.44       0.44       0          0
MUL16            RECT_CLOSED  1.00       1.00       0          0
MUL17            RECT_CLOSED  1.00       1.00       0          0
MUL18            RECT_CLOSED  1.00       1.00       0          0
UL19             RECT_CLOSED  1.62       1.62       0          0
UL20             RECT_CLOSED  1.53       1.53       0          0
UL21             RECT_CLOSED  1.63       1.63       0          0
UL22             RECT_CLOSED  1.33       1.33       0          0
MUL23            RECT_CLOSED  0.89       0.89       0          0
MUL24            RECT_CLOSED  0.59       0.59       0          0
MUL25            RECT_CLOSED  0.44       0.44       0          0
MUL26            RECT_CLOSED  0.44       0.44       0          0
UL27             RECT_CLOSED  0.44       0.44       0          0
29001sor         RECT_CLOSED  0.45       0.45       0          0
UL38             RECT_CLOSED  0.62       0.62       0          0
UL39             RECT_CLOSED  1.83       1.83       0          0
UL40             RECT_CLOSED  1.41       1.41       0          0
UL41             RECT_CLOSED  0.82       0.82       0          0
UL43             RECT_CLOSED  0.80       0.80       0          0
UL44             RECT_CLOSED  1.10       1.10       0          0
UL45             RECT_CLOSED  2.87       2.87       0          0
UL66             RECT_CLOSED  1.33       1.33       0          0
UL67             RECT_CLOSED  0.73       0.73       0          0
UL68             RECT_CLOSED  0.89       0.89       0          0
UL69             RECT_CLOSED  0.89       0.89       0          0
MUL73            RECT_CLOSED  4.09       4.09       0          0
a219sor          RECT_CLOSED  1.15       1.15       0          0
a220sor          RECT_CLOSED  0.89       0.89       0          0
a221sor          RECT_CLOSED  0.81       0.81       0          0
a222sor          RECT_CLOSED  0.89       0.89       0          0
a223sor          RECT_CLOSED  0.99       0.99       0          0
a224sor          RECT_CLOSED  0.81       0.81       0          0
a226sor          RECT_CLOSED  0.82       0.82       0          0
a225sor          RECT_CLOSED  1.15       1.15       0          0
MUL24W           RECT_CLOSED  2.83       2.83       0          0
MULx17s          RECT_CLOSED  1.15       1.15       0          0
MULx18s          RECT_CLOSED  0.82       0.82       0          0
a12001sor        RECT_CLOSED  0.94       0.94       0          0
a13001sor        RECT_CLOSED  0.82       0.82       0          0
a15001sor        RECT_CLOSED  0.62       0.62       0          0
a16001sor        RECT_CLOSED  0.71       0.71       0          0
30001sor         RECT_CLOSED  0.89       0.89       0          0
a31001sor        RECT_CLOSED  0.71       0.71       0          0
a225weir         RECT_CLOSED  3.76       3.76       0          0
a32001sor        RECT_CLOSED  1.41       1.41       0          0
a33001sor        RECT_CLOSED  0.91       0.91       0          0
a34001sor        RECT_CLOSED  1.35       1.35       0          0
a35001sor        RECT_CLOSED  1.41       1.41       0          0
a36010sor        RECT_CLOSED  1.11       1.11       0          0
a36020sor        RECT_CLOSED  0.89       0.89       0          0
a36030sor        RECT_CLOSED  0.71       0.71       0          0
a36040sor        RECT_CLOSED  1.11       1.11       0          0
a37001sor        RECT_CLOSED  0.99       0.99       0          0
a39001sor        RECT_CLOSED  2.45       2.45       0          0
a56001sor        RECT_CLOSED  0.85       0.85       0          0
5429o            RECT_CLOSED  0.89       0.89       0          0
5421ow           RECT_CLOSED  0.89       0.89       0          0
2116             RECT_CLOSED  1.62       1.62       0          0
UL3              RECT_OPEN    1.00       5.00       0          0
UL53             RECT_OPEN    1.00       3.00       0          0
UL54             RECT_OPEN    1.00       1.50       0          0
UL56             RECT_OPEN    1.00       1.50       0          0
UL57             RECT_OPEN    1.00       1.50       0          0
UL58             RECT_OPEN    1.00       1.50       0          0
MUL60            RECT_OPEN    1.00       8.50       0          0
UL61             RECT_OPEN    1.00       9.50       0          0
UL62             RECT_OPEN    1.00       9.50       0          0
UL63             RECT_OPEN    1.00       2.50       0          0
UL64             RECT_OPEN    1.00       4.00       0          0
UL71             TRIANGULAR   1.00       10.00      0          0
UL72             TRIANGULAR   1.00       2.75       0          0
MUL74            RECT_OPEN    1.00       3.17       0          0
UL78             RECT_OPEN    1.00       9.17       0          0
a219weir         RECT_OPEN    1.00       4.00       0          0
a223weir         RECT_OPEN    1.00       3.67       0          0
MUL23W           RECT_OPEN    1.00       5.50       0          0
MULx16w          TRIANGULAR   1.00       4.00       0          0
MULx17w          RECT_OPEN    1.00       4.00       0          0
MULx19w          TRIANGULAR   1.00       5.90       0          0
MULx24w          RECT_OPEN    1.00       4.00       0          0
MULx25w          TRIANGULAR   1.00       6.00       0          0
MULx27w          RECT_OPEN    1.00       2.33       0          0
350w             RECT_OPEN    1.00       4.00       0          0
5500wer          RECT_OPEN    1.00       2.67       0          0
a34001weir       RECT_OPEN    1.00       2.33       0          0
4601w            RECT_OPEN    1.00       140.00     0          0
4100sw           TRIANGULAR   1.00       10.00      0          0
4100tw           RECT_OPEN    1.00       10.00      0          0
5307sw           TRIANGULAR   1.00       5.00       0          0
5429w            RECT_OPEN    1.00       5.76       0          0
5421smw          RECT_OPEN    1.00       10.50      0          0
5423w            RECT_OPEN    1.00       10.00      0          0
5312w            RECT_OPEN    1.00       300.00     0          0
4511w            RECT_OPEN    1.00       120.00     0          0
CWEST54/55       RECT_OPEN    1.00       180.00     0          0
2111             RECT_OPEN    1.00       180.00     0          0
d150w            TRIANGULAR   1.00       15.00      0          0
of62w            RECT_OPEN    1.00       1.25       0          0
2145             RECT_OPEN    1.00       4.00       0          0

[LOSSES]
;;Link           Inlet      Outlet     Average    Flap Gate
;;-------------- ---------- ---------- ---------- ----------
Link_1           0          0          0          NO
53500            0          0          0          NO
83300            0          0          0          NO
53005            0          0          0          NO
53502            0          0          0          NO
53504            0          0          0          NO
83200            0          0          0          NO
83100            0          0          0          NO
83050            0          0          0          NO
83000            0          0          0          NO
51000            0          0          0          NO
81500            0          0          0          NO
81510            0          0          0          NO
81520            0          0          0          NO
81530            0          0          0          NO
81100            0          0          0          NO
81050            0          0          0          NO
81000            0          0          0          NO
49900            0          0          0          NO
49800            0          0          0          NO
49700            0          0          0          NO
49600            0          0          0          NO
49500            0          0          0          NO
49400            0          0          0          NO
49300            0          0          0          NO
49200            0          0          0          NO
88000            0          0          0          NO
86000            0          0          0          NO
55000            0          0          0          NO
85550            0          0          0          NO
85500            0          0          0          NO
85250            0          0          0          NO
85000            0          0          0          NO
84750            0          0          0          NO
54221            0          0          0          NO
84550            0          0          0          NO
84500            0          0          0          NO
84250            0          0          0          NO
84000            0          0          0          NO
52500            0          0          0          NO
52502            0          0          0          NO
82500            0          0          0          NO
82000            0          0          0          NO
80500            0          0          0          NO
50050            0          0          0          NO
50052            0          0          0          NO
50000            0          0          0          NO
80000            0          0          0          NO
49160            0          0          0          NO
49430            0          0          0          NO
49120            0          0          0          NO
49100            0          0          0          NO
49050            0          0          0          NO
49000            0          0          0          NO
42500            0          0          0          NO
53511            0          0          0          NO
42000            0          0          0          NO
41500            0          0          0          NO
41000            0          0          0          NO
40010            0          0          0          NO
10000            0          0          0          NO
88100            0          0          0          NO
88200            0          0          0          NO
88300            0          0          0          NO
88400            0          0          0          NO
88500            0          0          0          NO
88600            0          0          0          NO
88610            0          0          0          NO
88620            0          0          0          NO
88630            0          0          0          NO
8640             0          0          0          NO
8650             0          0          0          NO
8660             0          0          0          NO
8670             0          0          0          NO
8700             0          0          0          NO
8800             0          0          0          NO
8900             0          0          0          NO
7050             0          0          0          NO
1006             0          0          0          NO
1007             0          0          0          NO
1015             0          0          0          NO
1016             0          0          0          NO
1017             0          0          0          NO
1018             0          0          0          NO
1019             0          0          0          NO
1020             0          0          0          NO
1023             0          0          0          NO
1024             0          0          0          NO
1027             0          0          0          NO
1028             0          0          0          NO
1031             0          0          0          NO
1032             0          0          0          NO
1033             0          0          0          NO
1047             0          0          0          NO
1050             0          0          0          NO
1051             0          0          0          NO
1052             0          0          0          NO
1053             0          0          0          NO
1054             0          0          0          NO
1057             0          0          0          NO
1058             0          0          0          NO
1061             0          0          0          NO
1064             0          0          0          NO
1065             0          0          0          NO
1069             0          0          0          NO
21075            0          0          0          NO
1079             0          0          0          NO
1081             0          0          0          NO
1082             0          0          0          NO
1085             0          0          0          NO
1088             0          0          0          NO
1090             0          0          0          NO
1000             0          0          0          NO
1002             0          0          0          NO
1003             0          0          0          NO
1004             0          0          0          NO
1005             0          0          0          NO
1008             0          0          0          NO
1012             0          0          0          NO
1021             0          0          0          NO
6101             0          0          0          NO
46001            0          0          0          NO
1025             0          0          0          NO
6201             0          0          0          NO
1029             0          0          0          NO
8001             0          0          0          NO
1100             0          0          0          NO
1105             0          0          0          NO
1110             0          0          0          NO
1115             0          0          0          NO
1120             0          0          0          NO
1125             0          0          0          NO
1130             0          0          0          NO
1135             0          0          0          NO
1140             0          0          0          NO
1145             0          0          0          NO
1150             0          0          0          NO
1155             0          0          0          NO
1160             0          0          0          NO
1034             0          0          0          NO
1037             0          0          0          NO
2004             0          0          0          NO
1041             0          0          0          NO
1035             0          0          0          NO
1042             0          0          0          NO
1043             0          0          0          NO
1044             0          0          0          NO
1048             0          0          0          NO
92005            0          0          0          NO
5001             0          0          0          NO
5002             0          0          0          NO
45004            0          0          0          NO
1055             0          0          0          NO
21056            0          0          0          NO
1059             0          0          0          NO
43001            0          0          0          NO
1062             0          0          0          NO
42001            0          0          0          NO
1067             0          0          0          NO
41001            0          0          0          NO
1070             0          0          0          NO
1071             0          0          0          NO
7100             0          0          0          NO
7150             0          0          0          NO
7200             0          0          0          NO
7250             0          0          0          NO
7300             0          0          0          NO
7350             0          0          0          NO
7400             0          0          0          NO
7450             0          0          0          NO
7500             0          0          0          NO
7550             0          0          0          NO
7600             0          0          0          NO
7650             0          0          0          NO
7700             0          0          0          NO
48002            0          0          0          NO
48003            0          0          0          NO
48004            0          0          0          NO
48005            0          0          0          NO
48006            0          0          0          NO
101102           0          0          0          NO
102103           0          0          0          NO
15003            0          0          0          NO
15004            0          0          0          NO
15006            0          0          0          NO
15007            0          0          0          NO
15009            0          0          0          NO
15010            0          0          0          NO
15011            0          0          0          NO
15012            0          0          0          NO
15013            0          0          0          NO
15216            0          0          0          NO
15217            0          0          0          NO
15218            0          0          0          NO
15219            0          0          0          NO
15220            0          0          0          NO
15221            0          0          0          NO
a15222           0          0          0          NO
36013            0          0          0          NO
36015            0          0          0          NO
36018            0          0          0          NO
36019            0          0          0          NO
4243             0          0          0          NO
4344             0          0          0          NO
4445             0          0          0          NO
4546             0          0          0          NO
36024            0          0          0          NO
40002            0          0          0          NO
40003            0          0          0          NO
40004            0          0          0          NO
40005            0          0          0          NO
40006            0          0          0          NO
5657             0          0          0          NO
40008            0          0          0          NO
40009            0          0          0          NO
40010_2          0          0          0          NO
40011            0          0          0          NO
40012            0          0          0          NO
40013            0          0          0          NO
40014            0          0          0          NO
40015            0          0          0          NO
40016            0          0          0          NO
40017            0          0          0          NO
40018            0          0          0          NO
40019            0          0          0          NO
40020            0          0          0          NO
42001_2          0          0          0          NO
42002            0          0          0          NO
42003            0          0          0          NO
42004            0          0          0          NO
42005            0          0          0          NO
42006            0          0          0          NO
42007            0          0          0          NO
42008            0          0          0          NO
46001_2          0          0          0          NO
46002            0          0          0          NO
46003            0          0          0          NO
46004            0          0          0          NO
46005            0          0          0          NO
46006            0          0          0          NO
46007            0          0          0          NO
50001            0          0          0          NO
50003            0          0          0          NO
50004            0          0          0          NO
50005            0          0          0          NO
50006            0          0          0          NO
50007            0          0          0          NO
50008            0          0          0          NO
50009            0          0          0          NO
50010            0          0          0          NO
50011            0          0          0          NO
1003_2           0          0          0          NO
1004_2           0          0          0          NO
4819             0          0          0          NO
3620             0          0          0          NO
2221             0          0          0          NO
4522             0          0          0          NO
6623             0          0          0          NO
1224             0          0          0          NO
7225             0          0          0          NO
1226             0          0          0          NO
48001            0          0          0          NO
a14218           0          0          0          NO
14122            0          0          0          NO
a14222           0          0          0          NO
a72225           0          0          0          NO
48007            0          0          0          NO
3601             0          0          0          NO
3602             0          0          0          NO
3612             0          0          0          NO
3613             0          0          0          NO
3622             0          0          0          NO
3623             0          0          0          NO
3624             0          0          0          NO
3625             0          0          0          NO
3632             0          0          0          NO
3633             0          0          0          NO
3642             0          0          0          NO
3694             0          0          0          NO
3695             0          0          0          NO
3696             0          0          0          NO
3697             0          0          0          NO
3698             0          0          0          NO
3699             0          0          0          NO
3705             0          0          0          NO
3799             0          0          0          NO
1033_2           0          0          0          NO
1036             0          0          0          NO
1043_2           0          0          0          NO
5602             0          0          0          NO
5603             0          0          0          NO
5699             0          0          0          NO
2001             0          0          0          NO
2003             0          0          0          NO
2005             0          0          0          NO
2007             0          0          0          NO
2008             0          0          0          NO
2009             0          0          0          NO
2000             0          0          0          NO
2016             0          0          0          NO
2017             0          0          0          NO
2028             0          0          0          NO
2031             0          0          0          NO
2034             0          0          0          NO
4001             0          0          0          NO
4007             0          0          0          NO
1205             0          0          0          NO
1302             0          0          0          NO
1399             0          0          0          NO
1502             0          0          0          NO
1503             0          0          0          NO
1599             0          0          0          NO
1602             0          0          0          NO
1603             0          0          0          NO
1604             0          0          0          NO
1605             0          0          0          NO
1606             0          0          0          NO
2901             0          0          0          NO
2903             0          0          0          NO
3002             0          0          0          NO
3102             0          0          0          NO
3103             0          0          0          NO
3203             0          0          0          NO
3204             0          0          0          NO
3205             0          0          0          NO
3206             0          0          0          NO
3207             0          0          0          NO
3208             0          0          0          NO
3209             0          0          0          NO
3210             0          0          0          NO
3211             0          0          0          NO
3212             0          0          0          NO
3213             0          0          0          NO
3214             0          0          0          NO
3215             0          0          0          NO
3216             0          0          0          NO
3217             0          0          0          NO
3218             0          0          0          NO
3219             0          0          0          NO
3220             0          0          0          NO
3221             0          0          0          NO
3299             0          0          0          NO
3302             0          0          0          NO
3399             0          0          0          NO
3402             0          0          0          NO
3403             0          0          0          NO
3502             0          0          0          NO
3599             0          0          0          NO
3803             0          0          0          NO
a3804            0          0          0          NO
3808             0          0          0          NO
3809             0          0          0          NO
3810             0          0          0          NO
3899             0          0          0          NO
3902             0          0          0          NO
3903             0          0          0          NO
3904             0          0          0          NO
3996             0          0          0          NO
3997             0          0          0          NO
3998             0          0          0          NO
3999             0          0          0          NO
1002_2           0          0          0          NO
1012_2           0          0          0          NO
1013             0          0          0          NO
1014             0          0          0          NO
1018_2           0          0          0          NO
1020_2           0          0          0          NO
1022             0          0          0          NO
1023_2           0          0          0          NO
1024_2           0          0          0          NO
1027_2           0          0          0          NO
a1030            0          0          0          NO
1207             0          0          0          NO
1001             0          0          0          NO
200              0          0          0          NO
201              0          0          0          NO
202              0          0          0          NO
203              0          0          0          NO
204              0          0          0          NO
205              0          0          0          NO
206              0          0          0          NO
207              0          0          0          NO
208              0          0          0          NO
209              0          0          0          NO
210              0          0          0          NO
211              0          0          0          NO
212              0          0          0          NO
213              0          0          0          NO
214              0          0          0          NO
215              0          0          0          NO
216              0          0          0          NO
217              0          0          0          NO
218              0          0          0          NO
219              0          0          0          NO
220              0          0          0          NO
221              0          0          0          NO
222              0          0          0          NO
223              0          0          0          NO
224              0          0          0          NO
225              0          0          0          NO
226              0          0          0          NO
227              0          0          0          NO
228              0          0          0          NO
229              0          0          0          NO
230              0          0          0          NO
231              0          0          0          NO
232              0          0          0          NO
233              0          0          0          NO
234              0          0          0          NO
235              0          0          0          NO
236              0          0          0          NO
238              0          0          0          NO
252              0          0          0          NO
253              0          0          0          NO
254              0          0          0          NO
255              0          0          0          NO
256              0          0          0          NO
257              0          0          0          NO
258              0          0          0          NO
259              0          0          0          NO
260              0          0          0          NO
261              0          0          0          NO
262              0          0          0          NO
263              0          0          0          NO
264              0          0          0          NO
265              0          0          0          NO
266              0          0          0          NO
267              0          0          0          NO
268              0          0          0          NO
600              0          0          0          NO
601              0          0          0          NO
602              0          0          0          NO
603              0          0          0          NO
610              0          0          0          NO
611              0          0          0          NO
612              0          0          0          NO
614              0          0          0          NO
615              0          0          0          NO
616              0          0          0          NO
617              0          0          0          NO
520              0          0          0          NO
81               0          0          0          NO
530              0          0          0          NO
85               0          0          0          NO
72610            0          0          0          NO
d73610           0          0          0          NO
71050            0          0          0          NO
d74050           0          0          0          NO
74051            0          0          0          NO
75050            0          0          0          NO
d78050           0          0          0          NO
72050            0          0          0          NO
d77050           0          0          0          NO
77051            0          0          0          NO
77052            0          0          0          NO
74610            0          0          0          NO
75610            0          0          0          NO
79050            0          0          0          NO
66050            0          0          0          NO
26051            0          0          0          NO
72040            0          0          0          NO
71040            0          0          0          NO
66040            0          0          0          NO
26041            0          0          0          NO
552              0          0          0          NO
87               0          0          0          NO
562              0          0          0          NO
565              0          0          0          NO
572              0          0          0          NO
582              0          0          0          NO
592              0          0          0          NO
71               0          0          0          NO
73               0          0          0          NO
74               0          0          0          NO
75               0          0          0          NO
77               0          0          0          NO
11001            0          0          0          NO
11002            0          0          0          NO
11003            0          0          0          NO
11004            0          0          0          NO
11005            0          0          0          NO
11006            0          0          0          NO
11007            0          0          0          NO
11008            0          0          0          NO
x11009           0          0          0          NO
11010            0          0          0          NO
11011            0          0          0          NO
11012            0          0          0          NO
11013            0          0          0          NO
11014            0          0          0          NO
11015            0          0          0          NO
11016            0          0          0          NO
11017            0          0          0          NO
11018            0          0          0          NO
11019            0          0          0          NO
11020            0          0          0          NO
11021            0          0          0          NO
11022            0          0          0          NO
11024            0          0          0          NO
11026            0          0          0          NO
11027            0          0          0          NO
11029            0          0          0          NO
11030            0          0          0          NO
11031            0          0          0          NO
11033            0          0          0          NO
11034            0          0          0          NO
11035            0          0          0          NO
11036            0          0          0          NO
11037            0          0          0          NO
11038            0          0          0          NO
11039            0          0          0          NO
11040            0          0          0          NO
11041            0          0          0          NO
11047            0          0          0          NO
11048            0          0          0          NO
11049            0          0          0          NO
26001            0          0          0          NO
26002            0          0          0          NO
26004            0          0          0          NO
26005            0          0          0          NO
26006            0          0          0          NO
26007            0          0          0          NO
26009            0          0          0          NO
26010            0          0          0          NO
26011            0          0          0          NO
26012            0          0          0          NO
26013            0          0          0          NO
26014            0          0          0          NO
26018            0          0          0          NO
26019            0          0          0          NO
26020            0          0          0          NO
26021            0          0          0          NO
26022            0          0          0          NO
26025            0          0          0          NO
26026            0          0          0          NO
26027            0          0          0          NO
26028            0          0          0          NO
26029            0          0          0          NO
26030            0          0          0          NO
26031            0          0          0          NO
26032            0          0          0          NO
26033            0          0          0          NO
26034            0          0          0          NO
26035            0          0          0          NO
26037            0          0          0          NO
26038            0          0          0          NO
26039            0          0          0          NO
26040            0          0          0          NO
26041_2          0          0          0          NO
26042            0          0          0          NO
26043            0          0          0          NO
26044            0          0          0          NO
26045            0          0          0          NO
26046            0          0          0          NO
26047            0          0          0          NO
26048            0          0          0          NO
26049            0          0          0          NO
26050            0          0          0          NO
26051_2          0          0          0          NO
26052            0          0          0          NO
26053            0          0          0          NO
26054            0          0          0          NO
26055            0          0          0          NO
26057            0          0          0          NO
26058            0          0          0          NO
26059            0          0          0          NO
x26060           0          0          0          NO
90101            0          0          0          NO
90201            0          0          0          NO
x90301           0          0          0          NO
90302            0          0          0          NO
x90401           0          0          0          NO
26024            0          0          0          NO
x90501           0          0          0          NO
90502            0          0          0          NO
90503            0          0          0          NO
x90601           0          0          0          NO
90603            0          0          0          NO
x90701           0          0          0          NO
x90801           0          0          0          NO
90802            0          0          0          NO
x90901           0          0          0          NO
90902            0          0          0          NO
x91001           0          0          0          NO
91002            0          0          0          NO
91003            0          0          0          NO
91103            0          0          0          NO
91301            0          0          0          NO
x91401           0          0          0          NO
91402            0          0          0          NO
x91501           0          0          0          NO
91502            0          0          0          NO
91601            0          0          0          NO
x91701           0          0          0          NO
91702            0          0          0          NO
91801            0          0          0          NO
x91901           0          0          0          NO
91902            0          0          0          NO
92001            0          0          0          NO
11050            0          0          0          NO
11052            0          0          0          NO
11051            0          0          0          NO
cross-conn       0          0          0          NO
219i             0          0          0          NO
a14219           0          0          0          NO
220i             0          0          0          NO
221i             0          0          0          NO
222i             0          0          0          NO
223i             0          0          0          NO
a14223           0          0          0          NO
224i             0          0          0          NO
a360024          0          0          0          NO
360025           0          0          0          NO
225i             0          0          0          NO
250              0          0          0          NO
83w              0          0          0          NO
d83              0          0          0          NO
604              0          0          0          NO
84               0          0          0          NO
90402            0          0          0          NO
90602            0          0          0          NO
90702            0          0          0          NO
90017s           0          0          0          NO
90018s           0          0          0          NO
90019w           0          0          0          NO
91101            0          0          0          NO
91201            0          0          0          NO
91104            0          0          0          NO
90024w           0          0          0          NO
a36026           0          0          0          NO
36027            0          0          0          NO
36028            0          0          0          NO
a1299            0          0          0          NO
1202             0          0          0          NO
12001i           0          0          0          NO
13001i           0          0          0          NO
91503            0          0          0          NO
91703            0          0          0          NO
a226i            0          0          0          NO
15001i           0          0          0          NO
16001i           0          0          0          NO
3099             0          0          0          NO
a3098            0          0          0          NO
31001i           0          0          0          NO
a1699i           0          0          0          NO
1699             0          0          0          NO
72125            0          0          0          NO
3001             0          0          0          NO
4001_2           0          0          0          NO
4224             0          0          0          NO
a32001i          0          0          0          NO
32001z           0          0          0          NO
33001i           0          0          0          NO
34001i           0          0          0          NO
3499             0          0          0          NO
35001i           0          0          0          NO
a36010i          0          0          0          NO
3611             0          0          0          NO
36020i           0          0          0          NO
36030i           0          0          0          NO
36040i           0          0          0          NO
37001i           0          0          0          NO
3704             0          0          0          NO
39001i           0          0          0          NO
56001i           0          0          0          NO
023              0          0          0          NO
8030             0          0          0          NO
20070            0          0          0          NO
1078             0          0          0          NO
1127             0          0          0          NO
151s50           0          0          0          NO
148s47           0          0          0          NO
157s56           0          0          0          NO
136s37           0          0          0          NO
139s39           0          0          0          NO
153s52           0          0          0          NO
121s21           0          0          0          NO
11053            0          0          0          NO
46002_2          0          0          0          NO
58002            0          0          0          NO
44001            0          0          0          NO
44002            0          0          0          NO
42002_2          0          0          0          NO
44003            0          0          0          NO
44004            0          0          0          NO
48002_2          0          0          0          NO
53514            0          0          0          NO
53512            0          0          0          NO
53513            0          0          0          NO
3501             0          0          0          NO
53506            0          0          0          NO
53508            0          0          0          NO
53507            0          0          0          NO
51002            0          0          0          NO
53509            0          0          0          NO
54230            0          0          0          NO
54234            0          0          0          NO
54231            0          0          0          NO
4232             0          0          0          NO
4222             0          0          0          NO
54223            0          0          0          NO
54226            0          0          0          NO
54227            0          0          0          NO
54233            0          0          0          NO
45003            0          0          0          NO
92003            0          0          0          NO
92006            0          0          0          NO
92007            0          0          0          NO
92008            0          0          0          NO
92009            0          0          0          NO
45005            0          0          0          NO
2112             0          0          0          NO
65001            0          0          0          NO
d7059            0          0          0          NO
a2059            0          0          0          NO
a2060            0          0          0          NO
a2062            0          0          0          NO
a2064            0          0          0          NO
a2061            0          0          0          NO
a2066            0          0          0          NO
2067             0          0          0          NO
2068             0          0          0          NO
a2065            0          0          0          NO
a2063            0          0          0          NO

[INFLOWS]
;;Node           Constituent  Time Series      Type     Mfactor  Sfactor  Baseline Pattern
;;-------------- ------------ ---------------- -------- -------- -------- -------- --------
x9001            FLOW         ""               FLOW     1.0      1.0      0.20000
x9030            FLOW         ""               FLOW     1.0      1.0      2.68000
x911             FLOW         ""               FLOW     1.0      1.0      1.99000
x9500            FLOW         ""               FLOW     1.0      1.0      0.20000
2000             FLOW         ""               FLOW     1.0      1.0      1.50000
451              FLOW         ""               FLOW     1.0      1.0      0.50000
452              FLOW         ""               FLOW     1.0      1.0      0.20000
453              FLOW         ""               FLOW     1.0      1.0      0.80000
a101             FLOW         ""               FLOW     1.0      1.0      1.70000
a126             FLOW         ""               FLOW     1.0      1.0      0.08000
a125             FLOW         ""               FLOW     1.0      1.0      1.80000
a124             FLOW         ""               FLOW     1.0      1.0      0.08000
a323             FLOW         ""               FLOW     1.0      1.0      0.95000
a122             FLOW         ""               FLOW     1.0      1.0      0.68000
a121             FLOW         ""               FLOW     1.0      1.0      0.10000
a120             FLOW         ""               FLOW     1.0      1.0      0.33000
a119             FLOW         ""               FLOW     1.0      1.0      2.43000
a364             FLOW         ""               FLOW     1.0      1.0      0.31000
a362             FLOW         ""               FLOW     1.0      1.0      0.31000
a361             FLOW         ""               FLOW     1.0      1.0      0.31000
a363             FLOW         ""               FLOW     1.0      1.0      0.31000
a301             FLOW         ""               FLOW     1.0      1.0      5.00000
a370             FLOW         ""               FLOW     1.0      1.0      1.24000
a205             FLOW         ""               FLOW     1.0      1.0      2.14000
a208             FLOW         ""               FLOW     1.0      1.0      2.14000
a401             FLOW         ""               FLOW     1.0      1.0      1.00000
a206             FLOW         ""               FLOW     1.0      1.0      2.14000
a563             FLOW         ""               FLOW     1.0      1.0      0.31000
a203             FLOW         ""               FLOW     1.0      1.0      2.14000
a204             FLOW         ""               FLOW     1.0      1.0      2.14000
a201             FLOW         ""               FLOW     1.0      1.0      2.38000
a380             FLOW         ""               FLOW     1.0      1.0      0.15000
a350             FLOW         ""               FLOW     1.0      1.0      1.08000
a343             FLOW         ""               FLOW     1.0      1.0      0.05000
a332             FLOW         ""               FLOW     1.0      1.0      0.31000
a397             FLOW         ""               FLOW     1.0      1.0      1.00000
a399             FLOW         ""               FLOW     1.0      1.0      0.46000
a313             FLOW         ""               FLOW     1.0      1.0      0.08000
a293             FLOW         ""               FLOW     1.0      1.0      0.08000
a302             FLOW         ""               FLOW     1.0      1.0      0.46000
a130             FLOW         ""               FLOW     1.0      1.0      0.31000
a153             FLOW         ""               FLOW     1.0      1.0      0.08000
a160             FLOW         ""               FLOW     1.0      1.0      0.05000
9860             FLOW         ""               FLOW     1.0      1.0      2.63000
9862             FLOW         ""               FLOW     1.0      1.0      1.97000
9867             FLOW         ""               FLOW     1.0      1.0      0.60000
9715             FLOW         ""               FLOW     1.0      1.0      1.24000
9725             FLOW         ""               FLOW     1.0      1.0      0.82000
9745             FLOW         ""               FLOW     1.0      1.0      0.77000
c9765            FLOW         ""               FLOW     1.0      1.0      0.77000
9770             FLOW         ""               FLOW     1.0      1.0      0.71000
c5420            FLOW         ""               FLOW     1.0      1.0      1.21000
c5255            FLOW         ""               FLOW     1.0      1.0      0.22000
c5005            FLOW         ""               FLOW     1.0      1.0      0.12000
4910             FLOW         ""               FLOW     1.0      1.0      0.08000
4905             FLOW         ""               FLOW     1.0      1.0      0.54000
4912             FLOW         ""               FLOW     1.0      1.0      0.15000
4950             FLOW         ""               FLOW     1.0      1.0      1.14000
c4990            FLOW         ""               FLOW     1.0      1.0      0.79000
c9105            FLOW         ""               FLOW     1.0      1.0      0.29000
c5150            FLOW         ""               FLOW     1.0      1.0      0.91000
c5305            FLOW         ""               FLOW     1.0      1.0      0.32000
c5355            FLOW         ""               FLOW     1.0      1.0      1.45000
d2               FLOW         ""               FLOW     1.0      1.0      0.02000
d3               FLOW         ""               FLOW     1.0      1.0      0.02000
d1               FLOW         ""               FLOW     1.0      1.0      0.39000
d4               FLOW         ""               FLOW     1.0      1.0      1.29000
d5               FLOW         ""               FLOW     1.0      1.0      5.00000
d8               FLOW         ""               FLOW     1.0      1.0      0.02000
d9               FLOW         ""               FLOW     1.0      1.0      0.16000
c555             FLOW         ""               FLOW     1.0      1.0      0.24000
d6               FLOW         ""               FLOW     1.0      1.0      1.70000
a129             FLOW         ""               FLOW     1.0      1.0      0.39000

[COORDINATES]
;;Node           X-Coord            Y-Coord
;;-------------- ------------------ ------------------
x9001            474.63             -3.22             
x9002            475.63             -3.22             
x9003            476.63             -3.22             
x9004            477.63             -3.22             
x9005            478.63             -3.22             
x9006            479.63             -3.22             
x9007            480.63             -3.22             
x9008            481.36             -2.81             
x9009            482.23             -2.05             
x9010            482.90             -1.04             
x9011            483.62             0.13              
x9012            484.20             2.16              
x9014            483.98             4.21              
x903             483.34             2.17              
x9015            483.46             4.77              
x9016            482.98             5.18              
x9017            482.63             5.83              
x905             482.29             4.76              
x9018            482.63             6.78              
x9019            482.94             8.10              
x9041            484.61             25.32             
x904             481.96             7.17              
x9020            483.16             9.67              
x9021            483.19             10.94             
x906             482.39             9.61              
x9022            483.12             11.65             
x9023            483.16             12.23             
x9024            483.36             12.72             
x9025            483.70             13.43             
x907             482.33             12.76             
x9026            484.20             14.59             
x9028            484.23             15.61             
x908             482.47             14.22             
x9029            484.07             16.58             
x9030            482.97             17.39             
x9032            482.60             17.78             
x909             481.84             16.23             
x9033            482.25             18.37             
x910             481.10             17.81             
x9034            482.74             19.18             
x9035            482.92             20.10             
x9036            483.01             21.00             
x9530            478.86             21.99             
x911             480.31             23.17             
x912             482.11             22.65             
x2100            480.68             21.46             
x9037            483.25             21.75             
x9038            483.85             22.55             
x9039            484.35             23.60             
x9040            484.49             24.24             
x9042            484.62             26.49             
x914             482.80             23.56             
x9043            484.08             28.18             
x9044            483.47             29.06             
x9045            482.24             30.19             
x9046            481.20             30.77             
x9047            479.59             31.40             
x9048            478.69             31.69             
x9049            477.32             32.22             
x9050            475.29             33.23             
x9051            471.64             33.83             
x9053            468.70             34.02             
x9054            464.26             34.29             
x919             474.46             25.99             
x9055            462.32             34.59             
x9056            455.14             35.00             
x9500            474.63             -2.27             
x9501            475.63             -2.27             
x9502            476.63             -2.27             
x9503            477.63             -2.27             
x9504            478.46             -2.02             
x9505            479.25             -1.73             
x9506            480.29             -1.51             
x9507            480.79             -1.24             
x9509            481.29             -0.65             
x901             479.91             -0.07             
x9511            482.03             0.95              
x902             480.29             1.29              
x9512            482.22             1.59              
x9513            482.42             2.22              
x9514            482.47             3.12              
x9515            481.58             4.79              
x9516            481.13             5.88              
x9517            481.29             7.35              
x9518            481.50             8.23              
x9519            481.61             9.09              
x9520            481.56             10.08             
x9521            481.37             10.97             
x9522            481.02             13.61             
x9523            480.72             15.48             
x9526            479.77             16.92             
x9527            479.27             18.68             
x9528            478.91             20.17             
x9531            479.34             23.19             
x913             477.82             23.89             
x9532            480.83             25.45             
x9534            480.87             26.83             
x9535            480.46             27.61             
x9536            480.03             28.22             
x9537            479.51             28.59             
x9538            478.88             28.86             
x9539            478.20             29.00             
x9540            477.39             29.09             
x916             478.44             27.63             
x917             476.79             31.19             
x918             475.84             27.52             
x9541            475.18             29.55             
x9545            473.27             30.00             
x9546            471.43             30.25             
x9547            464.79             30.84             
x9548            460.05             31.08             
x920             466.80             26.46             
x9550            454.78             31.57             
x9552            461.05             28.46             
x9553            462.48             25.69             
480              401.22             -30.57            
2100             403.21             -30.60            
2102             404.85             -30.60            
2103             406.43             -30.60            
2104             407.98             -30.58            
2105             407.87             -32.44            
2106             411.10             -32.46            
650              382.76             -32.19            
2107             384.62             -32.20            
2110             386.20             -32.23            
2113             388.17             -32.22            
2114             388.22             -30.21            
2115             388.22             -28.26            
2116             388.22             -26.05            
2117             388.22             -25.05            
2118             388.22             -24.05            
2119             385.74             -23.06            
2120             388.22             -23.05            
461              384.81             -23.06            
462              385.42             -19.25            
2123             385.74             -19.93            
2121             388.22             -21.55            
2122             388.22             -20.05            
4611             385.74             -22.18            
4600             384.87             -21.28            
4621             385.74             -20.68            
2124             388.22             -19.05            
2125             388.22             -18.05            
2126             385.47             -18.03            
2127             388.22             -17.05            
2128             388.22             -16.05            
580              385.73             -18.82            
5801             384.86             -18.05            
2000             380.49             -31.13            
2005             380.49             -30.13            
2010             380.49             -29.13            
2011             380.49             -28.13            
2015             380.49             -27.13            
2020             380.49             -26.13            
2025             380.49             -25.13            
2030             380.49             -24.13            
2035             380.49             -23.11            
2040             380.50             -22.14            
2041             380.49             -21.13            
2045             380.49             -20.13            
2050             380.49             -19.13            
2051             380.49             -18.13            
2055             380.49             -17.13            
2060             380.49             -16.13            
454              380.49             -15.15            
451              385.39             -15.10            
452              384.35             -16.54            
453              382.53             -15.95            
2141             386.45             -15.14            
4502             384.29             -11.75            
4503             382.44             -11.73            
4504             380.28             -11.73            
4505             386.48             -13.48            
4507             382.44             -12.88            
4508             380.32             -12.43            
2130             380.46             -14.26            
2131             381.15             -13.70            
2132             382.50             -14.57            
2136             384.36             -15.23            
2137             383.29             -13.73            
2138             386.06             -13.83            
2139             388.22             -15.05            
2142             389.22             -15.05            
2143             389.23             -13.82            
2144             390.02             -13.04            
2145             391.22             -12.15            
2146             391.22             -11.15            
2147             391.22             -10.15            
2148             386.28             -9.99             
2149             391.22             -9.15             
2150             391.22             -8.12             
440              383.73             -9.20             
441              383.39             -9.94             
2151             385.99             -8.20             
2152             391.22             -7.15             
2153             386.19             -7.13             
2154             391.22             -6.15             
430              383.81             -7.33             
431              383.73             -8.13             
420              383.72             -5.89             
4201             384.92             -6.83             
2156             391.22             -5.15             
2157             384.99             -5.03             
410              385.03             -2.20             
412              381.45             -4.97             
400              386.49             -4.00             
2158             388.39             -4.03             
2162             391.29             -4.03             
2163             391.29             -3.03             
2167             391.29             -2.03             
2168             391.29             -1.03             
2169             392.29             -1.03             
2172             393.29             -1.03             
2175             394.29             -1.03             
2178             397.41             -1.03             
a2               372.59             77.55             
a7               373.37             78.01             
a9               374.14             78.46             
a11              375.31             79.44             
a13              376.70             80.75             
a15              377.71             80.54             
a17              378.61             80.21             
a18              379.26             80.78             
a101             370.74             78.94             
a102             371.41             79.44             
a103             372.06             79.94             
a104             372.70             80.46             
a106             373.33             80.98             
a108             373.95             81.52             
a110             374.56             82.06             
a111             375.18             82.62             
a112             375.73             83.19             
a113             376.30             83.77             
a114             376.86             84.36             
a115             377.41             84.96             
a19              380.91             81.56             
a20              381.11             81.56             
a21              381.31             81.56             
a22              381.51             81.56             
a23              381.71             81.56             
a24              382.22             81.55             
a36              383.89             81.57             
a40              384.11             81.56             
a41              384.31             81.56             
a42              384.51             81.56             
a43              384.71             81.56             
a44              384.91             81.56             
a45              385.11             81.56             
a46              385.31             81.56             
a47              385.51             81.56             
a226             385.64             82.05             
a126             385.45             82.43             
a48              386.04             81.57             
a50              386.89             81.59             
a225             386.90             82.47             
a125             386.90             82.91             
a325             386.50             82.46             
a51              387.43             81.60             
a52              388.31             81.56             
a53              388.51             81.56             
a54              388.71             81.56             
a55              388.91             81.56             
a56              389.11             81.56             
a57              389.31             81.56             
a58              390.31             81.56             
a59              391.31             81.56             
a224             390.57             79.83             
a124             390.15             78.98             
a60              392.31             81.56             
a61              393.31             81.56             
a62              394.31             81.56             
a63              395.31             81.56             
a64              396.31             81.56             
a65              397.31             81.56             
a66              398.31             81.56             
a67              399.31             81.56             
a68              400.31             81.56             
a69              401.31             81.56             
a70              402.31             81.56             
a223             401.35             80.02             
a323             399.56             79.76             
a71              403.31             81.56             
a72              404.31             81.57             
a73              404.31             80.56             
a74              404.31             79.56             
a75              404.31             78.56             
a76              404.31             77.56             
a77              404.79             76.56             
a80              404.79             75.56             
a81              405.08             75.03             
a82              405.53             74.55             
a83              405.89             73.36             
a84              405.71             72.29             
a85              405.35             71.61             
a86              404.88             70.79             
a87              404.08             70.22             
a222             405.19             68.31             
a122             405.50             66.75             
a322             406.40             69.06             
a88              401.60             73.74             
a221             401.98             75.40             
a121             399.79             76.10             
a90              400.47             73.40             
a220             398.13             73.89             
a120             397.60             75.14             
a91              401.14             72.47             
a92              401.07             71.12             
a93              401.42             69.55             
a94              403.24             67.65             
a95              403.28             65.93             
a219             403.34             63.45             
a119             403.34             61.57             
a96              401.45             66.24             
a97              399.66             66.37             
a10000           397.33             66.28             
a10001           397.32             63.79             
a10002           411.60             22.77             
a36001           365.10             37.64             
a36002           366.10             37.64             
a36040           369.73             37.07             
a364             369.78             34.83             
a36020           367.85             35.89             
a36021           367.85             34.89             
a36022           367.85             33.89             
a36023           367.85             32.57             
a362             367.84             31.19             
a36098           367.83             37.09             
a36099           364.15             37.09             
a36000           363.10             37.09             
a36010           365.10             36.14             
a36011           365.10             35.14             
a361             365.10             34.14             
a36030           367.85             39.04             
a36031           367.85             39.99             
a363             367.85             40.99             
a10036           363.50             39.24             
a10043           361.65             37.39             
a301             361.65             36.29             
a37001           360.20             37.40             
a37000           360.20             38.58             
a37004           358.94             37.39             
a370             357.65             37.39             
a22222           363.50             41.49             
a20003           364.50             41.49             
a205             365.50             41.49             
a20007           366.50             41.49             
a208             367.50             41.49             
a20009           368.50             41.49             
a40001           369.50             41.49             
a40007           369.50             40.49             
a401             369.50             39.44             
a206             371.27             41.46             
a20017           373.35             41.45             
a56001           373.36             44.57             
a56000           372.44             44.57             
a56002           375.51             44.55             
a563             377.69             44.61             
a20028           374.73             41.46             
a203             376.24             41.45             
a204             377.71             41.45             
a201             377.71             39.83             
a38004           364.50             44.54             
a38003           365.50             44.54             
a38001           368.89             45.56             
a38007           367.14             46.12             
a38000           367.14             48.01             
a38008           368.89             46.60             
a38009           368.87             47.92             
a380             368.86             49.17             
a10027           363.50             46.04             
a35001           362.50             46.04             
a35000           362.50             47.09             
a350             361.50             46.04             
a10024           363.50             48.29             
a34001           362.50             48.29             
a34000           362.50             49.34             
a34002           361.50             48.29             
a343             360.50             48.29             
a10023           363.48             50.63             
a33001           362.50             50.59             
a33000           362.50             51.64             
a332             361.50             50.59             
a10022           363.50             52.89             
a32001           365.50             52.89             
a32000           365.50             53.94             
a394             365.50             51.84             
a32003           366.50             52.89             
a32005           367.50             52.89             
a32006           367.50             53.89             
a32007           367.50             54.89             
a32008           367.46             55.89             
a329             367.46             57.24             
a32010           368.50             52.89             
a32011           368.50             53.89             
a392             368.50             54.94             
a32013           369.50             52.89             
a395             370.50             51.89             
a32014           370.50             52.89             
a396             371.50             52.89             
a32017           372.50             52.89             
a32018           373.50             52.89             
a32019           374.69             52.82             
a397             375.75             52.82             
a32021           376.58             52.80             
a39001           377.69             52.80             
a39005           377.69             50.27             
a39006           377.69             47.83             
a39007           373.90             47.84             
a39000           370.17             47.84             
a398             380.47             52.80             
a39003           381.47             52.80             
a399             382.47             52.80             
a10020           363.50             55.49             
a31001           362.50             55.49             
a31002           361.50             55.49             
a313             360.50             55.49             
a29002           362.50             54.49             
a29001           362.53             53.54             
a293             361.12             53.53             
a10018           363.50             56.86             
a10014           363.50             58.49             
a12001           362.50             58.49             
a12005           362.50             57.49             
a12007           361.53             57.51             
a30000           360.39             56.87             
a302             360.36             57.50             
a10013           363.50             59.99             
a13000           362.50             61.04             
a13001           362.50             59.99             
a130             361.50             59.99             
a10012           364.88             61.99             
a15000           362.50             63.04             
a15001           362.50             61.99             
a15002           361.52             62.01             
a153             360.50             61.99             
a10003           365.22             65.35             
a16000           363.25             67.38             
a16001           363.25             65.34             
a16002           361.40             65.33             
a16003           360.50             65.41             
a16004           359.50             65.41             
a16005           358.50             65.44             
a160             357.50             65.44             
9890             420.39             -52.86            
9880             420.53             -51.51            
9870             420.53             -50.51            
9860             420.53             -49.39            
9861             419.60             -49.39            
9862             418.60             -49.39            
9863             417.60             -49.39            
9864             416.60             -49.39            
9865             415.60             -49.39            
9866             414.60             -49.39            
9867             413.60             -49.39            
9850             420.53             -48.39            
9840             420.53             -47.51            
9830             420.53             -46.51            
9820             420.60             -45.80            
9810             414.27             -47.02            
9800             412.28             -47.04            
9600             412.31             -44.52            
c9700            413.93             -44.51            
9705             414.38             -44.49            
c9710            415.35             -44.37            
9715             416.35             -44.37            
9720             417.40             -44.21            
9725             418.87             -44.17            
c9730            421.59             -43.19            
9735             423.76             -42.85            
9740             424.88             -40.95            
9745             425.44             -38.75            
9750             426.44             -38.75            
9755             427.44             -38.75            
9760             428.44             -38.75            
c9765            429.44             -38.75            
9770             430.44             -38.75            
9550             412.28             -43.32            
5500             410.65             -43.29            
5501             408.90             -43.90            
9525             412.28             -42.49            
9500             412.28             -41.49            
9475             412.28             -40.49            
9450             412.28             -39.49            
5400             410.62             -39.45            
5401             410.33             -37.81            
5402             411.30             -39.47            
c5420            409.32             -39.40            
9425             412.28             -38.49            
9400             412.28             -37.49            
9250             412.28             -36.49            
5250             410.39             -36.60            
5252             410.35             -34.37            
c5255            408.57             -36.64            
9200             412.28             -35.49            
9000             412.28             -34.49            
5000             414.35             -34.51            
5001             416.02             -34.47            
5002             417.22             -34.47            
c5005            414.33             -36.00            
4910             414.28             -31.74            
4905             413.28             -31.74            
4900             412.28             -31.74            
4912             415.35             -31.62            
4917             416.40             -31.62            
4915             417.35             -31.62            
4916             417.35             -29.62            
4301             416.39             -29.08            
4251             413.33             -29.57            
4102             411.65             -30.38            
4300             413.77             -26.56            
4250             412.61             -27.65            
c4200            411.97             -28.21            
4100             410.80             -28.70            
4920             417.35             -28.62            
c4930            418.35             -28.62            
4940             419.35             -28.62            
4950             420.35             -28.62            
4960             421.35             -28.62            
4970             422.35             -28.62            
4975             423.35             -28.62            
4980             424.43             -28.62            
c4990            425.35             -28.62            
9100             417.52             -20.87            
9110             413.75             -20.96            
9120             412.64             -21.01            
c9105            420.06             -20.87            
9130             411.47             -21.01            
9140             410.76             -20.98            
5100             408.41             -21.02            
5102             409.46             -21.02            
c5150            408.36             -19.74            
9300             413.72             -19.21            
9305             411.18             -19.35            
9310             411.24             -17.16            
5300             411.35             -12.58            
5302             411.47             -15.31            
5303             417.98             -15.23            
5313             418.00             -18.41            
c5305            412.69             -15.33            
5351             414.66             -15.31            
5352             413.77             -17.21            
5350             414.72             -17.21            
c5355            415.72             -17.21            
d2               422.19             -3.29             
d3               422.19             1.21              
d21              420.64             -3.29             
d41              420.63             -4.75             
d61              419.64             -3.04             
d100             418.64             -2.79             
d101             418.64             -1.79             
d102             418.64             -0.79             
d103             418.64             0.21              
d104             418.64             1.21              
d105             418.64             2.21              
d106             418.64             3.21              
d107             418.64             4.21              
d108             418.64             5.21              
d109             418.64             6.21              
d110             418.64             7.21              
d111             418.64             8.21              
d112             418.64             9.21              
d113             418.64             10.21             
d114             418.27             11.21             
d63              419.64             10.96             
d23              420.64             10.71             
d43              420.63             8.59              
d1               440.09             17.76             
d500             440.14             16.71             
d501             440.14             15.71             
d502             440.14             14.71             
d503             440.04             12.20             
d150             440.14             10.71             
d152             437.73             10.72             
d153             436.64             10.71             
d154             435.64             10.71             
d155             434.64             10.71             
d156             433.64             10.71             
d157             432.64             10.71             
d158             431.64             10.71             
d159             430.64             10.71             
d160             429.64             10.71             
d161             428.64             10.71             
d162             427.64             10.71             
d163             426.64             10.71             
d164             425.64             10.71             
d4               425.64             11.71             
d5               428.59             13.71             
d165             424.64             10.71             
d166             423.64             10.71             
d167             422.64             10.71             
d168             421.64             10.71             
d115             418.64             12.21             
d116             418.64             13.21             
d117             418.64             14.21             
d64              419.64             13.96             
d24              420.64             13.71             
d44              420.56             12.50             
d510             427.59             13.71             
d511             426.64             13.71             
d513             424.64             13.71             
d514             423.64             13.71             
d515             422.64             13.71             
d516             421.64             13.71             
d118             418.64             15.21             
d119             418.64             16.21             
d120             418.64             17.21             
d121             418.64             18.21             
d122             417.77             20.50             
d123             416.62             22.70             
d65              419.51             15.70             
d25              420.64             15.72             
d45              420.63             17.69             
d124             416.63             25.42             
d125             418.55             31.78             
d126             419.44             35.66             
d127             419.92             37.60             
d128             420.50             39.48             
d129             420.62             40.29             
d130             420.87             41.24             
d131             421.03             42.23             
d132             420.87             43.24             
d133             420.87             44.24             
d134             421.04             45.56             
d135             421.12             46.94             
d136             421.10             48.74             
d137             422.23             48.49             
d138             422.40             49.79             
d139             422.57             51.11             
d67              423.24             41.42             
d27              425.92             39.99             
d8               422.51             35.56             
d9               425.21             37.96             
d47              427.35             42.31             
d4604            430.47             33.91             
d4605            420.22             29.25             
d4661            425.91             15.58             
d7561            425.93             16.77             
d6605            418.21             24.98             
d2604            426.12             31.84             
d2605            420.02             24.51             
d7461            425.95             18.45             
d7905            421.65             23.99             
d7361            429.41             20.14             
d7805            422.89             26.42             
d7405            422.78             18.41             
d7705            425.98             24.07             
d7105            422.71             16.71             
d7205            429.87             24.16             
c555             410.65             -41.90            
d6               422.41             15.74             
d7261            432.57             20.10             
d7104            426.07             29.46             
x915             483.15             26.08             
5502             411.43             -43.29            
4601             384.87             -19.95            
045              388.95             -11.76            
442              381.34             -9.97             
443              381.40             -8.15             
413              381.49             -6.79             
a345             382.96             81.56             
a318             399.74             64.40             
a319             405.32             63.71             
a422             407.54             70.00             
a523             402.14             78.64             
a425             386.23             82.46             
a10030           363.46             44.50             
d7505            422.78             21.07             
d7204            426.12             26.60             
d26050           420.00             27.21             
d26040           428.21             32.75             
x9510            481.78             0.35              
x13              483.28             3.34              
x14              482.14             7.84              
x15              481.93             5.76              
x16              482.44             10.53             
x17              482.49             13.31             
x18              482.25             15.14             
x19              481.43             17.12             
x20              480.85             18.32             
x24              482.71             24.78             
x25              483.09             27.20             
x27              475.38             31.73             
x29              473.95             28.17             
a219s            403.28             64.61             
a219w            404.37             63.58             
a220s            399.19             73.68             
a221s            401.77             74.56             
a222s            404.63             69.33             
a223s            401.80             80.70             
a223w            401.36             79.00             
a224s            390.87             80.45             
a475             385.83             81.58             
a226s            385.75             81.82             
a225s            386.90             82.11             
d23we            420.66             9.41              
d23w             420.66             10.14             
d24w             420.55             13.17             
x16w             481.94             10.62             
x17w             481.82             13.47             
x17s             483.08             13.34             
x18s             483.07             15.39             
x19w             480.66             16.90             
x24w             481.65             25.09             
a49              386.54             81.59             
a12000           362.53             59.44             
a129             361.44             58.49             
a12001s          363.00             58.49             
a13001s          363.01             59.99             
x25w             481.83             26.87             
x27w             475.31             30.59             
a15001s          363.57             62.02             
a16001s          364.27             65.34             
a30001           361.53             56.90             
a31001s          363.05             55.51             
a1699n           363.24             66.37             
a225w            386.70             82.46             
a32001s          364.78             52.89             
a32001n          364.24             52.89             
a33001s          362.97             50.59             
a34001s          363.02             48.29             
a34001w          362.50             48.83             
a35001s          362.99             46.04             
a36010s          365.12             36.67             
a36010n          365.12             37.22             
a36020s          366.16             35.88             
a36030s          366.11             39.04             
a36040s          368.69             37.67             
a37001s          361.01             37.40             
a39001s          377.14             52.80             
a56001s          373.35             43.00             
a20023           374.73             39.87             
a38035           365.50             46.36             
a207             366.50             42.83             
2165             394.82             -3.03             
2027             377.39             -24.13            
2151s            388.27             -8.12             
2148s            388.29             -10.13            
2157s            388.18             -5.16             
2137s            383.31             -15.24            
2139s            387.23             -15.12            
2153s            388.14             -7.12             
2121s            387.01             -23.08            
x9057            459.62             34.56             
046              383.16             -19.92            
4602             383.92             -19.94            
4501             385.82             -11.73            
444              380.59             -7.43             
445              379.65             -7.43             
446              379.65             -5.63             
5312             408.03             -25.43            
5314             405.93             -23.70            
5310             410.84             -25.36            
5309             414.87             -25.28            
5311             408.78             -29.49            
4101             408.12             -27.84            
5307             414.84             -22.80            
5308             416.12             -22.81            
5101             417.27             -22.82            
5425             407.82             -41.93            
5431             408.99             -46.05            
5435             410.03             -47.88            
5429             413.31             -44.53            
9599             412.81             -44.52            
5427             407.84             -46.04            
5421             410.05             -40.73            
5422             410.62             -40.72            
5432             408.86             -40.69            
5423             408.86             -41.93            
5424             408.91             -42.88            
5430             411.57             -46.07            
5316             405.90             -25.40            
4506             384.19             -12.49            
4512             386.49             -12.54            
4511             388.05             -13.65            
4510             388.11             -12.62            
4509             388.08             -11.75            
4513             384.19             -13.17            
c2108            410.62             -46.07            
2109             410.01             -47.09            
065              384.62             -30.59            
2028             380.49             -24.84            
d2059            440.20             9.00              
d40              440.20             7.29              
a2071            371.31             42.95             
a212             371.32             44.59             
a209             370.16             44.57             
a210             368.88             44.57             
a211             367.15             44.56             
d27w             426.60             41.11             
5100w            408.59             -21.81            

[MAP]
DIMENSIONS 357.50 -52.86 484.62 84.96
Units      None

[REPORT]
SUBCATCHMENTS ALL
NODES ALL
LINKS ALL
