;; SWMM5 .inp converted from XPSWMM .xp file
;; Generated by XPSWMM Card Reader
;; Source format: XP_CARD | Original title: (none)
;; Links parsed from source: 38 | Routable in this .inp: 38

[TITLE]
;;Project Title/Notes
Converted from XPSWMM .xp file

[OPTIONS]
FLOW_UNITS           CFS
INFILTRATION         HORTON
FLOW_ROUTING         DYNWAVE
LINK_OFFSETS         DEPTH
MIN_SLOPE            0.0
ALLOW_PONDING        NO
SKIP_STEADY_STATE    NO
ROUTING_STEP         00:05:00
VARIABLE_STEP        0.75
INERTIAL_DAMPING     PARTIAL
NORMAL_FLOW_LIMITED  BOTH
START_DATE           01/01/2001
START_TIME           00:00:00
REPORT_START_DATE    01/01/2001
REPORT_START_TIME    00:00:00
END_DATE             01/02/2001
END_TIME             00:00:00
SWEEP_START          01/01
SWEEP_END            12/31
DRY_DAYS             0
REPORT_STEP          00:15:00
WET_STEP             00:05:00
DRY_STEP             01:00:00

[JUNCTIONS]
;;Name           Elev       MaxDepth   InitDepth  SurDepth   Aponded
;;-------------- ---------- ---------- ---------- ---------- ----------
S57133           57.20      0          0          0          0
54633            56.70      0          0          0          0
54573            55.70      0          0          0          0
54532            54.70      0          0          0          0
54422            54.90      0          0          0          0
54412            54.90      0          0          0          0
51472            56.00      0          0          0          0
48172            56.07      0          0          0          0
48122            52.80      0          0          0          0
48110            52.80      0          0          0          0
48098            53.68      0          0          0          0
47923            52.80      0          0          0          0
47717            53.20      0          0          0          0
47507            52.82      0          0          0          0
47305            52.94      0          0          0          0
47113            52.80      0          0          0          0
46904            52.85      0          0          0          0
46712            52.80      0          0          0          0
46515            52.80      0          0          0          0
46315            52.80      0          0          0          0
46111            53.17      0          0          0          0
45903            52.80      0          0          0          0
45711            53.06      0          0          0          0
45497            52.80      0          0          0          0
44838            54.14      0          0          0          0
42558            52.00      0          0          0          0
42508            52.00      0          0          0          0
42476            52.00      0          0          0          0
42376            52.00      0          0          0          0
40876            100.00     0          0          0          0
39926            100.00     0          0          0          0
39876            100.00     0          0          0          0
39847            100.00     0          0          0          0
39747            100.00     0          0          0          0
37947            52.52      0          0          0          0
37897            52.00      0          0          0          0
37875            52.00      0          0          0          0
37775            52.00      0          0          0          0

[OUTFALLS]
;;Name           Elev       Type       Stage      Gated
;;-------------- ---------- ---------- ---------- -----
OUTFLOW          53.25      FREE                  NO

[CONDUITS]
;;Name           From             To               Length     Roughness  InOffset   OutOffset  InitFlow   MaxFlow
;;-------------- ---------------- ---------------- ---------- ---------- ---------- ---------- ---------- ----------
5                S57133           54633            2500.00    0.0130     47.50      47.00      0          0
6                54633            54573            60.00      0.0130     47.00      47.80      0          0
7                54573            54532            41.00      0.0130     47.80      47.80      0          0
15               54532            54422            110.00     0.0130     47.80      47.00      0          0
16               54422            54412            10.00      0.0130     47.00      39.40      0          0
17               54412            51472            2940.00    0.0130     39.40      38.75      0          0
22               48172            48122            50.00      0.0130     38.82      39.62      0          0
24               48122            48110            12.00      0.0130     39.62      38.74      0          0
26               48110            48098            12.00      0.0130     38.74      39.62      0          0
28               48098            47923            175.00     0.0130     39.62      38.40      0          0
30               47923            47717            206.00     0.0130     38.40      38.80      0          0
32               47717            47507            210.00     0.0130     38.80      38.82      0          0
34               47507            47305            202.00     0.0130     38.82      38.96      0          0
36               47305            47113            192.00     0.0130     38.96      38.44      0          0
38               47113            46904            209.00     0.0130     38.44      38.49      0          0
40               46904            46712            192.00     0.0130     38.49      38.42      0          0
42               46712            46515            197.00     0.0130     38.42      37.79      0          0
44               46515            46315            200.00     0.0130     37.79      37.52      0          0
46               46315            46111            204.00     0.0130     37.52      37.89      0          0
48               46111            45903            208.00     0.0130     37.89      37.27      0          0
50               45903            45711            192.00     0.0130     37.27      37.53      0          0
52               45711            45497            214.00     0.0130     37.53      37.43      0          0
54               45497            44838            659.00     0.0130     37.43      38.77      0          0
56               44838            42558            2280.00    0.0130     38.77      38.43      0          0
58               42558            42508            50.00      0.0130     38.43      38.43      0          0
60               42508            42476            32.00      0.0130     38.43      38.43      0          0
62               42476            42376            100.00     0.0130     38.43      38.43      0          0
64               42376            40876            1500.00    0.0130     38.43      38.27      0          0
66               40876            39926            950.00     0.0130     38.27      36.69      0          0
68               39926            39876            50.00      0.0130     36.69      37.09      0          0
70               39876            39847            29.00      0.0130     37.09      37.09      0          0
72               39847            39747            100.00     0.0130     37.09      37.09      0          0
74               39747            37947            1800.00    0.0130     37.09      37.61      0          0
76               37947            37897            50.00      0.0130     37.61      34.85      0          0
78               37897            37875            22.00      0.0130     34.85      34.85      0          0
80               37875            37775            100.00     0.0130     34.85      34.85      0          0
81               51472            48172            3300.00    0.0130     38.75      38.82      0          0
83               37775            OUTFLOW          700.00     0.0130     34.85      36.10      0          0

[XSECTIONS]
;;Link           Shape        Geom1      Geom2      Geom3      Geom4      Barrels
;;-------------- ------------ ---------- ---------- ---------- ---------- ----------
5                TRAPEZOIDAL  1.00       10.00      2          2          1
6                TRAPEZOIDAL  1.00       10.00      2          2          1
7                TRAPEZOIDAL  1.00       10.00      2          2          1
15               TRAPEZOIDAL  1.00       10.00      2          2          1
16               TRAPEZOIDAL  1.00       10.00      2          2          1
17               TRAPEZOIDAL  1.00       10.00      2          2          1
22               TRAPEZOIDAL  1.00       10.00      2          2          1
24               TRAPEZOIDAL  1.00       10.00      2          2          1
26               TRAPEZOIDAL  1.00       10.00      2          2          1
28               TRAPEZOIDAL  1.00       10.00      2          2          1
30               TRAPEZOIDAL  1.00       10.00      2          2          1
32               TRAPEZOIDAL  1.00       10.00      2          2          1
34               TRAPEZOIDAL  1.00       10.00      2          2          1
36               TRAPEZOIDAL  1.00       10.00      2          2          1
38               TRAPEZOIDAL  1.00       10.00      2          2          1
40               TRAPEZOIDAL  1.00       10.00      2          2          1
42               TRAPEZOIDAL  1.00       10.00      2          2          1
44               TRAPEZOIDAL  1.00       10.00      2          2          1
46               TRAPEZOIDAL  1.00       10.00      2          2          1
48               TRAPEZOIDAL  1.00       10.00      2          2          1
50               TRAPEZOIDAL  1.00       10.00      2          2          1
52               TRAPEZOIDAL  1.00       10.00      2          2          1
54               TRAPEZOIDAL  1.00       10.00      2          2          1
56               TRAPEZOIDAL  1.00       10.00      2          2          1
58               TRAPEZOIDAL  1.00       10.00      2          2          1
60               TRAPEZOIDAL  1.00       10.00      2          2          1
62               TRAPEZOIDAL  1.00       10.00      2          2          1
64               TRAPEZOIDAL  1.00       10.00      2          2          1
66               TRAPEZOIDAL  1.00       10.00      2          2          1
68               TRAPEZOIDAL  1.00       10.00      2          2          1
70               TRAPEZOIDAL  1.00       10.00      2          2          1
72               TRAPEZOIDAL  1.00       10.00      2          2          1
74               TRAPEZOIDAL  1.00       10.00      2          2          1
76               TRAPEZOIDAL  1.00       10.00      2          2          1
78               TRAPEZOIDAL  1.00       10.00      2          2          1
80               TRAPEZOIDAL  1.00       10.00      2          2          1
81               TRAPEZOIDAL  1.00       10.00      2          2          1
83               TRAPEZOIDAL  1.00       10.00      2          2          1

[LOSSES]
;;Link           Inlet      Outlet     Average    Flap Gate
;;-------------- ---------- ---------- ---------- ----------
5                0          0          0          NO
6                0          0          0          NO
7                0          0          0          NO
15               0          0          0          NO
16               0          0          0          NO
17               0          0          0          NO
22               0          0          0          NO
24               0          0          0          NO
26               0          0          0          NO
28               0          0          0          NO
30               0          0          0          NO
32               0          0          0          NO
34               0          0          0          NO
36               0          0          0          NO
38               0          0          0          NO
40               0          0          0          NO
42               0          0          0          NO
44               0          0          0          NO
46               0          0          0          NO
48               0          0          0          NO
50               0          0          0          NO
52               0          0          0          NO
54               0          0          0          NO
56               0          0          0          NO
58               0          0          0          NO
60               0          0          0          NO
62               0          0          0          NO
64               0          0          0          NO
66               0          0          0          NO
68               0          0          0          NO
70               0          0          0          NO
72               0          0          0          NO
74               0          0          0          NO
76               0          0          0          NO
78               0          0          0          NO
80               0          0          0          NO
81               0          0          0          NO
83               0          0          0          NO

[INFLOWS]
;;Node           Constituent  Time Series      Type     Mfactor  Sfactor  Baseline Pattern
;;-------------- ------------ ---------------- -------- -------- -------- -------- --------
;; SYNTHETIC TEST INFLOWS — the source .xp carried no constant inflows
;; and RUNF hydrology is not converted; 1.00 CFS is applied at each
;; headwater node so the network runs wet for QA. Replace with real
;; hydrology or inflow hydrographs before using results.
S57133           FLOW         ""               FLOW     1.0      1.0      1.00

[COORDINATES]
;;Node           X-Coord            Y-Coord
;;-------------- ------------------ ------------------
S57133           -171.16            -428.64           
54633            156.89             -389.93           
54573            -140.27            -298.81           
54532            287.92             -276.68           
54422            -69.60             -207.68           
54412            340.82             -179.36           
51472            -177.64            -95.21            
48172            249.57             -76.85            
48122            -96.16             -45.60            
48110            344.59             33.47             
48098            -178.92            88.37             
47923            224.92             121.79            
47717            -110.64            154.46            
47507            330.40             235.14            
47305            -156.59            280.18            
47113            216.78             314.64            
46904            -54.48             355.30            
46712            360.35             419.62            
46515            -160.84            450.82            
46315            253.15             529.40            
46111            -84.59             576.91            
45903            345.49             645.39            
45711            -40.04             680.75            
45497            235.31             716.10            
44838            -145.88            809.65            
42558            334.04             868.45            
42508            -47.79             1019.55           
42476            227.31             1068.33           
42376            -60.51             1142.56           
40876            227.13             1209.96           
39926            4.69               1273.08           
39876            171.66             1311.32           
39847            -49.38             1373.28           
39747            247.99             1436.57           
37947            11.05              1486.67           
37897            195.51             1545.99           
37875            -52.56             1615.87           
37775            243.22             1727.93           
OUTFLOW          82.29              1969.87           

[MAP]
DIMENSIONS -178.92 -428.64 360.35 1969.87
Units      None

[REPORT]
SUBCATCHMENTS ALL
NODES ALL
LINKS ALL
