;; SWMM5 .inp converted from XPSWMM .xp file
;; Generated by XPSWMM Card Reader
;; Source format: XP_CARD | Original title: This is an XPX file for building Test2ext.xp
;; Links parsed from source: 5 | Routable in this .inp: 5

[TITLE]
;;Project Title/Notes
This is an XPX file for building Test2ext.xp

[OPTIONS]
FLOW_UNITS           CFS
INFILTRATION         HORTON
FLOW_ROUTING         DYNWAVE
LINK_OFFSETS         DEPTH
MIN_SLOPE            0.0
ALLOW_PONDING        NO
SKIP_STEADY_STATE    NO
ROUTING_STEP         00:01:00
VARIABLE_STEP        0.75
INERTIAL_DAMPING     PARTIAL
NORMAL_FLOW_LIMITED  BOTH
START_DATE           01/01/2001
START_TIME           00:00:00
REPORT_START_DATE    01/01/2001
REPORT_START_TIME    00:00:00
END_DATE             01/02/2001
END_TIME             00:00:00
SWEEP_START          01/01
SWEEP_END            12/31
DRY_DAYS             0
REPORT_STEP          00:15:00
WET_STEP             00:05:00
DRY_STEP             01:00:00

[JUNCTIONS]
;;Name           Elev       MaxDepth   InitDepth  SurDepth   Aponded
;;-------------- ---------- ---------- ---------- ---------- ----------
O/FLOW           130.00     0          0          0          0
D/S              100.00     0          0          0          0

[OUTFALLS]
;;Name           Elev       Type       Stage      Gated
;;-------------- ---------- ---------- ---------- -----
IRRIG            130.00     FREE                  NO

[STORAGE]
;;Name           Elev       MaxDepth   InitDepth  Shape      Curve/Params
;;-------------- ---------- ---------- ---------- ---------- ----------
RESERV           150.00     10.00      0          FUNCTIONAL 10.00 0          0
LAKE             100.00     10.00      0          FUNCTIONAL 1000.00 0          0
LAKE_2           103.00     10.00      0          FUNCTIONAL 1000.00 0          0

[CONDUITS]
;;Name           From             To               Length     Roughness  InOffset   OutOffset  InitFlow   MaxFlow
;;-------------- ---------------- ---------------- ---------- ---------- ---------- ---------- ---------- ----------
CHAN1            RESERV           IRRIG            500.00     0.0200     100.00     99.00      0          0
SPILL            RESERV           O/FLOW           100.00     0.0050     103.00     103.00     0          0
TUNNEL           LAKE             LAKE             500.00     0.0050     71.00      70.00      0          0
RIVER            LAKE             D/S              100.00     0.0130     68.00      60.00      0          0

[PUMPS]
;;Name           From             To               PumpCurve  Status   Startup    Shutoff
;;-------------- ---------------- ---------------- ---------- -------- ---------- ----------
PUMPS            LAKE             RESERV           PC_PUMPS   ON       1.00       0         

[CURVES]
;;Name           Type       X-Value    Y-Value
;;-------------- ---------- ---------- ----------
;; Synthesized generic pump curves — replace with actual pump data
PC_PUMPS         Pump1      0          5
PC_PUMPS                    10         10

[XSECTIONS]
;;Link           Shape        Geom1      Geom2      Geom3      Geom4      Barrels
;;-------------- ------------ ---------- ---------- ---------- ---------- ----------
CHAN1            POWER        10.00      16.00      1.5        0          1
SPILL            TRAPEZOIDAL  20.00      20.00      1          1          1
TUNNEL           HORSESHOE    10.00      10.00      0          0          1
RIVER            TRAPEZOIDAL  15.00      10.00      2          2          1

[LOSSES]
;;Link           Inlet      Outlet     Average    Flap Gate
;;-------------- ---------- ---------- ---------- ----------
CHAN1            0          0          0          NO
SPILL            0          0          0          NO
TUNNEL           0          0          0          NO
RIVER            0          0          0          NO

[INFLOWS]
;;Node           Constituent  Time Series      Type     Mfactor  Sfactor  Baseline Pattern
;;-------------- ------------ ---------------- -------- -------- -------- -------- --------
LAKE_2           FLOW         ""               FLOW     1.0      1.0      10.00000

[COORDINATES]
;;Node           X-Coord            Y-Coord
;;-------------- ------------------ ------------------
IRRIG            8.64               87.64             
RESERV           46.15              89.20             
O/FLOW           56.15              144.17            
LAKE             75.53              42.93             
LAKE_2           88.26              153.41            
D/S              116.64             155.64            

[MAP]
DIMENSIONS 8.64 42.93 116.64 155.64
Units      None

[REPORT]
SUBCATCHMENTS ALL
NODES ALL
LINKS ALL
