;; SWMM5 .inp converted from XPSWMM .xp file
;; Generated by XPSWMM Card Reader
;; Source format: XP_CARD | Original title: (none)
;; Links parsed from source: 8 | Routable in this .inp: 8

[TITLE]
;;Project Title/Notes
Converted from XPSWMM .xp file

[OPTIONS]
FLOW_UNITS           CMS
INFILTRATION         HORTON
FLOW_ROUTING         DYNWAVE
LINK_OFFSETS         DEPTH
MIN_SLOPE            0.0
ALLOW_PONDING        NO
SKIP_STEADY_STATE    NO
ROUTING_STEP         00:00:20
VARIABLE_STEP        0.75
INERTIAL_DAMPING     PARTIAL
NORMAL_FLOW_LIMITED  BOTH
MAX_TRIALS           50
HEAD_TOLERANCE       .001
START_DATE           01/01/2001
START_TIME           00:00:00
REPORT_START_DATE    01/01/2001
REPORT_START_TIME    00:00:00
END_DATE             01/02/2001
END_TIME             00:00:00
SWEEP_START          01/01
SWEEP_END            12/31
DRY_DAYS             0
REPORT_STEP          00:15:00
WET_STEP             00:05:00
DRY_STEP             01:00:00

[JUNCTIONS]
;;Name           Elev       MaxDepth   InitDepth  SurDepth   Aponded
;;-------------- ---------- ---------- ---------- ---------- ----------
U1               98.05      0          0          0          0
D1               98.42      0          0          0          0
D2               98.35      0          0          0          0
Node1            105.00     0          0          0          0
Node2            105.00     0          0          0          0
Node3            105.00     0          0          0          0
Node4            105.00     0          0          0          0
Node5            105.00     0          0          0          0
Node6            105.00     0          0          0          0
road             88.01      0          0          0          0
spanb            88.01      0          0          0          0

[OUTFALLS]
;;Name           Elev       Type       Stage      Gated
;;-------------- ---------- ---------- ---------- -----
U2               98.43      FREE                  NO

[CONDUITS]
;;Name           From             To               Length     Roughness  InOffset   OutOffset  InitFlow   MaxFlow
;;-------------- ---------------- ---------------- ---------- ---------- ---------- ---------- ---------- ----------
upstrm           U1               U2               95.00      0.0130     88.08      88.01      0          0
dnstrm           D1               D2               95.00      0.0130     88.00      87.93      0          0
spana            road             spanb            10.00      0.0140     88.01      88.01      0          0
207              Node1            Node2            100.00     0.0140     100.00     99.90      0          0
208              Node2            Node3            100.00     0.0140     99.90      99.80      0          0
209              Node3            Node4            100.00     0.0140     99.80      99.70      0          0
210              Node4            Node5            100.00     0.0140     99.70      99.60      0          0
211              Node5            Node6            100.00     0.0140     99.60      99.50      0          0

[XSECTIONS]
;;Link           Shape        Geom1      Geom2      Geom3      Geom4      Barrels
;;-------------- ------------ ---------- ---------- ---------- ---------- ----------
upstrm           TRAPEZOIDAL  9.00       10.00      2          2          1
dnstrm           TRAPEZOIDAL  1.00       10.00      2          2          1
spana            TRAPEZOIDAL  1.00       10.00      2          2          1
207              POWER        5.00       5.00       1.5        0          1
208              POWER        5.00       5.00       1.5        0          1
209              POWER        5.00       5.00       1.5        0          1
210              POWER        5.00       5.00       1.5        0          1
211              POWER        5.00       5.00       1.5        0          1

[LOSSES]
;;Link           Inlet      Outlet     Average    Flap Gate
;;-------------- ---------- ---------- ---------- ----------
upstrm           0          0          0          NO
dnstrm           0          0          0          NO
spana            0          0          0          NO
207              0          0          0          NO
208              0          0          0          NO
209              0          0          0          NO
210              0          0          0          NO
211              0          0          0          NO

[INFLOWS]
;;Node           Constituent  Time Series      Type     Mfactor  Sfactor  Baseline Pattern
;;-------------- ------------ ---------------- -------- -------- -------- -------- --------
;; SYNTHETIC TEST INFLOWS — the source .xp carried no constant inflows
;; and RUNF hydrology is not converted; 0.03 CMS is applied at each
;; headwater node so the network runs wet for QA. Replace with real
;; hydrology or inflow hydrographs before using results.
U1               FLOW         ""               FLOW     1.0      1.0      0.03
D1               FLOW         ""               FLOW     1.0      1.0      0.03
Node1            FLOW         ""               FLOW     1.0      1.0      0.03
road             FLOW         ""               FLOW     1.0      1.0      0.03

[COORDINATES]
;;Node           X-Coord            Y-Coord
;;-------------- ------------------ ------------------
U1               57.64              57.64             
U2               57.64              97.64             
D1               57.64              137.64            
D2               57.64              177.64            
Node1            17.64              17.64             
Node2            37.64              37.64             
Node3            57.64              57.64             
Node4            77.64              77.64             
Node5            97.64              97.64             
Node6            117.64             117.64            

[MAP]
DIMENSIONS 17.64 17.64 117.64 177.64
Units      None

[REPORT]
SUBCATCHMENTS ALL
NODES ALL
LINKS ALL
