;; SWMM5 .inp converted from XPSWMM .xp file
;; Generated by XPSWMM Card Reader
;; Source format: XP_CARD | Original title: Example 1
;; Links parsed from source: 4 | Routable in this .inp: 5

[TITLE]
;;Project Title/Notes
Example 1

[OPTIONS]
FLOW_UNITS           CFS
INFILTRATION         HORTON
FLOW_ROUTING         DYNWAVE
LINK_OFFSETS         DEPTH
MIN_SLOPE            0.0
ALLOW_PONDING        NO
SKIP_STEADY_STATE    NO
ROUTING_STEP         00:00:10
VARIABLE_STEP        0.75
INERTIAL_DAMPING     PARTIAL
NORMAL_FLOW_LIMITED  BOTH
MAX_TRIALS           50
HEAD_TOLERANCE       0.001
START_DATE           01/01/2001
START_TIME           00:00:00
REPORT_START_DATE    01/01/2001
REPORT_START_TIME    00:00:00
END_DATE             01/02/2001
END_TIME             00:00:00
SWEEP_START          01/01
SWEEP_END            12/31
DRY_DAYS             0
REPORT_STEP          00:15:00
WET_STEP             00:05:00
DRY_STEP             01:00:00

[JUNCTIONS]
;;Name           Elev       MaxDepth   InitDepth  SurDepth   Aponded
;;-------------- ---------- ---------- ---------- ---------- ----------
inflow           14.00      0          0          0          0
outlet           17.00      0          0          0          0
204              13.00      0          0          0          0

[OUTFALLS]
;;Name           Elev       Type       Stage      Gated
;;-------------- ---------- ---------- ---------- -----
OUT_SYNTH        16.00      FREE                  NO

[STORAGE]
;;Name           Elev       MaxDepth   InitDepth  Shape      Curve/Params
;;-------------- ---------- ---------- ---------- ---------- ----------
wetwel           13.00      10.00      0          FUNCTIONAL 1.00 0          0

[CONDUITS]
;;Name           From             To               Length     Roughness  InOffset   OutOffset  InitFlow   MaxFlow
;;-------------- ---------------- ---------------- ---------- ---------- ---------- ---------- ---------- ----------
la1              inflow           wetwel           12.00      0.0150     11.00      8.00       0          0
dummy            wetwel           204              33.00      0.0140     8.00       8.00       0          0
C_OUT_SYNTH      outlet           OUT_SYNTH        50.00      0.0130     0          0          0          0

[PUMPS]
;;Name           From             To               PumpCurve  Status   Startup    Shutoff
;;-------------- ---------------- ---------------- ---------- -------- ---------- ----------
well1            wetwel           outlet           PC_well1   ON       1.00       0         
WELL2            204              outlet           PC_WELL2   ON       1.00       0         

[CURVES]
;;Name           Type       X-Value    Y-Value
;;-------------- ---------- ---------- ----------
;; Synthesized generic pump curves — replace with actual pump data
PC_well1         Pump1      0          5
PC_well1                    10         10
PC_WELL2         Pump1      0          5
PC_WELL2                    10         10

[XSECTIONS]
;;Link           Shape        Geom1      Geom2      Geom3      Geom4      Barrels
;;-------------- ------------ ---------- ---------- ---------- ---------- ----------
la1              CIRCULAR     0.15       0          0          0          1
dummy            RECT_CLOSED  2.00       2.00       0          0          1
C_OUT_SYNTH      CIRCULAR     3.00       0          0          0          1

[LOSSES]
;;Link           Inlet      Outlet     Average    Flap Gate
;;-------------- ---------- ---------- ---------- ----------
la1              0          0          0          NO
dummy            0          0          0          NO
C_OUT_SYNTH      0          0          0          NO

[INFLOWS]
;;Node           Constituent  Time Series      Type     Mfactor  Sfactor  Baseline Pattern
;;-------------- ------------ ---------------- -------- -------- -------- -------- --------
inflow           FLOW         ""               FLOW     1.0      1.0      0.02000

[COORDINATES]
;;Node           X-Coord            Y-Coord
;;-------------- ------------------ ------------------
inflow           37.33              37.33             
wetwel           37.33              97.33             
outlet           77.33              137.33            
204              77.64              97.64             

[MAP]
DIMENSIONS 37.33 37.33 77.64 137.33
Units      None

[REPORT]
SUBCATCHMENTS ALL
NODES ALL
LINKS ALL
