;; SWMM5 .inp converted from XPSWMM .xp file
;; Generated by XPSWMM Card Reader
;; Source format: XP_CARD | Original title: (none)

[TITLE]
;;Project Title/Notes
Converted from XPSWMM .xp file

[OPTIONS]
FLOW_UNITS           CFS
INFILTRATION         HORTON
FLOW_ROUTING         DYNWAVE
LINK_OFFSETS         DEPTH
MIN_SLOPE            0.0
ALLOW_PONDING        NO
SKIP_STEADY_STATE    NO
ROUTING_STEP         00:00:30
VARIABLE_STEP        0.75
INERTIAL_DAMPING     PARTIAL
NORMAL_FLOW_LIMITED  BOTH
START_DATE           01/01/2001
START_TIME           00:00:00
REPORT_START_DATE    01/01/2001
REPORT_START_TIME    00:00:00
END_DATE             01/02/2001
END_TIME             00:00:00
SWEEP_START          01/01
SWEEP_END            12/31
DRY_DAYS             0
REPORT_STEP          00:15:00
WET_STEP             00:05:00
DRY_STEP             01:00:00

[JUNCTIONS]
;;Name           Elev       MaxDepth   InitDepth  SurDepth   Aponded
;;-------------- ---------- ---------- ---------- ---------- ----------
Inflow           5.00       0          0          0          0
202              5.00       0          0          0          0
204              5.00       0          0          0          0
206              5.00       0          0          0          0
208              5.00       0          0          0          0
210              5.00       0          0          0          0
212              5.00       0          0          0          0
214              5.00       0          0          0          0

[OUTFALLS]
;;Name           Elev       Type       Stage      Gated
;;-------------- ---------- ---------- ---------- -----
217              5.00       FREE                  NO

[CONDUITS]
;;Name           From             To               Length     Roughness  InOffset   OutOffset  InitFlow   MaxFlow
;;-------------- ---------------- ---------------- ---------- ---------- ---------- ---------- ---------- ----------
203              Inflow           202              100.00     0.0140     0          0          0          0
205              202              204              100.00     0.0140     0          0          0          0
207              204              206              100.00     0.0140     0          0          0          0
209              206              208              100.00     0.0140     0          0          0          0
211              208              210              100.00     0.0140     0          0          0          0
213              210              212              100.00     0.0140     0          0          0          0
215              212              214              100.00     0.0140     0          0          0          0
216              214              204              100.00     0.0140     0          0          0          0
218              204              217              100.00     0.0140     0          0          0          0

[XSECTIONS]
;;Link           Shape        Geom1      Geom2      Geom3      Geom4      Barrels
;;-------------- ------------ ---------- ---------- ---------- ---------- ----------
203              RECT_CLOSED  2.00       2.00       0          0          1
205              RECT_CLOSED  2.00       2.00       0          0          1
207              RECT_CLOSED  2.00       2.00       0          0          1
209              RECT_CLOSED  2.00       2.00       0          0          1
211              RECT_CLOSED  2.00       2.00       0          0          1
213              RECT_CLOSED  2.00       2.00       0          0          1
215              RECT_CLOSED  2.00       2.00       0          0          1
216              RECT_CLOSED  2.00       2.00       0          0          1
218              RECT_CLOSED  2.00       2.00       0          0          1

[LOSSES]
;;Link           Inlet      Outlet     Average    Flap Gate
;;-------------- ---------- ---------- ---------- ----------
203              0          0          0          NO
205              0          0          0          NO
207              0          0          0          NO
209              0          0          0          NO
211              0          0          0          NO
213              0          0          0          NO
215              0          0          0          NO
216              0          0          0          NO
218              0          0          0          NO

[COORDINATES]
;;Node           X-Coord            Y-Coord
;;-------------- ------------------ ------------------
Inflow           17.64              17.64             
202              37.64              37.64             
204              57.64              57.64             
206              57.64              77.64             
208              57.64              97.64             
210              37.64              97.64             
212              37.64              77.64             
214              37.64              57.64             
217              77.64              57.64             

[MAP]
DIMENSIONS 17.64 17.64 77.64 97.64
Units      None

[REPORT]
SUBCATCHMENTS ALL
NODES ALL
LINKS ALL
