;; SWMM5 .inp converted from XPSWMM .xp file
;; Generated by XPSWMM Card Reader
;; Source format: XP_CARD | Original title: (none)
;; Links parsed from source: 9 | Routable in this .inp: 9

[TITLE]
;;Project Title/Notes
Converted from XPSWMM .xp file

[OPTIONS]
FLOW_UNITS           CFS
INFILTRATION         HORTON
FLOW_ROUTING         DYNWAVE
LINK_OFFSETS         DEPTH
MIN_SLOPE            0.0
ALLOW_PONDING        NO
SKIP_STEADY_STATE    NO
ROUTING_STEP         00:00:10
VARIABLE_STEP        0.75
INERTIAL_DAMPING     PARTIAL
NORMAL_FLOW_LIMITED  BOTH
MAX_TRIALS           50
HEAD_TOLERANCE       0.0001
START_DATE           01/01/2001
START_TIME           00:00:00
REPORT_START_DATE    01/01/2001
REPORT_START_TIME    00:00:00
END_DATE             01/02/2001
END_TIME             00:00:00
SWEEP_START          01/01
SWEEP_END            12/31
DRY_DAYS             0
REPORT_STEP          00:15:00
WET_STEP             00:05:00
DRY_STEP             01:00:00

[JUNCTIONS]
;;Name           Elev       MaxDepth   InitDepth  SurDepth   Aponded
;;-------------- ---------- ---------- ---------- ---------- ----------
J317             150.00     0          0          0          0
J301             150.00     0          0          0          0

[OUTFALLS]
;;Name           Elev       Type       Stage      Gated
;;-------------- ---------- ---------- ---------- -----
2133             15.00      FREE                  NO

[STORAGE]
;;Name           Elev       MaxDepth   InitDepth  Shape      Curve/Params
;;-------------- ---------- ---------- ---------- ---------- ----------
S317             10.00      10.00      0          FUNCTIONAL 28.00 0          0
J2317            10.00      10.00      0          FUNCTIONAL 12.57 0          0
J3317            10.00      10.00      0          FUNCTIONAL 12.57 0          0
J4317            10.00      10.00      0          FUNCTIONAL 12.57 0          0
J5317            10.00      10.00      0          FUNCTIONAL 12.57 0          0
J5316            10.00      10.00      0          FUNCTIONAL 12.57 0          0
S301             5.30       10.00      0          FUNCTIONAL 28.00 0          0

[CONDUITS]
;;Name           From             To               Length     Roughness  InOffset   OutOffset  InitFlow   MaxFlow
;;-------------- ---------------- ---------------- ---------- ---------- ---------- ---------- ---------- ----------
317              J317             J2317            100.00     0.0130     0          0          0          0
2317             J2317            J3317            621.00     0.0140     5.00       3.14       0          0
3317             J3317            J4317            683.00     0.0140     3.14       1.09       0          0
4317             J4317            J5317            1146.00    0.0140     1.09       0          0          0
5317             J5317            J5316            188.00     0.0140     0          0          0          0
5316             J5316            S301             1227.00    0.0140     0          0          0          0
301              J301             2133             100.00     0.0130     0          0          0          0

[PUMPS]
;;Name           From             To               PumpCurve  Status   Startup    Shutoff
;;-------------- ---------------- ---------------- ---------- -------- ---------- ----------
8317             S317             J317             PC_8317    ON       3.00       0.50      
8301             S301             J301             PC_8301    ON       1.00       0         

[CURVES]
;;Name           Type       X-Value    Y-Value
;;-------------- ---------- ---------- ----------
;; Synthesized generic pump curves — replace with actual pump data
PC_8317          Pump1      0          5
PC_8317                     10         10
PC_8301          Pump1      0          5
PC_8301                     10         10

[XSECTIONS]
;;Link           Shape        Geom1      Geom2      Geom3      Geom4      Barrels
;;-------------- ------------ ---------- ---------- ---------- ---------- ----------
317              CIRCULAR     1.50       0          0          0          1
2317             CIRCULAR     1.50       0          0          0          1
3317             CIRCULAR     1.75       0          0          0          1
4317             CIRCULAR     2.00       0          0          0          1
5317             CIRCULAR     2.00       0          0          0          1
5316             CIRCULAR     3.50       0          0          0          1
301              CIRCULAR     12.17      0          0          0          1

[LOSSES]
;;Link           Inlet      Outlet     Average    Flap Gate
;;-------------- ---------- ---------- ---------- ----------
317              0          0          0          NO
2317             0          0          0          NO
3317             0          0          0          NO
4317             0          0          0          NO
5317             0          0          0          NO
5316             0          0          0          NO
301              0          0          0          NO

[INFLOWS]
;;Node           Constituent  Time Series      Type     Mfactor  Sfactor  Baseline Pattern
;;-------------- ------------ ---------------- -------- -------- -------- -------- --------
S301             FLOW         ""               FLOW     1.0      1.0      5.00000

[COORDINATES]
;;Node           X-Coord            Y-Coord
;;-------------- ------------------ ------------------
S317             -578044.15         786549.81         
J317             -578187.46         787321.99         
J2317            -578191.10         788529.94         
J3317            -578434.68         788530.70         
J4317            -579126.85         788543.87         
J5317            -580170.45         788583.26         
J5316            -580315.96         788590.76         
S301             -580373.75         787979.51         
J301             -580482.39         787479.16         
2133             -580428.25         785293.91         

[MAP]
DIMENSIONS -580482.39 785293.91 -578044.15 788590.76
Units      None

[REPORT]
SUBCATCHMENTS ALL
NODES ALL
LINKS ALL
