;; SWMM5 .inp converted from XPSWMM .xp file
;; Generated by XPSWMM Card Reader
;; Source format: XP_CARD | Original title: (none)
;; Links parsed from source: 7 | Routable in this .inp: 7

[TITLE]
;;Project Title/Notes
Converted from XPSWMM .xp file

[OPTIONS]
FLOW_UNITS           CFS
INFILTRATION         HORTON
FLOW_ROUTING         DYNWAVE
LINK_OFFSETS         DEPTH
MIN_SLOPE            0.0
ALLOW_PONDING        NO
SKIP_STEADY_STATE    NO
ROUTING_STEP         00:00:20
VARIABLE_STEP        0.75
INERTIAL_DAMPING     PARTIAL
NORMAL_FLOW_LIMITED  BOTH
START_DATE           01/01/2001
START_TIME           00:00:00
REPORT_START_DATE    01/01/2001
REPORT_START_TIME    00:00:00
END_DATE             01/02/2001
END_TIME             00:00:00
SWEEP_START          01/01
SWEEP_END            12/31
DRY_DAYS             0
REPORT_STEP          00:15:00
WET_STEP             00:05:00
DRY_STEP             01:00:00

[JUNCTIONS]
;;Name           Elev       MaxDepth   InitDepth  SurDepth   Aponded
;;-------------- ---------- ---------- ---------- ---------- ----------
201              10.00      0          0          0          0
202              10.00      0          0          0          0
204              10.00      0          0          0          0
206              10.00      0          0          0          0
208              10.00      0          0          0          0
210              10.00      0          0          0          0
212              10.00      0          0          0          0
214              10.00      0          0          0          0
c2               0          0          0          0          0
c23              0          0          0          0          0
c33              0          0          0          0          0
c22              0          0          0          0          0
c32              0          0          0          0          0
c21              0          0          0          0          0
c31              0          0          0          0          0
c24              0          0          0          0          0
c34              0          0          0          0          0
c26              0          0          0          0          0
c36              0          0          0          0          0
c27              0          0          0          0          0
c37              0          0          0          0          0

[OUTFALLS]
;;Name           Elev       Type       Stage      Gated
;;-------------- ---------- ---------- ---------- -----
c3               0          FREE                  NO

[CONDUITS]
;;Name           From             To               Length     Roughness  InOffset   OutOffset  InitFlow   MaxFlow
;;-------------- ---------------- ---------------- ---------- ---------- ---------- ---------- ---------- ----------
c1               c2               c3               100.00     0.0140     0          0          0          0
c13              c23              c33              100.00     0.0140     0          0          0          0
c12              c22              c32              100.00     0.0140     0          0          0          0
c11              c21              c31              100.00     0.0140     0          0          0          0
c14              c24              c34              100.00     0.0140     0          0          0          0
c16              c26              c36              100.00     0.0140     0          0          0          0
c17              c27              c37              100.00     0.0140     0          0          0          0

[XSECTIONS]
;;Link           Shape        Geom1      Geom2      Geom3      Geom4      Barrels
;;-------------- ------------ ---------- ---------- ---------- ---------- ----------
c1               RECT_CLOSED  2.00       2.00       0          0          1
c13              RECT_CLOSED  5.00       2.00       0          0          1
c12              RECT_CLOSED  5.00       2.00       0          0          1
c11              RECT_CLOSED  5.00       2.00       0          0          1
c14              RECT_CLOSED  5.00       2.00       0          0          1
c16              RECT_CLOSED  5.00       2.00       0          0          1
c17              RECT_CLOSED  5.00       2.00       0          0          3

[LOSSES]
;;Link           Inlet      Outlet     Average    Flap Gate
;;-------------- ---------- ---------- ---------- ----------
c1               0          0          0          NO
c13              0          0          0          NO
c12              0          0          0          NO
c11              0          0          0          NO
c14              0          0          0          NO
c16              0          0          0          NO
c17              0          0          0          NO

[INFLOWS]
;;Node           Constituent  Time Series      Type     Mfactor  Sfactor  Baseline Pattern
;;-------------- ------------ ---------------- -------- -------- -------- -------- --------
;; SYNTHETIC TEST INFLOWS — the source .xp carried no constant inflows
;; and RUNF hydrology is not converted; 1.00 CFS is applied at each
;; headwater node so the network runs wet for QA. Replace with real
;; hydrology or inflow hydrographs before using results.
c2               FLOW         ""               FLOW     1.0      1.0      1.00
c23              FLOW         ""               FLOW     1.0      1.0      1.00
c22              FLOW         ""               FLOW     1.0      1.0      1.00
c21              FLOW         ""               FLOW     1.0      1.0      1.00
c24              FLOW         ""               FLOW     1.0      1.0      1.00
c26              FLOW         ""               FLOW     1.0      1.0      1.00
c27              FLOW         ""               FLOW     1.0      1.0      1.00

[COORDINATES]
;;Node           X-Coord            Y-Coord
;;-------------- ------------------ ------------------
201              17.64              37.64             
202              17.64              57.64             
204              17.64              77.64             
206              37.64              77.64             
208              37.64              97.64             
210              57.64              97.64             
212              57.64              117.64            
214              77.64              117.64            

[MAP]
DIMENSIONS 17.64 37.64 77.64 117.64
Units      None

[REPORT]
SUBCATCHMENTS ALL
NODES ALL
LINKS ALL
