;; SWMM5 .inp converted from XPSWMM .xp file
;; Generated by XPSWMM Card Reader
;; Source format: XP_CARD | Original title: Example 2

[TITLE]
;;Project Title/Notes
Example 2

[OPTIONS]
FLOW_UNITS           CFS
INFILTRATION         HORTON
FLOW_ROUTING         DYNWAVE
LINK_OFFSETS         DEPTH
MIN_SLOPE            0.0
ALLOW_PONDING        NO
SKIP_STEADY_STATE    NO
ROUTING_STEP         00:05:00
VARIABLE_STEP        0.75
INERTIAL_DAMPING     PARTIAL
NORMAL_FLOW_LIMITED  BOTH
MAX_TRIALS           50
START_DATE           01/01/2001
START_TIME           00:00:00
REPORT_START_DATE    01/01/2001
REPORT_START_TIME    00:00:00
END_DATE             01/02/2001
END_TIME             00:00:00
SWEEP_START          01/01
SWEEP_END            12/31
DRY_DAYS             0
REPORT_STEP          00:15:00
WET_STEP             00:05:00
DRY_STEP             01:00:00

[JUNCTIONS]
;;Name           Elev       MaxDepth   InitDepth  SurDepth   Aponded
;;-------------- ---------- ---------- ---------- ---------- ----------
o/flow           130.00     0          0          0          0
ds               100.00     0          0          0          0
Node_162         0          0          0          0          0
qcompare         1.00       0          0          0          0

[OUTFALLS]
;;Name           Elev       Type       Stage      Gated
;;-------------- ---------- ---------- ---------- -----
irrig            130.00     FREE                  NO

[STORAGE]
;;Name           Elev       MaxDepth   InitDepth  Shape      Curve/Params
;;-------------- ---------- ---------- ---------- ---------- ----------
reserv           150.00     10.00      0          FUNCTIONAL 10.00 0          0
lake             100.00     10.00      0          FUNCTIONAL 12.50 0          0
lake_2           103.00     10.00      0.50       FUNCTIONAL 1000.00 0          0

[CONDUITS]
;;Name           From             To               Length     Roughness  InOffset   OutOffset  InitFlow   MaxFlow
;;-------------- ---------------- ---------------- ---------- ---------- ---------- ---------- ---------- ----------
chan1            reserv           irrig            500.00     0.0200     100.00     99.00      0          0
spill            reserv           o/flow           100.00     0.0050     103.00     103.00     0          0
tunnel           lake             lake             500.00     0.0050     71.00      70.00      0          0
river            lake             ds               500.00     0.0130     68.00      60.00      0          0

[PUMPS]
;;Name           From             To               PumpCurve  Status   Startup    Shutoff
;;-------------- ---------------- ---------------- ---------- -------- ---------- ----------
Pump             lake             reserv           PC_Pump    ON       56.00      51.00     

[CURVES]
;;Name           Type       X-Value    Y-Value
;;-------------- ---------- ---------- ----------
;; Synthesized generic pump curves — replace with actual pump data
PC_Pump          Pump1      0          5
PC_Pump                     10         10

[XSECTIONS]
;;Link           Shape        Geom1      Geom2      Geom3      Geom4      Barrels
;;-------------- ------------ ---------- ---------- ---------- ---------- ----------
chan1            POWER        10.00      16.00      0          0          1
spill            TRAPEZOIDAL  20.00      20.00      1          1          1
tunnel           HORSESHOE    10.00      10.00      0          0          1
river            TRAPEZOIDAL  15.00      10.00      2          2          1

[LOSSES]
;;Link           Inlet      Outlet     Average    Flap Gate
;;-------------- ---------- ---------- ---------- ----------
chan1            0          0          0          NO
spill            0          0          0          NO
tunnel           0          0          0          NO
river            0          0          0          NO

[COORDINATES]
;;Node           X-Coord            Y-Coord
;;-------------- ------------------ ------------------
reserv           146.94             210.75            
irrig            106.94             210.75            
o/flow           146.94             270.75            
lake             166.12             150.75            
lake_2           169.64             250.95            
ds               200.90             248.09            
qcompare         109.81             271.39            

[MAP]
DIMENSIONS 106.94 150.75 200.90 271.39
Units      None

[REPORT]
SUBCATCHMENTS ALL
NODES ALL
LINKS ALL
