;; SWMM5 .inp converted from XPSWMM .xp file
;; Generated by XPSWMM Card Reader
;; Source format: XP_CARD | Original title: Example 3
;; Links parsed from source: 13 | Routable in this .inp: 13

[TITLE]
;;Project Title/Notes
Example 3

[OPTIONS]
FLOW_UNITS           CMS
INFILTRATION         HORTON
FLOW_ROUTING         DYNWAVE
LINK_OFFSETS         DEPTH
MIN_SLOPE            0.0
ALLOW_PONDING        NO
SKIP_STEADY_STATE    NO
ROUTING_STEP         00:01:00
VARIABLE_STEP        0.75
INERTIAL_DAMPING     PARTIAL
NORMAL_FLOW_LIMITED  BOTH
MAX_TRIALS           50
HEAD_TOLERANCE       .001
START_DATE           01/01/2001
START_TIME           00:00:00
REPORT_START_DATE    01/01/2001
REPORT_START_TIME    00:00:00
END_DATE             01/02/2001
END_TIME             00:00:00
SWEEP_START          01/01
SWEEP_END            12/31
DRY_DAYS             0
REPORT_STEP          00:15:00
WET_STEP             00:05:00
DRY_STEP             01:00:00

[JUNCTIONS]
;;Name           Elev       MaxDepth   InitDepth  SurDepth   Aponded
;;-------------- ---------- ---------- ---------- ---------- ----------
1                100.00     0          0          0          0
2                100.00     0          0          0          0
3                100.00     0          0          0          0
4                100.00     0          0          0          0
inflo1           100.00     0          0          0          0
inflo2           100.00     0          0          0          0
inflo3           100.00     0          0          0          0
roadjunc         100.00     0          0          0          0
outletp          100.00     0          0          0          0
extra            100.00     0          0          0          0

[OUTFALLS]
;;Name           Elev       Type       Stage      Gated
;;-------------- ---------- ---------- ---------- -----
outletrd         100.00     FREE                  NO

[CONDUITS]
;;Name           From             To               Length     Roughness  InOffset   OutOffset  InitFlow   MaxFlow
;;-------------- ---------------- ---------------- ---------- ---------- ---------- ---------- ---------- ----------
pipe1            1                2                35.98      0.0120     97.00      96.70      0          0
pipe2            2                3                10.00      0.0120     96.70      96.30      0          0
pipe3            3                4                55.00      0.0120     96.30      96.40      0          0
road             inflo1           inflo2           10.00      0.0140     99.40      99.30      0          0
road_2           inflo2           inflo3           10.00      0.0140     99.30      99.25      0          0
road_3           inflo3           roadjunc         55.00      0.0140     99.25      99.10      0          0
user1            4                outletp          110.00     0.0150     96.40      96.00      0          0
road_4           roadjunc         outletrd         103.00     0.0140     99.10      99.00      0          0
326              extra            outletp          100.00     0.0130     0          0          0          0

[ORIFICES]
;;Name           From             To               Type       Offset     Qcoeff     Gated    CloseTime
;;-------------- ---------------- ---------------- ---------- ---------- ---------- -------- ----------
manhole          inflo2           2                SIDE       0          0.650      NO       0
manhole_2        inflo1           1                SIDE       0          0.650      NO       0
manhole_3        inflo3           3                SIDE       0          0.650      NO       0
manhole_4        roadjunc         4                SIDE       0          0.650      NO       0

[XSECTIONS]
;;Link           Shape        Geom1      Geom2      Geom3      Geom4      Barrels
;;-------------- ------------ ---------- ---------- ---------- ---------- ----------
pipe1            CIRCULAR     0.60       0.00       0          0          1
pipe2            CIRCULAR     0.60       0.00       0          0          1
pipe3            CIRCULAR     0.60       0          0          0          1
road             TRAPEZOIDAL  0.60       0.00       2          2          1
road_2           TRAPEZOIDAL  0.60       0.00       2          2          1
road_3           TRAPEZOIDAL  0.60       0.00       2          2          1
user1            CIRCULAR     0.60       0          0          0          1
road_4           TRAPEZOIDAL  0.60       0.00       2          2          1
326              CIRCULAR     1.00       0          0          0          1
manhole          RECT_CLOSED  0.15       0.15       0          0
manhole_2        RECT_CLOSED  0.15       0.15       0          0
manhole_3        RECT_CLOSED  0.15       0.15       0          0
manhole_4        RECT_CLOSED  0.15       0.15       0          0

[LOSSES]
;;Link           Inlet      Outlet     Average    Flap Gate
;;-------------- ---------- ---------- ---------- ----------
pipe1            0          0          0          NO
pipe2            0          0          0          NO
pipe3            0          0          0          NO
road             0          0          0          NO
road_2           0          0          0          NO
road_3           0          0          0          NO
user1            0          0          0          NO
road_4           0          0          0          NO
326              0          0          0          NO

[INFLOWS]
;;Node           Constituent  Time Series      Type     Mfactor  Sfactor  Baseline Pattern
;;-------------- ------------ ---------------- -------- -------- -------- -------- --------
;; SYNTHETIC TEST INFLOWS — the source .xp carried no constant inflows
;; and RUNF hydrology is not converted; 0.03 CMS is applied at each
;; headwater node so the network runs wet for QA. Replace with real
;; hydrology or inflow hydrographs before using results.
inflo1           FLOW         ""               FLOW     1.0      1.0      0.03
extra            FLOW         ""               FLOW     1.0      1.0      0.03

[COORDINATES]
;;Node           X-Coord            Y-Coord
;;-------------- ------------------ ------------------
1                34.00              34.00             
2                35.48              68.79             
3                54.00              94.00             
4                74.37              108.86            
inflo1           15.31              34.27             
inflo2           15.85              74.61             
inflo3           40.36              109.03            
roadjunc         61.02              125.42            
outletp          94.00              114.00            
outletrd         94.00              134.00            
extra            103.51             55.66             

[MAP]
DIMENSIONS 15.31 34.00 103.51 134.00
Units      None

[REPORT]
SUBCATCHMENTS ALL
NODES ALL
LINKS ALL
