;; SWMM5 .inp converted from XPSWMM .xp file
;; Generated by XPSWMM Card Reader
;; Source format: XP_CARD | Original title: Toongabbie Creek - Confluence Area
;; Links parsed from source: 117 | Routable in this .inp: 117

[TITLE]
;;Project Title/Notes
Toongabbie Creek - Confluence Area

[OPTIONS]
FLOW_UNITS           CMS
INFILTRATION         HORTON
FLOW_ROUTING         DYNWAVE
LINK_OFFSETS         DEPTH
MIN_SLOPE            0.0
ALLOW_PONDING        NO
SKIP_STEADY_STATE    NO
ROUTING_STEP         00:00:20
VARIABLE_STEP        0.75
INERTIAL_DAMPING     PARTIAL
NORMAL_FLOW_LIMITED  BOTH
MAX_TRIALS           50
HEAD_TOLERANCE       0.0001
START_DATE           01/01/2001
START_TIME           00:00:00
REPORT_START_DATE    01/01/2001
REPORT_START_TIME    00:00:00
END_DATE             01/02/2001
END_TIME             00:00:00
SWEEP_START          01/01
SWEEP_END            12/31
DRY_DAYS             0
REPORT_STEP          00:15:00
WET_STEP             00:05:00
DRY_STEP             01:00:00

[JUNCTIONS]
;;Name           Elev       MaxDepth   InitDepth  SurDepth   Aponded
;;-------------- ---------- ---------- ---------- ---------- ----------
178              50.00      0          0          0          0
179              50.00      0          0          0          0
183              50.00      0          0          0          0
185              50.00      0          0          0          0
1.15             50.00      0          0          0          0
189              50.00      0          0          0          0
191              50.00      0          0          0          0
6.13             50.00      0          0          0          0
198              50.00      0          0          0          0
190              50.00      0          0          0          0
203              50.00      0          0          0          0
205              50.00      0          0          0          0
211              50.00      0          0          0          0
212              50.00      0          0          0          0
218              50.00      0          0          0          0
223              50.00      0          0          0          0
6.08             50.00      0          0          0          0
P3               50.00      0          0          0          0
63.00            50.00      0          0          0          0
62.00            50.00      0          0          0          0
6.10             50.00      0          0          0          0
234              50.00      0          0          0          0
236              50.00      0          0          0          0
238              50.00      0          0          0          0
P4               50.00      0          0          0          0
180              50.00      0          0          0          0
244              50.00      0          0          0          0
251              50.00      0          0          0          0
253              50.00      0          0          0          0
290              50.00      0          0          0          0
292              50.00      0          0          0          0
297              50.00      0          0          0          0
299              50.00      0          0          0          0
6.07             51.00      0          0          0          0
65.09            50.00      0          0          0          0
O2               50.00      0          0          0          0
O3               50.00      0          0          0          0
O6               50.00      0          0          0          0
O7               50.00      0          0          0          0
O8               50.00      0          0          0          0
O9               50.00      0          0          0          0
O10              50.00      0          0          0          0
O14              50.00      0          0          0          0
O15              50.00      0          0          0          0
O5               50.00      0          0          0          0
O1               50.00      0          0          0          0
609              50.00      0          0          0          0
611              50.00      0          0          0          0
612              50.00      0          0          0          0
613              50.00      0          0          0          0
620              50.00      0          0          0          0
621              50.00      0          0          0          0
622              50.00      0          0          0          0
625              50.00      0          0          0          0
626              50.00      0          0          0          0
69.00            50.00      0          0          0          0
631              50.00      0          0          0          0
632              50.00      0          0          0          0
633              50.00      0          0          0          0
634              50.00      0          0          0          0
635              50.00      0          0          0          0
636              50.00      0          0          0          0
637              50.00      0          0          0          0
65.05E           50.00      0          0          0          0
680              50.00      0          0          0          0
C1               50.00      0          0          0          0
C2               50.00      0          0          0          0
C3               50.00      0          0          0          0
694              50.00      0          0          0          0
695              50.00      0          0          0          0
5.2NS            25.83      0          0          0          0
WENTNS           33.16      0          0          0          0
RAILNS           33.47      0          0          0          0
STATNS           24.63      0          0          0          0
PH2NS            23.58      0          0          0          0
PH12NS           33.10      0          0          0          0
SURF1            26.20      0          0          0          0
SURF2            25.30      0          0          0          0
SURF3            24.10      0          0          0          0
SURF4            23.46      0          0          0          0
SURF5            22.39      0          0          0          0
SURF6            22.01      0          0          0          0
SURF7            21.84      0          0          0          0
SURF7B           20.81      0          0          0          0
portr            29.57      0          0          0          0
octrd            28.40      0          0          0          0
cornr            27.35      0          0          0          0
portir           26.40      0          0          0          0
FITZ2            0          0          0          0          0
FITZ3            0          0          0          0          0

[OUTFALLS]
;;Name           Elev       Type       Stage      Gated
;;-------------- ---------- ---------- ---------- -----
Outlet           50.00      FREE                  NO

[STORAGE]
;;Name           Elev       MaxDepth   InitDepth  Shape      Curve/Params
;;-------------- ---------- ---------- ---------- ---------- ----------
181              50.00      10.00      0          FUNCTIONAL 2.00 0          0
1.12E            50.00      10.00      0          FUNCTIONAL 10.00 0          0
6.12             50.00      10.00      0          FUNCTIONAL 2.00 0          0
208              50.00      10.00      0          FUNCTIONAL 2.00 0          0
215              50.00      10.00      0          FUNCTIONAL 100.00 0          0
216              50.00      10.00      0          FUNCTIONAL 100.00 0          0
6.11             50.00      10.00      0          FUNCTIONAL 100.00 0          0
248              50.00      10.00      0          FUNCTIONAL 5.00 0          0
249              50.00      10.00      0          FUNCTIONAL 2.00 0          0
256              51.00      10.00      0          FUNCTIONAL 2.00 0          0
258              51.00      10.00      0          FUNCTIONAL 10.00 0          0
200              51.00      10.00      0          FUNCTIONAL 2.00 0          0
287              50.00      10.00      0          FUNCTIONAL 5.00 0          0
288              50.00      10.00      0          FUNCTIONAL 5.00 0          0
296              50.00      10.00      0          FUNCTIONAL 1.00 0          0
O11              50.00      10.00      0          FUNCTIONAL 5.00 0          0
O12              50.00      10.00      0          FUNCTIONAL 5.00 0          0
O13              50.00      10.00      0          FUNCTIONAL 10.00 0          0
O4               50.00      10.00      0          FUNCTIONAL 200.00 0          0
64.00            50.00      10.00      0          FUNCTIONAL 5.00 0          0
O19              50.00      10.00      0          FUNCTIONAL 5.00 0          0
O20              50.00      10.00      0          FUNCTIONAL 5.00 0          0
64.01            50.00      10.00      0          FUNCTIONAL 10.00 0          0
O17              50.00      10.00      0          FUNCTIONAL 2.00 0          0
30.00            50.00      10.00      0          FUNCTIONAL 20.00 0          0
614              50.00      10.00      0          FUNCTIONAL 50.00 0          0
615              50.00      10.00      0          FUNCTIONAL 50.00 0          0
65.08            50.00      10.00      0          FUNCTIONAL 5.00 0          0
628              50.00      10.00      0          FUNCTIONAL 100.00 0          0
65.06            50.00      10.00      0          FUNCTIONAL 100.00 0          0
667              50.00      10.00      0          FUNCTIONAL 50.00 0          0

[CONDUITS]
;;Name           From             To               Length     Roughness  InOffset   OutOffset  InitFlow   MaxFlow
;;-------------- ---------------- ---------------- ---------- ---------- ---------- ---------- ---------- ----------
T33.1            178              179              100.00     0.0130     19.85      19.21      0          0
T32.7            179              181              100.00     0.0130     19.21      19.01      0          0
T32.5            181              183              100.00     0.0130     19.01      18.09      0          0
T32.3            183              185              100.00     0.0130     18.09      17.91      0          0
T31.15           185              1.15             100.00     0.0130     17.91      17.30      0          0
JOHNST           1.15             189              10.00      0.0130     17.30      17.30      0          0
T32.0            191              189              100.00     0.0130     17.32      17.30      0          0
T30.3            191              Outlet           100.00     0.0130     17.32      17.11      0          0
T33.2            1.12E            178              100.00     0.0130     20.87      19.85      0          0
PH1.2            6.13             198              100.00     0.0130     23.00      22.65      0          0
PH1.15           198              190              100.00     0.0130     22.65      22.07      0          0
PH1.0            190              1.12E            100.00     0.0130     22.07      20.87      0          0
PH1.54           203              6.13             100.00     0.0130     23.16      23.00      0          0
PH1.7            205              203              100.00     0.0130     23.30      23.16      0          0
PH2.0            208              205              100.00     0.0130     23.38      23.30      0          0
PH3.1            211              212              100.00     0.0130     24.66      23.71      0          0
PH2.4            212              6.12             100.00     0.0130     23.71      23.58      0          0
PH4.1            215              216              100.00     0.0130     25.68      25.25      0          0
PH4.0            216              218              100.00     0.0130     25.25      24.81      0          0
PH3.2            218              211              100.00     0.0130     24.81      24.66      0          0
5.2U             5.2NS            215              14.70      0.0150     25.83      25.68      0          0
PH9.3            P3               6.08             100.00     0.0130     31.11      31.05      0          0
PH9.1            P3               63.00            100.00     0.0130     31.11      29.75      0          0
PH9              63.00            62.00            100.00     0.0130     29.75      29.00      0          0
PH8              62.00            6.10             100.00     0.0130     29.00      28.77      0          0
PH7.4            6.10             234              100.00     0.0130     28.77      28.14      0          0
PH7.2            234              236              100.00     0.0130     28.14      27.60      0          0
PH7              236              238              100.00     0.0130     27.60      26.92      0          0
PH6.5            238              P4               100.00     0.0130     26.92      26.55      0          0
PH6.0            P4               180              100.00     0.0130     26.55      26.05      0          0
PH5.7            180              244              100.00     0.0130     26.05      25.64      0          0
PH5.4            6.11             244              100.00     0.0130     25.83      25.64      0          0
PH11.5           251              253              100.00     0.0130     33.15      32.84      0          0
PH11             253              223              100.00     0.0130     32.84      31.62      0          0
PH13             248              256              100.00     0.0130     33.10      33.09      0          0
WENTU            WENTNS           256              22.00      0.0150     33.16      33.09      0          0
RAILU            RAILNS           258              37.00      0.0150     33.47      33.16      0          0
G2.6             288              290              100.00     0.0130     24.51      24.03      0          0
G2.5             290              292              100.00     0.0130     24.03      23.52      0          0
G2.2             292              6.13             100.00     0.0130     23.52      23.00      0          0
STATNU           STATNS           288              23.80      0.0150     24.63      24.51      0          0
G3.13a           296              297              100.00     0.0130     25.77      25.33      0          0
G3.13            297              299              100.00     0.0130     25.33      24.99      0          0
G3.12            299              287              10.00      0.0140     24.99      24.63      0          0
PH2BC            PH2NS            208              42.90      0.0150     23.58      23.38      0          0
PH10.2           223              6.08             100.00     0.0130     31.62      31.05      0          0
PH12C            PH12NS           249              60.00      0.0150     33.10      33.05      0          0
PH14.4           6.07             200              100.00     0.0130     34.00      33.47      0          0
RAILG            65.09            296              100.00     0.0130     25.99      25.77      0          0
O1O5             O5               O1               100.00     0.0130     26.00      25.95      0          0
O5O8             O8               O5               100.00     0.0130     26.40      26.00      0          0
O8O11            O11              O8               100.00     0.0130     27.00      26.40      0          0
O8O9             O8               O9               100.00     0.0130     26.40      26.20      0          0
O9O10            O9               O10              100.00     0.0130     26.20      26.00      0          0
O5O6             O5               O6               100.00     0.0130     26.00      25.80      0          0
O6O7             O6               O7               100.00     0.0130     25.80      25.70      0          0
O1O2             O1               O2               100.00     0.0130     25.95      25.85      0          0
O2O3             O2               O3               100.00     0.0130     25.85      25.80      0          0
O3O4             O3               O4               100.00     0.0130     25.80      25.75      0          0
O2O6             O2               O6               100.00     0.0130     25.85      25.80      0          0
O6O9             O9               O6               100.00     0.0130     26.20      25.80      0          0
O9O12            O12              O9               100.00     0.0130     26.50      26.20      0          0
O4O7             O4               O7               100.00     0.0130     25.75      25.70      0          0
O7O10            O10              O7               100.00     0.0130     26.00      25.70      0          0
O10O13           O10              O13              100.00     0.0130     26.00      25.80      0          0
O15203           O15              203              100.00     0.0130     26.30      25.40      0          0
209O5            290              O15              100.00     0.0130     26.40      26.30      0          0
O14O15           O14              O15              100.00     0.0130     27.50      26.30      0          0
299O14           299              O14              100.00     0.0130     28.10      27.50      0          0
PH12             251              249              100.00     0.0130     33.15      33.05      0          0
PIPE1            SURF1            O19              90.00      0.0140     26.20      25.30      0          0
PIPE2            SURF2            O20              120.00     0.0140     25.30      24.10      0          0
PIPE3            SURF3            O11              60.00      0.0140     24.10      23.46      0          0
PIPE4            SURF4            O12              171.00     0.0140     23.46      22.44      0          0
PIPE5            SURF5            O13              180.00     0.0140     22.39      22.01      0          0
PIPE6            SURF6            64.01            80.00      0.0140     22.01      21.84      0          0
PIPE7            SURF7            SURF7B           60.00      0.0120     21.84      20.81      0          0
30187            30.00            185              43.00      0.0150     21.68      21.00      0          0
G16.0            65.05E           637              100.00     0.0130     36.44      35.22      0          0
G15.5            637              636              100.00     0.0130     35.22      34.04      0          0
G15.0            635              636              100.00     0.0130     34.18      34.04      0          0
G14.0            635              694              100.00     0.0130     34.18      33.70      0          0
G13.2            634              633              100.00     0.0130     32.92      32.43      0          0
G13.1            633              632              100.00     0.0130     32.43      31.21      0          0
G13.0            632              695              100.00     0.0130     31.21      29.40      0          0
G12.0            65.06            631              10.00      0.0130     30.29      30.20      0          0
G11.0            69.00            628              100.00     0.0130     29.77      29.57      0          0
G10.5            69.00            626              100.00     0.0130     29.77      29.45      0          0
G10.0            626              625              100.00     0.0130     29.45      28.67      0          0
G7.0             622              621              100.00     0.0130     27.90      27.58      0          0
G6.0             621              620              100.00     0.0130     27.58      27.51      0          0
G5.2             620              615              100.00     0.0130     27.51      27.35      0          0
G5.0             613              614              100.00     0.0130     27.28      27.25      0          0
G4.34            613              612              100.00     0.0130     27.28      26.51      0          0
G4.31            612              611              100.00     0.0130     26.51      26.50      0          0
661              611              609              100.00     0.0130     26.50      26.38      0          0
G7.5             667              622              100.00     0.0130     28.03      27.90      0          0
portc            portr            628              8.00       0.0150     29.57      29.57      0          0
octcul           octrd            667              10.00      0.0300     28.40      28.37      0          0
cornc            cornr            614              17.50      0.0150     27.35      27.25      0          0
portic           portir           680              14.00      0.0150     26.40      26.38      0          0
O17181           O17              181              100.00     0.0130     20.67      20.12      0          0
G8.5             625              65.08            100.00     0.0130     28.67      28.40      0          0
681              680              65.09            100.00     0.0130     26.38      25.99      0          0
A                6.11             C1               100.00     0.0130     28.40      27.50      0          0
B                C1               C2               100.00     0.0130     27.50      27.10      0          0
C                C2               C3               100.00     0.0130     27.10      26.40      0          0
D                C3               6.12             100.00     0.0130     26.40      26.50      0          0
G13.5            694              634              100.00     0.0130     33.70      32.92      0          0
G12.5            631              695              100.00     0.0130     30.20      29.40      0          0

[WEIRS]
;;Name           From             To               Type       CrestHt    Qcoeff     Gated    EndCon   EndCoeff   Surcharge
;;-------------- ---------------- ---------------- ---------- ---------- ---------- -------- -------- ---------- ----------
198O4            198              O4               TRANSVERSE 26.25      1.840      NO       0        0          YES
P5O3             6.13             O3               TRANSVERSE 26.30      1.840      NO       0        0          YES
203O2            203              O2               TRANSVERSE 26.40      1.840      NO       0        0          YES
205O1            205              O1               TRANSVERSE 26.40      1.840      NO       0        0          YES
FITZ1            FITZ2            FITZ3            TRANSVERSE 26.35      1.840      NO       0        0          YES
700              O7               178              TRANSVERSE 26.50      1.840      NO       0        0          YES
701              O10              179              TRANSVERSE 26.50      1.840      NO       0        0          YES

[XSECTIONS]
;;Link           Shape        Geom1      Geom2      Geom3      Geom4      Barrels
;;-------------- ------------ ---------- ---------- ---------- ---------- ----------
T33.1            TRAPEZOIDAL  12.00      10.00      2          2          1
T32.7            TRAPEZOIDAL  12.00      10.00      2          2          1
T32.5            TRAPEZOIDAL  12.00      10.00      2          2          1
T32.3            TRAPEZOIDAL  12.00      10.00      2          2          1
T31.15           TRAPEZOIDAL  12.00      10.00      2          2          1
JOHNST           TRAPEZOIDAL  12.00      10.00      2          2          1
T32.0            TRAPEZOIDAL  15.00      10.00      2          2          1
T30.3            TRAPEZOIDAL  15.00      10.00      2          2          1
T33.2            TRAPEZOIDAL  12.00      10.00      2          2          1
PH1.2            TRAPEZOIDAL  10.00      10.00      2          2          1
PH1.15           TRAPEZOIDAL  10.00      10.00      2          2          1
PH1.0            TRAPEZOIDAL  10.00      10.00      2          2          1
PH1.54           TRAPEZOIDAL  10.00      10.00      2          2          1
PH1.7            TRAPEZOIDAL  10.00      10.00      2          2          1
PH2.0            TRAPEZOIDAL  10.00      10.00      2          2          1
PH3.1            TRAPEZOIDAL  10.00      10.00      2          2          1
PH2.4            TRAPEZOIDAL  10.00      10.00      2          2          1
PH4.1            TRAPEZOIDAL  10.00      10.00      2          2          1
PH4.0            TRAPEZOIDAL  10.00      10.00      2          2          1
PH3.2            TRAPEZOIDAL  10.00      10.00      2          2          1
5.2U             RECT_CLOSED  2.15       3.10       0          0          2
PH9.3            TRAPEZOIDAL  10.00      10.00      2          2          1
PH9.1            TRAPEZOIDAL  10.00      10.00      2          2          1
PH9              TRAPEZOIDAL  10.00      10.00      2          2          1
PH8              TRAPEZOIDAL  10.00      10.00      2          2          1
PH7.4            TRAPEZOIDAL  10.00      10.00      2          2          1
PH7.2            TRAPEZOIDAL  10.00      10.00      2          2          1
PH7              TRAPEZOIDAL  10.00      10.00      2          2          1
PH6.5            TRAPEZOIDAL  10.00      10.00      2          2          1
PH6.0            TRAPEZOIDAL  10.00      10.00      2          2          1
PH5.7            TRAPEZOIDAL  10.00      10.00      2          2          1
PH5.4            TRAPEZOIDAL  10.00      10.00      2          2          1
PH11.5           TRAPEZOIDAL  10.00      10.00      2          2          1
PH11             TRAPEZOIDAL  10.00      10.00      2          2          1
PH13             TRAPEZOIDAL  10.00      10.00      2          2          1
WENTU            RECT_CLOSED  2.40       2.70       0          0          2
RAILU            RECT_CLOSED  2.40       3.35       0          0          2
G2.6             TRAPEZOIDAL  10.00      10.00      2          2          1
G2.5             TRAPEZOIDAL  10.00      10.00      2          2          1
G2.2             TRAPEZOIDAL  10.00      10.00      2          2          1
STATNU           RECT_CLOSED  2.40       4.20       0          0          2
G3.13a           TRAPEZOIDAL  10.00      10.00      2          2          1
G3.13            TRAPEZOIDAL  10.00      10.00      2          2          1
G3.12            TRAPEZOIDAL  10.00      10.00      2          2          1
PH2BC            RECT_CLOSED  1.90       3.00       0          0          2
PH10.2           TRAPEZOIDAL  10.00      10.00      2          2          1
PH12C            RECT_CLOSED  2.25       4.00       0          0          1
PH14.4           TRAPEZOIDAL  10.00      10.00      2          2          1
RAILG            TRAPEZOIDAL  10.00      10.00      2          2          1
O1O5             TRAPEZOIDAL  10.00      10.00      2          2          1
O5O8             TRAPEZOIDAL  10.00      10.00      2          2          1
O8O11            TRAPEZOIDAL  1.00       10.00      2          2          1
O8O9             TRAPEZOIDAL  10.00      10.00      2          2          1
O9O10            TRAPEZOIDAL  10.00      10.00      2          2          1
O5O6             TRAPEZOIDAL  10.00      10.00      2          2          1
O6O7             TRAPEZOIDAL  10.00      10.00      2          2          1
O1O2             TRAPEZOIDAL  10.00      10.00      2          2          1
O2O3             TRAPEZOIDAL  10.00      10.00      2          2          1
O3O4             TRAPEZOIDAL  10.00      10.00      2          2          1
O2O6             TRAPEZOIDAL  10.00      10.00      2          2          1
O6O9             TRAPEZOIDAL  10.00      10.00      2          2          1
O9O12            TRAPEZOIDAL  10.00      10.00      2          2          1
O4O7             TRAPEZOIDAL  10.00      10.00      2          2          1
O7O10            TRAPEZOIDAL  10.00      10.00      2          2          1
O10O13           TRAPEZOIDAL  10.00      10.00      2          2          1
O15203           TRAPEZOIDAL  10.00      10.00      2          2          1
209O5            TRAPEZOIDAL  10.00      10.00      2          2          1
O14O15           TRAPEZOIDAL  10.00      10.00      2          2          1
299O14           TRAPEZOIDAL  10.00      10.00      2          2          1
PH12             TRAPEZOIDAL  10.00      10.00      2          2          1
PIPE1            CIRCULAR     1.20       0          0          0          1
PIPE2            CIRCULAR     1.20       0          0          0          1
PIPE3            CIRCULAR     1.65       0          0          0          1
PIPE4            CIRCULAR     1.95       0          0          0          1
PIPE5            CIRCULAR     2.10       0          0          0          1
PIPE6            CIRCULAR     2.10       0          0          0          1
PIPE7            CIRCULAR     2.10       0          0          0          1
30187            CIRCULAR     0.90       0          0          0          1
G16.0            TRAPEZOIDAL  10.00      10.00      2          2          1
G15.5            TRAPEZOIDAL  10.00      10.00      2          2          1
G15.0            TRAPEZOIDAL  10.00      10.00      2          2          1
G14.0            TRAPEZOIDAL  10.00      10.00      2          2          1
G13.2            TRAPEZOIDAL  10.00      10.00      2          2          1
G13.1            TRAPEZOIDAL  10.00      10.00      2          2          1
G13.0            TRAPEZOIDAL  10.00      10.00      2          2          1
G12.0            TRAPEZOIDAL  10.00      10.00      2          2          1
G11.0            TRAPEZOIDAL  10.00      10.00      2          2          1
G10.5            TRAPEZOIDAL  10.00      10.00      2          2          1
G10.0            TRAPEZOIDAL  10.00      10.00      2          2          1
G7.0             TRAPEZOIDAL  10.00      10.00      2          2          1
G6.0             TRAPEZOIDAL  10.00      10.00      2          2          1
G5.2             TRAPEZOIDAL  10.00      10.00      2          2          1
G5.0             TRAPEZOIDAL  10.00      10.00      2          2          1
G4.34            TRAPEZOIDAL  10.00      10.00      2          2          1
G4.31            TRAPEZOIDAL  10.00      10.00      2          2          1
661              TRAPEZOIDAL  10.00      10.00      2          2          1
G7.5             TRAPEZOIDAL  10.00      10.00      2          2          1
portc            RECT_CLOSED  2.50       3.30       0          0          3
octcul           RECT_CLOSED  3.00       10.40      0          0          1
cornc            RECT_CLOSED  2.10       3.97       0          0          3
portic           RECT_CLOSED  2.10       3.97       0          0          3
O17181           TRAPEZOIDAL  12.00      10.00      2          2          1
G8.5             TRAPEZOIDAL  10.00      10.00      2          2          1
681              TRAPEZOIDAL  10.00      10.00      2          2          1
A                TRAPEZOIDAL  10.00      10.00      2          2          1
B                TRAPEZOIDAL  10.00      10.00      2          2          1
C                TRAPEZOIDAL  10.00      10.00      2          2          1
D                TRAPEZOIDAL  10.00      10.00      2          2          1
G13.5            TRAPEZOIDAL  10.00      10.00      2          2          1
G12.5            TRAPEZOIDAL  10.00      10.00      2          2          1
198O4            RECT_OPEN    1.00       180.00     0          0
P5O3             RECT_OPEN    1.00       100.00     0          0
203O2            RECT_OPEN    1.00       136.00     0          0
205O1            RECT_OPEN    1.00       90.00      0          0
FITZ1            RECT_OPEN    1.00       32.00      0          0
700              RECT_OPEN    1.00       180.00     0          0
701              RECT_OPEN    1.00       180.00     0          0

[LOSSES]
;;Link           Inlet      Outlet     Average    Flap Gate
;;-------------- ---------- ---------- ---------- ----------
T33.1            0          0          0          NO
T32.7            0          0          0          NO
T32.5            0          0          0          NO
T32.3            0          0          0          NO
T31.15           0          0          0          NO
JOHNST           0          0          0          NO
T32.0            0          0          0          NO
T30.3            0          0          0          NO
T33.2            0          0          0          NO
PH1.2            0          0          0          NO
PH1.15           0          0          0          NO
PH1.0            0          0          0          NO
PH1.54           0          0          0          NO
PH1.7            0          0          0          NO
PH2.0            0          0          0          NO
PH3.1            0          0          0          NO
PH2.4            0          0          0          NO
PH4.1            0          0          0          NO
PH4.0            0          0          0          NO
PH3.2            0          0          0          NO
5.2U             0          0          0          NO
PH9.3            0          0          0          NO
PH9.1            0          0          0          NO
PH9              0          0          0          NO
PH8              0          0          0          NO
PH7.4            0          0          0          NO
PH7.2            0          0          0          NO
PH7              0          0          0          NO
PH6.5            0          0          0          NO
PH6.0            0          0          0          NO
PH5.7            0          0          0          NO
PH5.4            0          0          0          NO
PH11.5           0          0          0          NO
PH11             0          0          0          NO
PH13             0          0          0          NO
WENTU            0          0          0          NO
RAILU            0          0          0          NO
G2.6             0          0          0          NO
G2.5             0          0          0          NO
G2.2             0          0          0          NO
STATNU           0          0          0          NO
G3.13a           0          0          0          NO
G3.13            0          0          0          NO
G3.12            0          0          0          NO
PH2BC            0          0          0          NO
PH10.2           0          0          0          NO
PH12C            0          0          0          NO
PH14.4           0          0          0          NO
RAILG            0          0          0          NO
O1O5             0          0          0          NO
O5O8             0          0          0          NO
O8O11            0          0          0          NO
O8O9             0          0          0          NO
O9O10            0          0          0          NO
O5O6             0          0          0          NO
O6O7             0          0          0          NO
O1O2             0          0          0          NO
O2O3             0          0          0          NO
O3O4             0          0          0          NO
O2O6             0          0          0          NO
O6O9             0          0          0          NO
O9O12            0          0          0          NO
O4O7             0          0          0          NO
O7O10            0          0          0          NO
O10O13           0          0          0          NO
O15203           0          0          0          NO
209O5            0          0          0          NO
O14O15           0          0          0          NO
299O14           0          0          0          NO
PH12             0          0          0          NO
PIPE1            0          0          0          NO
PIPE2            0          0          0          NO
PIPE3            0          0          0          NO
PIPE4            0          0          0          NO
PIPE5            0          0          0          NO
PIPE6            0          0          0          NO
PIPE7            0          0          0          NO
30187            0          0          0          NO
G16.0            0          0          0          NO
G15.5            0          0          0          NO
G15.0            0          0          0          NO
G14.0            0          0          0          NO
G13.2            0          0          0          NO
G13.1            0          0          0          NO
G13.0            0          0          0          NO
G12.0            0          0          0          NO
G11.0            0          0          0          NO
G10.5            0          0          0          NO
G10.0            0          0          0          NO
G7.0             0          0          0          NO
G6.0             0          0          0          NO
G5.2             0          0          0          NO
G5.0             0          0          0          NO
G4.34            0          0          0          NO
G4.31            0          0          0          NO
661              0          0          0          NO
G7.5             0          0          0          NO
portc            0          0          0          NO
octcul           0          0          0          NO
cornc            0          0          0          NO
portic           0          0          0          NO
O17181           0          0          0          NO
G8.5             0          0          0          NO
681              0          0          0          NO
A                0          0          0          NO
B                0          0          0          NO
C                0          0          0          NO
D                0          0          0          NO
G13.5            0          0          0          NO
G12.5            0          0          0          NO

[INFLOWS]
;;Node           Constituent  Time Series      Type     Mfactor  Sfactor  Baseline Pattern
;;-------------- ------------ ---------------- -------- -------- -------- -------- --------
;; SYNTHETIC TEST INFLOWS — the source .xp carried no constant inflows
;; and RUNF hydrology is not converted; 0.03 CMS is applied at each
;; headwater node so the network runs wet for QA. Replace with real
;; hydrology or inflow hydrographs before using results.
191              FLOW         ""               FLOW     1.0      1.0      0.03
6.11             FLOW         ""               FLOW     1.0      1.0      0.03
P3               FLOW         ""               FLOW     1.0      1.0      0.03
248              FLOW         ""               FLOW     1.0      1.0      0.03
251              FLOW         ""               FLOW     1.0      1.0      0.03
6.07             FLOW         ""               FLOW     1.0      1.0      0.03
O17              FLOW         ""               FLOW     1.0      1.0      0.03
30.00            FLOW         ""               FLOW     1.0      1.0      0.03
613              FLOW         ""               FLOW     1.0      1.0      0.03
69.00            FLOW         ""               FLOW     1.0      1.0      0.03
65.06            FLOW         ""               FLOW     1.0      1.0      0.03
635              FLOW         ""               FLOW     1.0      1.0      0.03
65.05E           FLOW         ""               FLOW     1.0      1.0      0.03
5.2NS            FLOW         ""               FLOW     1.0      1.0      0.03
WENTNS           FLOW         ""               FLOW     1.0      1.0      0.03
RAILNS           FLOW         ""               FLOW     1.0      1.0      0.03
STATNS           FLOW         ""               FLOW     1.0      1.0      0.03
PH2NS            FLOW         ""               FLOW     1.0      1.0      0.03
PH12NS           FLOW         ""               FLOW     1.0      1.0      0.03
SURF1            FLOW         ""               FLOW     1.0      1.0      0.03
SURF2            FLOW         ""               FLOW     1.0      1.0      0.03
SURF3            FLOW         ""               FLOW     1.0      1.0      0.03
SURF4            FLOW         ""               FLOW     1.0      1.0      0.03
SURF5            FLOW         ""               FLOW     1.0      1.0      0.03
SURF6            FLOW         ""               FLOW     1.0      1.0      0.03
SURF7            FLOW         ""               FLOW     1.0      1.0      0.03
portr            FLOW         ""               FLOW     1.0      1.0      0.03
octrd            FLOW         ""               FLOW     1.0      1.0      0.03
cornr            FLOW         ""               FLOW     1.0      1.0      0.03
portir           FLOW         ""               FLOW     1.0      1.0      0.03
FITZ2            FLOW         ""               FLOW     1.0      1.0      0.03

[COORDINATES]
;;Node           X-Coord            Y-Coord
;;-------------- ------------------ ------------------
178              -6259706.21        3010977.56        
179              -6259749.49        3011218.87        
181              -6259695.96        3011416.67        
183              -6259643.23        3011611.05        
185              -6259521.70        3011757.93        
1.15             -6259511.00        3011789.00        
189              -6259509.48        3011817.76        
191              -6259587.56        3011925.39        
Outlet           -6259598.03        3012004.87        
1.12E            -6259667.73        3010806.04        
6.13             -6259455.98        3010619.86        
198              -6259511.52        3010635.73        
190              -6259632.56        3010749.83        
203              -6259271.52        3010621.59        
205              -6259180.48        3010635.30        
6.12             -6259052.66        3010636.33        
208              -6259107.88        3010640.90        
211              -6258886.21        3010614.25        
212              -6258991.00        3010629.00        
215              -6258643.91        3010547.98        
216              -6258716.32        3010573.82        
218              -6258782.54        3010599.67        
6.11             -6258611.00        3010549.00        
223              -6257631.61        3010532.13        
6.08             -6257657.88        3010506.41        
P3               -6257743.14        3010463.50        
63.00            -6257886.36        3010504.87        
62.00            -6258055.84        3010449.18        
6.10             -6258121.00        3010455.12        
234              -6258172.09        3010474.85        
236              -6258252.95        3010511.27        
238              -6258352.19        3010543.67        
P4               -6258409.89        3010493.08        
180              -6258452.96        3010546.32        
244              -6258552.35        3010541.29        
248              -6257341.92        3010582.96        
249              -6257419.22        3010591.92        
251              -6257476.84        3010598.96        
253              -6257532.95        3010608.19        
256              -6257284.00        3010574.96        
258              -6257257.40        3010554.50        
200              -6257231.00        3010529.00        
287              -6259210.06        3010332.63        
288              -6259230.57        3010349.81        
290              -6259278.57        3010431.45        
292              -6259352.95        3010556.09        
296              -6258996.70        3010189.36        
297              -6259034.23        3010211.25        
299              -6259166.75        3010244.76        
6.07             -6257091.00        3010539.00        
65.09            -6258985.81        3010161.54        
O2               -6259306.24        3010736.13        
O3               -6259419.77        3010736.12        
O6               -6259306.21        3010886.90        
O7               -6259458.84        3010876.31        
O8               -6259088.18        3011068.00        
O9               -6259266.66        3011090.18        
O10              -6259466.92        3011099.83        
O11              -6259052.85        3011258.27        
O12              -6259248.79        3011285.14        
O13              -6259457.56        3011296.55        
O14              -6259113.05        3010389.34        
O15              -6259220.87        3010525.10        
O4               -6259489.84        3010757.04        
O5               -6259112.18        3010856.32        
O1               -6259147.51        3010737.76        
64.00            -6258901.00        3011469.00        
O19              -6259011.00        3011469.00        
O20              -6259041.00        3011329.00        
64.01            -6259541.00        3011309.00        
O17              -6259596.18        3011314.70        
30.00            -6259512.38        3011710.15        
609              -6258971.00        3010127.00        
611              -6258956.54        3010107.22        
612              -6258913.19        3010057.09        
613              -6258877.72        3009978.63        
614              -6258859.33        3009967.73        
615              -6258844.88        3009954.66        
620              -6258833.05        3009943.76        
621              -6258796.27        3009901.26        
622              -6258692.48        3009770.49        
65.08            -6258633.06        3009704.74        
625              -6258568.14        3009646.89        
626              -6258505.08        3009544.46        
69.00            -6258470.93        3009501.41        
628              -6258431.52        3009462.18        
65.06            -6258415.75        3009448.56        
631              -6258376.34        3009392.98        
632              -6258305.40        3009202.28        
633              -6258250.23        3009077.64        
634              -6258183.23        3009002.86        
635              -6257888.97        3008879.72        
636              -6257812.77        3008793.63        
637              -6257626.23        3008707.54        
65.05E           -6257496.18        3008714.08        
667              -6258646.56        3009713.09        
680              -6258979.11        3010144.11        
C1               -6258775.13        3010459.08        
C2               -6258889.93        3010485.59        
C3               -6258996.91        3010540.18        
694              -6258098.82        3008953.66        
695              -6258337.41        3009292.95        

[MAP]
DIMENSIONS -6259749.49 3008707.54 -6257091.00 3012004.87
Units      None

[REPORT]
SUBCATCHMENTS ALL
NODES ALL
LINKS ALL
