;; SWMM5 .inp converted from XPSWMM .xp file
;; Generated by XPSWMM Card Reader
;; Source format: XP_CARD | Original title: EXTRAN RUN - 100YR / 24HR  -  EXISTING CONDITIONS
;; Links parsed from source: 184 | Routable in this .inp: 184

[TITLE]
;;Project Title/Notes
EXTRAN RUN - 100YR / 24HR  -  EXISTING CONDITIONS

[OPTIONS]
FLOW_UNITS           CFS
INFILTRATION         HORTON
FLOW_ROUTING         DYNWAVE
LINK_OFFSETS         DEPTH
MIN_SLOPE            0.0
ALLOW_PONDING        NO
SKIP_STEADY_STATE    NO
ROUTING_STEP         00:00:02
VARIABLE_STEP        0.75
INERTIAL_DAMPING     PARTIAL
NORMAL_FLOW_LIMITED  BOTH
MAX_TRIALS           4
HEAD_TOLERANCE       0.0033
START_DATE           01/01/2001
START_TIME           00:00:00
REPORT_START_DATE    01/01/2001
REPORT_START_TIME    00:00:00
END_DATE             01/02/2001
END_TIME             00:00:00
SWEEP_START          01/01
SWEEP_END            12/31
DRY_DAYS             0
REPORT_STEP          00:15:00
WET_STEP             00:05:00
DRY_STEP             01:00:00

[JUNCTIONS]
;;Name           Elev       MaxDepth   InitDepth  SurDepth   Aponded
;;-------------- ---------- ---------- ---------- ---------- ----------
830              122.79     0          0          0          0
826              124.75     0          0          0          0
831              122.77     0          0          0          0
983              120.30     0          0          0          0
965              121.00     0          0          0          0
985              119.00     0          0          0          0
821              126.80     0          0          0          0
967              119.50     0          0          0          0
990              125.40     0          0          0          0
807              128.49     0          0          0          0
806              128.50     0          0          0          0
805              130.00     0          0          0          0
801              129.01     0          0          0          0
992              124.30     0          0          0          0
993              122.50     0          0          0          0
934              127.00     0          0          0          0
810              129.04     0          0          0          0
9310             0          0          0          0          0
9320             0          0          0          0          0
909              127.00     0          0          0          0
936              124.50     0          0          0          0
9140             0          0          0          0          0
915              126.00     0          0          0          0
924              121.40     0          0          0          0
938              124.30     0          0          0          0
926              120.00     0          0          0          0
935              127.00     0          0          0          0
950              119.30     0          0          0          0
941              119.20     0          0          0          0
940              119.30     0          0          0          0
954              117.80     0          0          0          0
948              114.00     0          0          0          0
953              118.40     0          0          0          0
972              113.88     0          0          0          0
974              114.00     0          0          0          0
975              114.00     0          0          0          0
989              111.70     0          0          0          0
978              112.00     0          0          0          0
947              116.00     0          0          0          0
903              123.10     0          0          0          0
906              119.70     0          0          0          0
927              120.00     0          0          0          0
902              126.40     0          0          0          0
802              129.00     0          0          0          0
803              129.50     0          0          0          0
804              129.50     0          0          0          0
809              129.05     0          0          0          0
811              129.03     0          0          0          0
812              129.02     0          0          0          0
813              129.01     0          0          0          0
815              129.00     0          0          0          0
843              130.00     0          0          0          0
844              130.00     0          0          0          0
845              130.00     0          0          0          0
819              127.70     0          0          0          0
822              126.50     0          0          0          0
823              125.30     0          0          0          0
824              125.30     0          0          0          0
825              125.65     0          0          0          0
827              121.75     0          0          0          0
828              121.56     0          0          0          0
829              121.54     0          0          0          0
899              122.75     0          0          0          0
901              127.90     0          0          0          0
904              123.00     0          0          0          0
905              120.70     0          0          0          0
925              119.50     0          0          0          0
907              125.90     0          0          0          0
911              125.50     0          0          0          0
918              124.60     0          0          0          0
916              125.00     0          0          0          0
917              124.60     0          0          0          0
919              124.10     0          0          0          0
920              121.80     0          0          0          0
921              124.00     0          0          0          0
922              123.90     0          0          0          0
923              122.60     0          0          0          0
929              128.00     0          0          0          0
933              127.00     0          0          0          0
942              119.60     0          0          0          0
943              119.10     0          0          0          0
945              120.00     0          0          0          0
946              118.00     0          0          0          0
976              116.00     0          0          0          0
994              119.30     0          0          0          0
951              118.50     0          0          0          0
952              118.00     0          0          0          0
956              122.00     0          0          0          0
957              120.00     0          0          0          0
958              118.10     0          0          0          0
959              119.10     0          0          0          0
960              118.10     0          0          0          0
966              120.00     0          0          0          0
968              113.30     0          0          0          0
970              113.44     0          0          0          0
971              113.46     0          0          0          0
973              113.60     0          0          0          0
979              122.50     0          0          0          0
980              121.50     0          0          0          0
981              119.50     0          0          0          0
982              119.00     0          0          0          0
987              116.70     0          0          0          0
998              19.35      0          0          0          0
999              19.35      0          0          0          0
2102             0          0          0          0          0
2145             0          0          0          0          0
2109             0.50       0          0          0          0
2120             0          0          0          0          0
3120             0          0          0          0          0
2121             0          0          0          0          0
3121             0          0          0          0          0
2122             0          0          0          0          0
3122             0          0          0          0          0
2123             0          0          0          0          0
3123             0          0          0          0          0
2124             0          0          0          0          0
2125             0          0          0          0          0
1137             0          0          0          0          0
2128             0          0          0          0          0
2133             0          0          0          0          0
2139             0          0          0          0          0
3139             0          0          0          0          0
2143             0          0          0          0          0
3143             1.00       0          0          0          0
2148             0.60       0          0          0          0
3148             0.09       0          0          0          0
2174             0          0          0          0          0
3174             0          0          0          0          0
2176             0          0          0          0          0
3176             0          0          0          0          0
2177             0          0          0          0          0
2396             0          0          0          0          0
2352             0          0          0          0          0
2369             0          0          0          0          0
2374             1.41       0          0          0          0
2375             0          0          0          0          0
2415             0          0          0          0          0
2420             0          0          0          0          0
2430             0          0          0          0          0
HW_411           11.00      0          0          0          0
HW_235           10.10      0          0          0          0
1455             0          0          0          0          0
1458             0          0          0          0          0
2457             0          0          0          0          0
2461             0          0          0          0          0
2466             0.81       0          0          0          0
2484             0          0          0          0          0
3484             0          0          0          0          0
1495             0          0          0          0          0
1496             0          0          0          0          0
2501             0          0          0          0          0
2509             0          0          0          0          0
2515             0.31       0          0          0          0
2538             0          0          0          0          0
2567             0          0          0          0          0
2570             0          0          0          0          0
3570             0          0          0          0          0
2573             0          0          0          0          0
3573             0          0          0          0          0

[OUTFALLS]
;;Name           Elev       Type       Stage      Gated
;;-------------- ---------- ---------- ---------- -----
986              116.00     FREE                  NO

[STORAGE]
;;Name           Elev       MaxDepth   InitDepth  Shape      Curve/Params
;;-------------- ---------- ---------- ---------- ---------- ----------
726              124.50     10.00      0          FUNCTIONAL 1000.00 0          0
701              123.10     10.00      0          FUNCTIONAL 1000.00 0          0
962              123.00     10.00      0          FUNCTIONAL 1000.00 0          0
963              123.00     10.00      0          FUNCTIONAL 1000.00 0          0
964              122.00     10.00      0          FUNCTIONAL 1000.00 0          0
702              122.00     10.00      0          FUNCTIONAL 1000.00 0          0
703              118.00     10.00      0          FUNCTIONAL 1000.00 0          0
969              119.00     10.00      3.92       FUNCTIONAL 1000.00 0          0
704              114.00     10.00      0.50       FUNCTIONAL 1000.00 0          0
961              117.20     10.00      1.50       FUNCTIONAL 1000.00 0          0
835              126.00     10.00      0          FUNCTIONAL 1000.00 0          0
834              131.00     10.00      0          FUNCTIONAL 1000.00 0          0
816              129.00     10.00      0          FUNCTIONAL 1000.00 0          0
817              128.00     10.00      0          FUNCTIONAL 1000.00 0          0
818              128.00     10.00      0          FUNCTIONAL 1000.00 0          0
820              127.00     10.00      0          FUNCTIONAL 1000.00 0          0
991              125.00     10.00      0          FUNCTIONAL 1000.00 0          0
932              127.00     10.00      0          FUNCTIONAL 1000.00 0          0
842              129.00     10.00      0          FUNCTIONAL 1000.00 0          0
928              128.00     10.00      0          FUNCTIONAL 1000.00 0          0
931              127.00     10.00      0          FUNCTIONAL 1000.00 0          0
912              129.00     10.00      0          FUNCTIONAL 1000.00 0          0
913              126.00     10.00      0          FUNCTIONAL 1000.00 0          0
846              119.00     10.00      0          FUNCTIONAL 1000.00 0          0
908              127.00     10.00      0          FUNCTIONAL 1000.00 0          0
914              127.00     10.00      0          FUNCTIONAL 1000.00 0          0
847              125.00     10.00      0          FUNCTIONAL 1000.00 0          0
937              124.00     10.00      0          FUNCTIONAL 1000.00 0          0
995              121.00     10.00      0          FUNCTIONAL 1000.00 0          0
939              121.00     10.00      0          FUNCTIONAL 1000.00 0          0
706              117.00     10.00      0.50       FUNCTIONAL 1000.00 0          0
910              124.00     10.00      0.20       FUNCTIONAL 1000.00 0          0
949              113.00     10.00      4.30       FUNCTIONAL 1000.00 0          0
705              114.00     10.00      4.00       FUNCTIONAL 1000.00 0          0
988              112.00     10.00      1.00       FUNCTIONAL 1000.00 0          0
944              121.00     10.00      1.40       FUNCTIONAL 1000.00 0          0
728              114.00     10.00      1.80       FUNCTIONAL 1000.00 0          0
727              112.00     10.00      3.80       FUNCTIONAL 1000.00 0          0
833              131.00     10.00      0          FUNCTIONAL 1000.00 0          0
832              134.00     10.00      0          FUNCTIONAL 1000.00 0          0
808              129.20     10.00      0          FUNCTIONAL 1000.00 0          0
814              131.00     10.00      0          FUNCTIONAL 1000.00 0          0
725              126.00     10.00      0          FUNCTIONAL 1000.00 0          0
836              125.00     10.00      0          FUNCTIONAL 1000.00 0          0
838              126.00     10.00      0.90       FUNCTIONAL 1000.00 0          0
724              127.00     10.00      0          FUNCTIONAL 1000.00 0          0
723              126.00     10.00      0          FUNCTIONAL 1000.00 0          0
722              125.00     10.00      0          FUNCTIONAL 1000.00 0          0
930              128.00     10.00      0          FUNCTIONAL 1000.00 0          0
996              119.80     10.00      0          FUNCTIONAL 1000.00 0          0
997              119.00     10.00      0          FUNCTIONAL 1000.00 0          0
955              122.00     10.00      0          FUNCTIONAL 1000.00 0          0
729              113.00     10.00      3.80       FUNCTIONAL 1000.00 0          0
977              113.00     10.00      9.30       FUNCTIONAL 1000.00 0          0
984              119.00     10.00      0          FUNCTIONAL 1000.00 0          0

[CONDUITS]
;;Name           From             To               Length     Roughness  InOffset   OutOffset  InitFlow   MaxFlow
;;-------------- ---------------- ---------------- ---------- ---------- ---------- ---------- ---------- ----------
287              802              803              500.00     0.0350     17.00      16.50      0          0
288              803              804              600.00     0.0500     16.50      16.50      0          0
1102             2102             804              250.00     0.0169     0          0          0          0
290              804              805              700.00     0.0500     16.50      16.01      0          0
1145             2145             806              400.00     0.0270     0          0.50       0          0
224              806              807              700.00     0.0500     15.50      15.49      0          0
297              808              821              1000.00    0.0500     14.20      10.80      0          0
300              809              801              500.00     0.0350     17.05      17.01      0          0
300_2            809              810              1100.00    0.0500     17.05      17.04      0          0
1109             2109             811              400.00     0.0240     0.50       0.50       0          0
303              811              812              450.00     0.0500     17.03      17.02      0          0
307              813              814              400.00     0.0170     17.01      17.00      0          0
308              814              815              400.00     0.0240     17.00      15.20      0          0
1120             2120             3120             240.00     0.0152     0          0          0          0
1121             2121             3121             430.00     0.0150     0          0          0          0
1122             2122             3122             410.00     0.0152     0          0          0          0
1123             2123             3123             330.00     0.0158     0          0          0          0
1124             2124             816              400.00     0.0200     0          0          0          0
228              817              819              370.00     0.0162     14.60      13.90      0          0
1133             2133             819              630.00     0.0148     0          0          0          0
1139             2139             3139             400.00     0.0210     0          0          0          0
1143             2143             3143             650.00     0.0150     0          1.00       0          0
219              821              822              700.00     0.0500     10.80      10.50      0          0
1148             2148             3148             400.00     0.0290     0.60       0.09       0          0
331              823              824              900.00     0.0500     10.80      10.30      0          0
222              834              824              200.00     0.0141     16.50      16.30      0          0
333              824              825              620.00     0.0500     10.30      9.90       0          0
218              835              725              500.00     0.0168     11.00      10.00      0          0
338              725              825              200.00     0.0146     10.00      9.90       0          0
336              825              826              500.00     0.0500     9.90       9.00       0          0
342              836              826              250.00     0.0150     9.50       9.00       0          0
1174             2174             3174             300.00     0.0151     0          0          0          0
1176             2176             3176             520.00     0.0189     0          0          0          0
345              827              828              500.00     0.0350     8.00       7.81       0          0
1177             2177             829              400.00     0.0204     0          0          0          0
349              829              830              500.00     0.0350     7.79       7.54       0          0
352              838              830              200.00     0.0127     7.60       7.54       0          0
201              830              831              600.00     0.0350     7.54       7.52       0          0
204              831              899              600.00     0.0350     7.52       7.50       0          0
359              724              901              200.00     0.0162     14.00      13.70      0          0
357              901              902              2000.00    0.0500     13.70      8.40       0          0
241              913              902              280.00     0.0223     8.60       8.40       0          0
284              902              903              750.00     0.0500     8.40       7.51       0          0
276              903              904              200.00     0.0500     7.51       7.50       0          0
1396             2396             905              200.00     0.0258     0          0          0          0
368              905              906              600.00     0.0500     7.30       5.90       0          0
277              906              925              400.00     0.0500     5.90       4.80       0          0
239              931              907              200.00     0.0179     13.80      13.40      0          0
373              907              911              1100.00    0.0500     13.40      11.50      0          0
245              908              909              330.00     0.0202     13.10      12.30      0          0
246              909              911              410.00     0.0199     12.30      11.50      0          0
379              722              911              200.00     0.0153     11.90      11.50      0          0
375              911              918              550.00     0.0500     11.50      10.00      0          0
247              914              915              470.00     0.0193     10.80      10.40      0          0
250              915              916              200.00     0.0232     10.40      10.20      0          0
384              916              917              200.00     0.0217     10.20      10.10      0          0
386              917              918              200.00     0.0217     10.10      10.00      0          0
1352             2352             919              337.00     0.0234     0          0          0          0
1369             2369             919              755.00     0.0178     0          0          0          0
389              919              920              550.00     0.0500     9.30       7.00       0          0
1374             2374             921              250.00     0.0255     1.41       0          0          0
394              921              922              300.00     0.0500     8.40       8.39       0          0
1375             2375             923              200.00     0.0285     0          0          0          0
398              923              924              800.00     0.0500     7.80       6.60       0          0
255              995              924              1350.00    0.0133     9.30       6.60       0          0
251              924              925              1200.00    0.0500     6.60       4.80       0          0
371              925              926              400.00     0.0500     4.80       3.80       0          0
256              926              927              300.00     0.0500     3.80       2.80       0          0
278              927              944              450.00     0.0500     2.80       1.40       0          0
1415             2415             929              900.00     0.0135     0          0          0          0
1420             2420             930              300.00     0.0162     0          0          0          0
1430             2430             935              400.00     0.0152     0          2.11       0          0
232              932              933              270.00     0.0174     11.10      11.00      0          0
411              HW_411           933              520.00     0.0180     11.00      10.10      0          0
235              HW_235           934              300.00     0.0199     10.10      9.90       0          0
257              935              936              200.00     0.0248     9.90       6.90       0          0
248              936              937              300.00     0.0228     7.30       6.20       0          0
253              937              938              450.00     0.0211     6.20       5.40       0          0
254              938              939              430.00     0.0213     5.40       5.10       0          0
259              939              940              320.00     0.0231     5.10       4.80       0          0
261              940              941              400.00     0.0500     4.80       4.70       0          0
260              941              942              1100.00    0.0500     4.70       3.10       0          0
1453             1455             1458             300.00     0.0146     0          0          0          0
1457             2457             942              200.00     0.0135     0          0          0          0
421              942              943              2000.00    0.0500     3.10       2.20       0          0
1461             2461             944              200.00     0.0248     0          0          0          0
279              944              945              400.00     0.0500     1.40       0          0          0
1466             2466             946              250.00     0.0250     0.81       0          0          0
432              946              947              550.00     0.0500     0.80       0          0          0
280              728              947              300.00     0.0150     1.00       0          0          0
275              947              948              600.00     0.0500     0          0          0          0
264              948              949              800.00     0.0500     0          0          0          0
1484             2484             3484             204.00     0.0284     0          0          0          0
221              990              992              700.00     0.0350     9.40       8.30       0          0
233              992              993              1200.00    0.0350     8.30       6.50       0          0
234              993              994              250.00     0.0350     3.70       3.30       0          0
1501             2501             950              500.00     0.0179     0          0          0          0
258              950              951              750.00     0.0500     2.60       1.80       0          0
265              910              951              400.00     0.0165     2.60       1.80       0          0
446              951              952              200.00     0.0461     1.80       1.70       0          0
1509             2509             953              200.00     0.0226     0          0          0          0
262              706              953              360.00     0.0163     2.30       1.60       0          0
266              953              954              750.00     0.0500     1.60       1.00       0          0
1515             2515             961              250.00     0.0192     0.31       0          0          0
455              955              956              200.00     0.0157     8.00       7.20       0          0
456              956              957              278.00     0.0173     7.20       5.10       0          0
458              957              958              200.00     0.0171     5.10       4.70       0          0
460              958              959              376.00     0.0190     4.70       4.00       0          0
462              959              960              336.00     0.0195     4.00       1.70       0          0
464              960              961              200.00     0.0204     1.70       1.30       0          0
217              961              972              1250.00    0.0500     2.50       0          0          0
206              701              962              350.00     0.0149     10.40      10.00      0          0
207              962              963              368.00     0.0155     10.00      9.40       0          0
208              963              964              410.00     0.0187     9.40       5.60       0          0
206_2            701              702              396.00     0.0146     8.00       6.70       0          0
210              702              964              350.00     0.0149     6.70       5.60       0          0
209              964              965              1000.00    0.0177     5.60       3.60       0          0
210_2            702              965              420.00     0.0145     4.60       3.60       0          0
211              965              966              700.00     0.0188     3.60       2.20       0          0
212              703              966              250.00     0.0160     5.00       4.50       0          0
475              966              967              850.00     0.0188     2.20       0.60       0          0
212_2            703              967              250.00     0.0160     5.00       4.50       0          0
1538             2538             968              350.00     0.0232     0          0          0          0
480              968              970              400.00     0.0500     0          0          0          0
214              969              970              200.00     0.0158     0          0          0          0
482              970              971              400.00     0.0500     0          0          0          0
216              704              971              250.00     0.0160     4.00       3.34       0          0
485              971              972              600.00     0.0500     0          0          0          0
267              972              973              400.00     0.0500     0          0          0          0
216_2            704              973              270.00     0.0157     2.30       1.80       0          0
489              973              974              850.00     0.0500     0          0          0          0
271              705              974              270.00     0.0157     0          0          0          0
268              974              975              1000.00    0.0500     0          0          0          0
271_2            705              975              270.00     0.0157     0          0          0          0
496              729              975              300.00     0.0140     0          0          0          0
270              975              976              1500.00    0.0500     0          0          0          0
438              976              977              700.00     0.0500     0          0          0          0
281              727              977              200.00     0.0200     0          0          0          0
499              977              978              1750.00    0.0500     0          0          0          0
204_2            831              979              400.00     0.0170     11.52      12.00      0          0
503              979              980              300.00     0.0500     12.00      14.50      0          0
505              980              981              400.00     0.0170     14.50      13.50      0          0
507              981              982              650.00     0.0500     11.00      10.40      0          0
509              982              983              300.00     0.0150     10.40      10.00      0          0
205              983              984              1300.00    0.0500     10.00      8.70       0          0
1567             2567             985              400.00     0.0240     0          0          0          0
213              985              986              2350.00    0.0400     8.70       6.60       0          0
1570             2570             3570             400.00     0.0240     0          0          0          0
516              987              988              1500.00    0.0350     6.50       1.80       0          0
1573             2573             3573             400.00     0.0240     0          0          0          0
272              989              978              3200.00    0.0350     1.70       0.95       0          0
273              978              998              208.00     0.0391     0          0          0          0
273_2            978              999              208.00     0.0391     0          0          0          0
249              9140             941              33.00      0.0140     0          0          0          0
243              9310             931              33.00      0.0140     0          0          0          0
244              9320             931              33.00      0.0140     0          0          0          0

[ORIFICES]
;;Name           From             To               Type       Offset     Qcoeff     Gated    CloseTime
;;-------------- ---------------- ---------------- ---------- ---------- ---------- -------- ----------
8846             846              902              SIDE       36.00      0.650      NO       0
305              812              813              SIDE       0          0.650      NO       0

[WEIRS]
;;Name           From             To               Type       CrestHt    Qcoeff     Gated    EndCon   EndCoeff   Surcharge
;;-------------- ---------------- ---------------- ---------- ---------- ---------- -------- -------- ---------- ----------
8833             833              801              TRANSVERSE 17.10      1.840      NO       0        0          YES
8847             847              924              TRANSVERSE 16.00      1.840      NO       0        0          YES
9807             807              808              TRANSVERSE 23.59      1.840      NO       0        0          YES
1125             2125             1137             TRANSVERSE 23.50      1.840      NO       0        0          YES
1403             816              932              TRANSVERSE 23.30      1.840      NO       0        0          YES
1128             2128             818              TRANSVERSE 23.60      1.840      NO       0        0          YES
1142             817              820              TRANSVERSE 25.00      1.840      NO       0        0          YES
1390             912              901              TRANSVERSE 23.90      1.840      NO       0        0          YES
1394             723              902              TRANSVERSE 19.20      1.840      NO       0        0          YES
1494             1495             1496             TRANSVERSE 22.50      1.840      NO       0        0          YES
262_2            706              961              TRANSVERSE 11.50      1.840      NO       0        0          YES
338_2            725              962              TRANSVERSE 19.90      1.840      NO       0        0          YES
226              801              802              TRANSVERSE 20.51      1.840      NO       0        0          YES
308_2            814              816              TRANSVERSE 25.00      1.840      NO       0        0          YES
227              816              991              TRANSVERSE 23.60      1.840      NO       0        0          YES
228_2            817              808              TRANSVERSE 24.50      1.840      NO       0        0          YES
228_3            817              991              TRANSVERSE 23.50      1.840      NO       0        0          YES
292              832              816              TRANSVERSE 27.50      1.840      NO       0        0          YES
282              833              816              TRANSVERSE 25.40      1.840      NO       0        0          YES
240              912              913              TRANSVERSE 23.70      1.840      NO       0        0          YES
237              928              930              TRANSVERSE 23.00      1.840      NO       0        0          YES
408              930              937              TRANSVERSE 22.50      1.840      NO       0        0          YES
232_2            932              937              TRANSVERSE 21.80      1.840      NO       0        0          YES
232_3            932              991              TRANSVERSE 23.20      1.840      NO       0        0          YES
253_2            937              939              TRANSVERSE 20.30      1.840      NO       0        0          YES
259_2            939              944              TRANSVERSE 16.80      1.840      NO       0        0          YES

[XSECTIONS]
;;Link           Shape        Geom1      Geom2      Geom3      Geom4      Barrels
;;-------------- ------------ ---------- ---------- ---------- ---------- ----------
287              TRAPEZOIDAL  12.00      35.00      1          1          1
288              TRAPEZOIDAL  13.00      35.00      1          1          1
1102             CIRCULAR     3.00       0          0          0          1
290              TRAPEZOIDAL  13.00      35.00      1          1          1
1145             CIRCULAR     4.50       0          0          0          1
224              TRAPEZOIDAL  13.00      36.00      1          1          1
297              TRAPEZOIDAL  15.00      31.00      1          1          1
300              TRAPEZOIDAL  12.00      15.00      1          1          1
300_2            TRAPEZOIDAL  12.00      15.00      1          1          1
1109             CIRCULAR     3.00       0          0          0          1
303              TRAPEZOIDAL  12.00      15.00      1          1          1
307              CIRCULAR     1.50       0          0          0          1
308              CIRCULAR     3.00       0          0          0          1
1120             CIRCULAR     2.00       0          0          0          1
1121             CIRCULAR     3.00       0          0          0          1
1122             CIRCULAR     3.00       0          0          0          1
1123             CIRCULAR     3.00       0          0          0          1
1124             CIRCULAR     4.00       0          0          0          1
228              CIRCULAR     3.50       0          0          0          1
1133             CIRCULAR     4.00       0          0          0          1
1139             CIRCULAR     4.00       0          0          0          1
1143             CIRCULAR     4.00       0          0          0          1
219              TRAPEZOIDAL  16.00      20.00      1          1          1
1148             RECT_CLOSED  4.40       6.90       0          0          1
331              TRAPEZOIDAL  14.50      16.00      1          1          1
222              CIRCULAR     3.00       0          0          0          1
333              TRAPEZOIDAL  15.00      16.50      1          1          1
218              CIRCULAR     5.00       0          0          0          1
338              CIRCULAR     3.00       0          0          0          1
336              TRAPEZOIDAL  15.75      17.00      1          1          1
342              CIRCULAR     2.00       0          0          0          1
1174             RECT_CLOSED  5.00       5.00       0          0          1
1176             RECT_CLOSED  5.00       5.00       0          0          1
345              TRAPEZOIDAL  13.75      19.00      1          1          1
1177             RECT_CLOSED  7.00       12.50      0          0          1
349              TRAPEZOIDAL  13.75      19.00      1          1          1
352              CIRCULAR     2.50       0          0          0          1
201              TRAPEZOIDAL  15.25      13.00      1          1          1
204              TRAPEZOIDAL  15.25      10.00      1          1          1
359              CIRCULAR     3.00       0          0          0          1
357              TRAPEZOIDAL  14.20      10.50      1          1          1
241              RECT_CLOSED  8.00       4.00       0          0          1
284              TRAPEZOIDAL  15.00      10.00      1          1          1
276              TRAPEZOIDAL  15.50      10.00      1          1          1
1396             RECT_CLOSED  8.00       12.00      0          0          1
368              TRAPEZOIDAL  13.40      6.00       1          1          1
277              TRAPEZOIDAL  13.80      4.00       1          1          1
239              CIRCULAR     3.00       0          0          0          1
373              TRAPEZOIDAL  12.50      5.00       1          1          1
245              CIRCULAR     4.50       0          0          0          1
246              CIRCULAR     5.00       0          0          0          1
379              CIRCULAR     2.00       0          0          0          1
375              TRAPEZOIDAL  12.20      7.50       1          1          1
247              CIRCULAR     5.00       0          0          0          1
250              CIRCULAR     5.00       0          0          0          1
384              CIRCULAR     5.00       0          0          0          1
386              CIRCULAR     5.00       0          0          0          1
1352             RECT_CLOSED  7.00       10.00      0          0          1
1369             CIRCULAR     3.00       0          0          0          1
389              TRAPEZOIDAL  14.80      8.00       1          1          1
1374             RECT_CLOSED  7.00       10.00      0          0          1
394              TRAPEZOIDAL  14.80      13.00      1          1          1
1375             RECT_CLOSED  7.00       10.00      0          0          1
398              TRAPEZOIDAL  14.80      13.00      1          1          1
255              CIRCULAR     3.50       0          0          0          1
251              TRAPEZOIDAL  13.30      5.00       1          1          1
371              TRAPEZOIDAL  13.80      33.00      1          1          1
256              TRAPEZOIDAL  14.60      27.00      1          1          1
278              TRAPEZOIDAL  15.60      27.00      1          1          1
1415             CIRCULAR     3.00       0          0          0          1
1420             CIRCULAR     3.00       0          0          0          1
1430             CIRCULAR     3.00       0          0          0          1
232              CIRCULAR     3.50       0          0          0          1
411              CIRCULAR     4.00       0          0          0          1
235              CIRCULAR     4.00       0          0          0          1
257              CIRCULAR     6.00       0          0          0          1
248              CIRCULAR     6.00       0          0          0          1
253              CIRCULAR     6.50       0          0          0          1
254              CIRCULAR     6.50       0          0          0          1
259              CIRCULAR     6.50       0          0          0          1
261              TRAPEZOIDAL  14.50      7.00       1          1          1
260              TRAPEZOIDAL  14.50      4.00       1          1          1
1453             CIRCULAR     2.00       0          0          0          1
1457             CIRCULAR     2.50       0          0          0          1
421              TRAPEZOIDAL  16.50      10.00      1          1          1
1461             CIRCULAR     6.00       0          0          0          1
279              TRAPEZOIDAL  17.00      23.00      1          1          1
1466             RECT_CLOSED  8.00       8.00       0          0          1
432              TRAPEZOIDAL  13.00      38.00      1          1          1
280              CIRCULAR     3.00       0          0          0          1
275              TRAPEZOIDAL  13.00      38.00      1          1          1
264              TRAPEZOIDAL  14.50      38.00      1          1          1
1484             RECT_CLOSED  8.00       10.00      0          0          1
221              TRAPEZOIDAL  16.00      20.00      1          1          1
233              TRAPEZOIDAL  16.00      20.00      1          1          1
234              TRAPEZOIDAL  16.00      20.00      1          1          1
1501             CIRCULAR     6.00       0          0          0          1
258              TRAPEZOIDAL  16.70      12.00      1          1          1
265              CIRCULAR     4.00       0          0          0          1
446              TRAPEZOIDAL  16.30      9.00       1          1          1
1509             CIRCULAR     6.50       0          0          0          1
262              CIRCULAR     3.50       0          0          0          1
266              TRAPEZOIDAL  16.80      13.00      1          1          1
1515             RECT_CLOSED  6.00       6.00       0          0          1
455              CIRCULAR     3.00       0          0          0          1
456              CIRCULAR     3.50       0          0          0          1
458              CIRCULAR     3.50       0          0          0          1
460              CIRCULAR     4.00       0          0          0          1
462              CIRCULAR     4.00       0          0          0          1
464              CIRCULAR     4.50       0          0          0          1
217              TRAPEZOIDAL  14.70      35.50      1          1          1
206              CIRCULAR     2.50       0          0          0          1
207              CIRCULAR     3.00       0          0          0          1
208              CIRCULAR     4.00       0          0          0          1
206_2            CIRCULAR     2.50       0          0          0          1
210              CIRCULAR     2.50       0          0          0          1
209              CIRCULAR     6.00       0          0          0          1
210_2            CIRCULAR     2.50       0          0          0          1
211              CIRCULAR     6.00       0          0          0          1
212              CIRCULAR     2.50       0          0          0          1
475              CIRCULAR     7.00       0          0          0          1
212_2            CIRCULAR     2.50       0          0          0          1
1538             CIRCULAR     7.00       0          0          0          1
480              TRAPEZOIDAL  14.40      26.00      1          1          1
214              CIRCULAR     3.00       0          0          0          1
482              TRAPEZOIDAL  14.40      26.00      1          1          1
216              CIRCULAR     2.50       0          0          0          1
485              TRAPEZOIDAL  14.40      26.00      1          1          1
267              TRAPEZOIDAL  14.80      47.00      1          1          1
216_2            CIRCULAR     2.50       0          0          0          1
489              TRAPEZOIDAL  14.80      39.50      1          1          1
271              CIRCULAR     2.50       0          0          0          1
268              TRAPEZOIDAL  15.40      39.50      1          1          1
271_2            CIRCULAR     2.50       0          0          0          1
496              CIRCULAR     1.50       0          0          0          1
270              TRAPEZOIDAL  15.20      39.50      1          1          1
438              TRAPEZOIDAL  18.00      27.00      1          1          1
281              RECT_CLOSED  4.00       6.00       0          0          1
499              TRAPEZOIDAL  18.00      15.00      1          1          1
204_2            CIRCULAR     1.50       0          0          0          1
503              TRAPEZOIDAL  7.00       15.00      1          1          1
505              CIRCULAR     2.00       0          0          0          1
507              TRAPEZOIDAL  8.00       15.00      1          1          1
509              CIRCULAR     3.00       0          0          0          1
205              TRAPEZOIDAL  10.30      15.00      1          1          1
1567             CIRCULAR     3.00       0          0          0          1
213              TRAPEZOIDAL  9.40       15.00      1          1          1
1570             CIRCULAR     3.00       0          0          0          1
516              TRAPEZOIDAL  10.20      25.00      1          1          1
1573             CIRCULAR     3.00       0          0          0          1
272              TRAPEZOIDAL  10.00      50.00      1          1          1
273              HORSESHOE    10.50      24.00      0          0          1
273_2            HORSESHOE    10.50      24.00      0          0          1
249              CIRCULAR     9.99       0          0          0          1
243              CIRCULAR     9.99       0          0          0          1
244              CIRCULAR     9.99       0          0          0          1
8846             RECT_CLOSED  1.00       1.00       0          0
305              RECT_CLOSED  1.50       1.50       0          0
8833             RECT_OPEN    1.00       6.00       0          0
8847             RECT_OPEN    1.00       3.67       0          0
9807             RECT_OPEN    1.00       50.00      0          0
1125             RECT_OPEN    1.00       250.00     0          0
1403             RECT_OPEN    1.00       200.00     0          0
1128             RECT_OPEN    1.00       200.00     0          0
1142             RECT_OPEN    1.00       500.00     0          0
1390             RECT_OPEN    1.00       600.00     0          0
1394             RECT_OPEN    1.00       300.00     0          0
1494             RECT_OPEN    1.00       40.00      0          0
262_2            RECT_OPEN    1.00       150.00     0          0
338_2            RECT_OPEN    1.00       400.00     0          0
226              RECT_OPEN    1.00       20.00      0          0
308_2            RECT_OPEN    1.00       250.00     0          0
227              RECT_OPEN    1.00       200.00     0          0
228_2            RECT_OPEN    1.00       500.00     0          0
228_3            RECT_OPEN    1.00       250.00     0          0
292              RECT_OPEN    1.00       400.00     0          0
282              RECT_OPEN    1.00       300.00     0          0
240              RECT_OPEN    1.00       300.00     0          0
237              RECT_OPEN    1.00       600.00     0          0
408              RECT_OPEN    1.00       250.00     0          0
232_2            RECT_OPEN    1.00       300.00     0          0
232_3            RECT_OPEN    1.00       150.00     0          0
253_2            RECT_OPEN    1.00       300.00     0          0
259_2            RECT_OPEN    1.00       40.00      0          0

[LOSSES]
;;Link           Inlet      Outlet     Average    Flap Gate
;;-------------- ---------- ---------- ---------- ----------
287              0          0          0          NO
288              0          0          0          NO
1102             0          0          0          NO
290              0          0          0          NO
1145             0          0          0          NO
224              0          0          0          NO
297              0          0          0          NO
300              0          0          0          NO
300_2            0          0          0          NO
1109             0          0          0          NO
303              0          0          0          NO
307              0          0          0          NO
308              0          0          0          NO
1120             0          0          0          NO
1121             0          0          0          NO
1122             0          0          0          NO
1123             0          0          0          NO
1124             0          0          0          NO
228              0          0          0          NO
1133             0          0          0          NO
1139             0          0          0          NO
1143             0          0          0          NO
219              0          0          0          NO
1148             0          0          0          NO
331              0          0          0          NO
222              0          0          0          NO
333              0          0          0          NO
218              0          0          0          NO
338              0          0          0          NO
336              0          0          0          NO
342              0          0          0          NO
1174             0          0          0          NO
1176             0          0          0          NO
345              0          0          0          NO
1177             0          0          0          NO
349              0          0          0          NO
352              0          0          0          NO
201              0          0          0          NO
204              0          0          0          NO
359              0          0          0          NO
357              0          0          0          NO
241              0          0          0          NO
284              0          0          0          NO
276              0          0          0          NO
1396             0          0          0          NO
368              0          0          0          NO
277              0          0          0          NO
239              0          0          0          NO
373              0          0          0          NO
245              0          0          0          NO
246              0          0          0          NO
379              0          0          0          NO
375              0          0          0          NO
247              0          0          0          NO
250              0          0          0          NO
384              0          0          0          NO
386              0          0          0          NO
1352             0          0          0          NO
1369             0          0          0          NO
389              0          0          0          NO
1374             0          0          0          NO
394              0          0          0          NO
1375             0          0          0          NO
398              0          0          0          NO
255              0          0          0          NO
251              0          0          0          NO
371              0          0          0          NO
256              0          0          0          NO
278              0          0          0          NO
1415             0          0          0          NO
1420             0          0          0          NO
1430             0          0          0          NO
232              0          0          0          NO
411              0          0          0          NO
235              0          0          0          NO
257              0          0          0          NO
248              0          0          0          NO
253              0          0          0          NO
254              0          0          0          NO
259              0          0          0          NO
261              0          0          0          NO
260              0          0          0          NO
1453             0          0          0          NO
1457             0          0          0          NO
421              0          0          0          NO
1461             0          0          0          NO
279              0          0          0          NO
1466             0          0          0          NO
432              0          0          0          NO
280              0          0          0          NO
275              0          0          0          NO
264              0          0          0          NO
1484             0          0          0          NO
221              0          0          0          NO
233              0          0          0          NO
234              0          0          0          NO
1501             0          0          0          NO
258              0          0          0          NO
265              0          0          0          NO
446              0          0          0          NO
1509             0          0          0          NO
262              0          0          0          NO
266              0          0          0          NO
1515             0          0          0          NO
455              0          0          0          NO
456              0          0          0          NO
458              0          0          0          NO
460              0          0          0          NO
462              0          0          0          NO
464              0          0          0          NO
217              0          0          0          NO
206              0          0          0          NO
207              0          0          0          NO
208              0          0          0          NO
206_2            0          0          0          NO
210              0          0          0          NO
209              0          0          0          NO
210_2            0          0          0          NO
211              0          0          0          NO
212              0          0          0          NO
475              0          0          0          NO
212_2            0          0          0          NO
1538             0          0          0          NO
480              0          0          0          NO
214              0          0          0          NO
482              0          0          0          NO
216              0          0          0          NO
485              0          0          0          NO
267              0          0          0          NO
216_2            0          0          0          NO
489              0          0          0          NO
271              0          0          0          NO
268              0          0          0          NO
271_2            0          0          0          NO
496              0          0          0          NO
270              0          0          0          NO
438              0          0          0          NO
281              0          0          0          NO
499              0          0          0          NO
204_2            0          0          0          NO
503              0          0          0          NO
505              0          0          0          NO
507              0          0          0          NO
509              0          0          0          NO
205              0          0          0          NO
1567             0          0          0          NO
213              0          0          0          NO
1570             0          0          0          NO
516              0          0          0          NO
1573             0          0          0          NO
272              0          0          0          NO
273              0          0          0          NO
273_2            0          0          0          NO
249              0          0          0          NO
243              0          0          0          NO
244              0          0          0          NO

[INFLOWS]
;;Node           Constituent  Time Series      Type     Mfactor  Sfactor  Baseline Pattern
;;-------------- ------------ ---------------- -------- -------- -------- -------- --------
;; SYNTHETIC TEST INFLOWS — the source .xp carried no constant inflows
;; and RUNF hydrology is not converted; 1.00 CFS is applied at each
;; headwater node so the network runs wet for QA. Replace with real
;; hydrology or inflow hydrographs before using results.
701              FLOW         ""               FLOW     1.0      1.0      1.00
703              FLOW         ""               FLOW     1.0      1.0      1.00
969              FLOW         ""               FLOW     1.0      1.0      1.00
704              FLOW         ""               FLOW     1.0      1.0      1.00
835              FLOW         ""               FLOW     1.0      1.0      1.00
990              FLOW         ""               FLOW     1.0      1.0      1.00
834              FLOW         ""               FLOW     1.0      1.0      1.00
817              FLOW         ""               FLOW     1.0      1.0      1.00
928              FLOW         ""               FLOW     1.0      1.0      1.00
912              FLOW         ""               FLOW     1.0      1.0      1.00
846              FLOW         ""               FLOW     1.0      1.0      1.00
9310             FLOW         ""               FLOW     1.0      1.0      1.00
9320             FLOW         ""               FLOW     1.0      1.0      1.00
908              FLOW         ""               FLOW     1.0      1.0      1.00
914              FLOW         ""               FLOW     1.0      1.0      1.00
9140             FLOW         ""               FLOW     1.0      1.0      1.00
847              FLOW         ""               FLOW     1.0      1.0      1.00
995              FLOW         ""               FLOW     1.0      1.0      1.00
706              FLOW         ""               FLOW     1.0      1.0      1.00
910              FLOW         ""               FLOW     1.0      1.0      1.00
705              FLOW         ""               FLOW     1.0      1.0      1.00
989              FLOW         ""               FLOW     1.0      1.0      1.00
728              FLOW         ""               FLOW     1.0      1.0      1.00
727              FLOW         ""               FLOW     1.0      1.0      1.00
833              FLOW         ""               FLOW     1.0      1.0      1.00
832              FLOW         ""               FLOW     1.0      1.0      1.00
809              FLOW         ""               FLOW     1.0      1.0      1.00
823              FLOW         ""               FLOW     1.0      1.0      1.00
836              FLOW         ""               FLOW     1.0      1.0      1.00
827              FLOW         ""               FLOW     1.0      1.0      1.00
838              FLOW         ""               FLOW     1.0      1.0      1.00
724              FLOW         ""               FLOW     1.0      1.0      1.00
723              FLOW         ""               FLOW     1.0      1.0      1.00
722              FLOW         ""               FLOW     1.0      1.0      1.00
955              FLOW         ""               FLOW     1.0      1.0      1.00
729              FLOW         ""               FLOW     1.0      1.0      1.00
987              FLOW         ""               FLOW     1.0      1.0      1.00
2102             FLOW         ""               FLOW     1.0      1.0      1.00
2145             FLOW         ""               FLOW     1.0      1.0      1.00
2109             FLOW         ""               FLOW     1.0      1.0      1.00
2120             FLOW         ""               FLOW     1.0      1.0      1.00
2121             FLOW         ""               FLOW     1.0      1.0      1.00
2122             FLOW         ""               FLOW     1.0      1.0      1.00
2123             FLOW         ""               FLOW     1.0      1.0      1.00
2124             FLOW         ""               FLOW     1.0      1.0      1.00
2125             FLOW         ""               FLOW     1.0      1.0      1.00
2128             FLOW         ""               FLOW     1.0      1.0      1.00
2133             FLOW         ""               FLOW     1.0      1.0      1.00
2139             FLOW         ""               FLOW     1.0      1.0      1.00
2143             FLOW         ""               FLOW     1.0      1.0      1.00
2148             FLOW         ""               FLOW     1.0      1.0      1.00
2174             FLOW         ""               FLOW     1.0      1.0      1.00
2176             FLOW         ""               FLOW     1.0      1.0      1.00
2177             FLOW         ""               FLOW     1.0      1.0      1.00
2396             FLOW         ""               FLOW     1.0      1.0      1.00
2352             FLOW         ""               FLOW     1.0      1.0      1.00
2369             FLOW         ""               FLOW     1.0      1.0      1.00
2374             FLOW         ""               FLOW     1.0      1.0      1.00
2375             FLOW         ""               FLOW     1.0      1.0      1.00
2415             FLOW         ""               FLOW     1.0      1.0      1.00
2420             FLOW         ""               FLOW     1.0      1.0      1.00
2430             FLOW         ""               FLOW     1.0      1.0      1.00
HW_411           FLOW         ""               FLOW     1.0      1.0      1.00
HW_235           FLOW         ""               FLOW     1.0      1.0      1.00
1455             FLOW         ""               FLOW     1.0      1.0      1.00
2457             FLOW         ""               FLOW     1.0      1.0      1.00
2461             FLOW         ""               FLOW     1.0      1.0      1.00
2466             FLOW         ""               FLOW     1.0      1.0      1.00
2484             FLOW         ""               FLOW     1.0      1.0      1.00
1495             FLOW         ""               FLOW     1.0      1.0      1.00
2501             FLOW         ""               FLOW     1.0      1.0      1.00
2509             FLOW         ""               FLOW     1.0      1.0      1.00
2515             FLOW         ""               FLOW     1.0      1.0      1.00
2538             FLOW         ""               FLOW     1.0      1.0      1.00
2567             FLOW         ""               FLOW     1.0      1.0      1.00
2570             FLOW         ""               FLOW     1.0      1.0      1.00
2573             FLOW         ""               FLOW     1.0      1.0      1.00

[COORDINATES]
;;Node           X-Coord            Y-Coord
;;-------------- ------------------ ------------------
830              603.45             -141.04           
826              637.65             -235.01           
726              637.65             -255.01           
831              596.61             -159.84           
983              603.45             -21.05            
701              477.47             0.42              
962              501.73             363.72            
963              517.47             20.42             
964              517.47             0.42              
702              497.47             0.42              
965              537.47             0.42              
703              557.47             -19.58            
985              603.45             18.95             
969              440.26             57.91             
986              603.45             38.95             
704              460.26             17.91             
961              693.44             380.76            
835              560.32             14.56             
821              480.32             54.56             
967              400.26             37.91             
990              513.08             537.58            
834              540.32             74.56             
807              501.14             37.14             
806              481.14             37.14             
805              576.85             74.02             
801              581.73             363.72            
816              561.73             363.72            
817              521.14             17.14             
818              420.32             54.56             
820              460.32             54.56             
991              513.44             380.76            
932              523.29             557.28            
992              533.44             380.76            
993              553.44             380.76            
934              481.73             363.72            
842              538.06             0.86              
928              488.05             421.31            
810              438.06             80.86             
931              480.31             300.89            
912              370.84             -39.30            
913              457.59             133.10            
846              376.72             -19.59            
9310             470.26             244.90            
9320             477.35             231.23            
908              492.18             317.85            
909              505.04             302.53            
914              530.75             351.89            
936              517.03             384.39            
9140             391.79             111.01            
915              530.75             331.89            
924              537.59             153.10            
847              527.59             170.42            
937              508.57             402.51            
938              527.59             396.33            
995              455.23             123.80            
926              429.31             104.81            
935              493.44             380.76            
950              593.44             380.76            
939              377.97             141.83            
941              397.59             133.10            
940              418.89             140.71            
706              653.44             360.76            
954              673.44             380.76            
948              543.45             118.95            
910              613.44             400.76            
953              653.44             380.76            
972              693.44             360.76            
974              573.45             156.28            
949              563.45             118.95            
975              569.98             175.97            
705              558.13             169.13            
989              603.45             98.95             
978              603.45             118.95            
988              603.45             78.95             
947              523.45             118.95            
903              487.31             108.44            
906              517.59             133.10            
927              443.45             118.95            
944              463.45             118.95            
728              523.45             98.95             
727              341.68             198.06            
833              355.97             202.17            
902              496.39             126.26            
802              595.65             94.54             
803              576.85             87.70             
804              558.06             80.86             
832              540.74             90.86             
808              541.73             363.72            
809              375.97             222.17            
811              458.06             80.86             
812              478.06             80.86             
813              498.06             80.86             
814              518.06             80.86             
815              538.06             80.86             
843              538.06             20.86             
844              538.06             40.86             
845              538.06             60.86             
819              440.32             54.56             
822              500.32             54.56             
823              520.32             54.56             
824              540.32             54.56             
825              521.73             363.72            
725              560.32             34.56             
836              650.51             -250.34           
827              623.97             -197.43           
828              617.13             -178.63           
829              610.29             -159.84           
838              395.14             252.93            
899              423.47             263.56            
901              477.59             133.10            
724              496.39             139.94            
723              483.53             141.58            
904              477.59             133.10            
905              497.59             133.10            
925              547.59             170.42            
907              499.10             294.05            
911              517.90             287.21            
722              514.42             306.91            
918              530.75             271.89            
916              530.75             311.89            
917              530.75             291.89            
919              537.59             253.10            
920              544.43             271.89            
921              537.59             213.10            
922              537.59             193.10            
923              537.59             173.10            
929              494.89             402.51            
930              501.73             383.72            
933              461.73             363.72            
942              417.59             133.10            
996              403.45             118.95            
997              417.59             153.10            
943              437.59             133.10            
945              483.45             118.95            
946              503.45             118.95            
976              586.56             187.16            
994              573.44             380.76            
951              613.44             380.76            
952              633.44             380.76            
955              608.59             465.61            
956              622.73             451.47            
957              636.88             437.33            
958              651.02             423.18            
959              665.16             409.04            
960              679.30             394.90            
966              481.73             363.72            
968              420.26             37.91             
970              440.26             37.91             
971              461.73             363.72            
973              441.73             363.72            
729              586.36             164.50            
977              583.45             118.95            
979              603.45             -101.05           
980              603.45             -81.05            
981              603.45             -61.05            
982              603.45             -41.05            
984              603.45             -1.04             
987              603.45             58.95             
998              453.44             380.76            
999              473.44             380.76            

[MAP]
DIMENSIONS 341.68 -255.01 693.44 557.28
Units      None

[REPORT]
SUBCATCHMENTS ALL
NODES ALL
LINKS ALL
