;; SWMM5 .inp converted from XPSWMM .xp file
;; Generated by XPSWMM Card Reader
;; Source format: XP_CARD | Original title: (none)
;; Links parsed from source: 16 | Routable in this .inp: 16

[TITLE]
;;Project Title/Notes
Converted from XPSWMM .xp file

[OPTIONS]
FLOW_UNITS           CFS
INFILTRATION         HORTON
FLOW_ROUTING         DYNWAVE
LINK_OFFSETS         DEPTH
MIN_SLOPE            0.0
ALLOW_PONDING        NO
SKIP_STEADY_STATE    NO
INERTIAL_DAMPING     PARTIAL
NORMAL_FLOW_LIMITED  BOTH
START_DATE           01/01/2001
START_TIME           00:00:00
REPORT_START_DATE    01/01/2001
REPORT_START_TIME    00:00:00
END_DATE             01/02/2001
END_TIME             00:00:00
SWEEP_START          01/01
SWEEP_END            12/31
DRY_DAYS             0
REPORT_STEP          00:15:00
WET_STEP             00:05:00
DRY_STEP             01:00:00

[JUNCTIONS]
;;Name           Elev       MaxDepth   InitDepth  SurDepth   Aponded
;;-------------- ---------- ---------- ---------- ---------- ----------
215              0          0          0          0          0
217              0          0          0          0          0
219              0          0          0          0          0
220              0          0          0          0          0
222              0          0          0          0          0
224              0          0          0          0          0
226              0          0          0          0          0
227              0          0          0          0          0
229              0          0          0          0          0
231              0          0          0          0          0
233              0          0          0          0          0
234              0          0          0          0          0
236              0          0          0          0          0
238              0          0          0          0          0
240              0          0          0          0          0
241              0          0          0          0          0
243              0          0          0          0          0
244              0          0          0          0          0
246              0          0          0          0          0
248              0          0          0          0          0
HW_214           0          0          0          0          0
HW_215           0          0          0          0          0
HW_219           0          0          0          0          0
HW_222           0          0          0          0          0
HW_220           0          0          0          0          0
HW_226           0          0          0          0          0
HW_226_2         0          0          0          0          0
HW_229           0          0          0          0          0
HW_233           0          0          0          0          0
HW_234           0          0          0          0          0
HW_236           0          0          0          0          0
HW_240           0          0          0          0          0
HW_243           0          0          0          0          0
HW_241           0          0          0          0          0
HW_244           0          0          0          0          0
HW_241_2         0          0          0          0          0

[OUTFALLS]
;;Name           Elev       Type       Stage      Gated
;;-------------- ---------- ---------- ---------- -----
214              0          FREE                  NO

[CONDUITS]
;;Name           From             To               Length     Roughness  InOffset   OutOffset  InitFlow   MaxFlow
;;-------------- ---------------- ---------------- ---------- ---------- ---------- ---------- ---------- ----------
214              HW_214           214              100.00     0.0130     0          0          0          0
215              HW_215           215              100.00     0.0130     0          0          0          0
219              HW_219           219              100.00     0.0130     0          0          0          0
222              HW_222           222              100.00     0.0130     0          0          0          0
220              HW_220           220              100.00     0.0130     0          0          0          0
226              HW_226           226              100.00     0.0130     0          0          0          0
226_2            HW_226_2         226              100.00     0.0130     0          0          0          0
229              HW_229           229              100.00     0.0130     0          0          0          0
233              HW_233           233              100.00     0.0130     0          0          0          0
234              HW_234           234              100.00     0.0130     0          0          0          0
236              HW_236           236              100.00     0.0130     0          0          0          0
240              HW_240           240              100.00     0.0130     0          0          0          0
243              HW_243           243              100.00     0.0130     0          0          0          0
241              HW_241           241              100.00     0.0130     0          0          0          0
244              HW_244           244              100.00     0.0130     0          0          0          0
241_2            HW_241_2         241              100.00     0.0130     0          0          0          0

[XSECTIONS]
;;Link           Shape        Geom1      Geom2      Geom3      Geom4      Barrels
;;-------------- ------------ ---------- ---------- ---------- ---------- ----------
214              CIRCULAR     1.00       0          0          0          1
215              CIRCULAR     1.00       0          0          0          1
219              CIRCULAR     1.00       0          0          0          1
222              CIRCULAR     1.00       0          0          0          1
220              CIRCULAR     1.00       0          0          0          1
226              CIRCULAR     1.00       0          0          0          1
226_2            CIRCULAR     1.00       0          0          0          1
229              CIRCULAR     1.00       0          0          0          1
233              CIRCULAR     1.00       0          0          0          1
234              CIRCULAR     1.00       0          0          0          1
236              CIRCULAR     1.00       0          0          0          1
240              CIRCULAR     1.00       0          0          0          1
243              CIRCULAR     1.00       0          0          0          1
241              CIRCULAR     1.00       0          0          0          1
244              CIRCULAR     1.00       0          0          0          1
241_2            CIRCULAR     1.00       0          0          0          1

[LOSSES]
;;Link           Inlet      Outlet     Average    Flap Gate
;;-------------- ---------- ---------- ---------- ----------
214              0          0          0          NO
215              0          0          0          NO
219              0          0          0          NO
222              0          0          0          NO
220              0          0          0          NO
226              0          0          0          NO
226_2            0          0          0          NO
229              0          0          0          NO
233              0          0          0          NO
234              0          0          0          NO
236              0          0          0          NO
240              0          0          0          NO
243              0          0          0          NO
241              0          0          0          NO
244              0          0          0          NO
241_2            0          0          0          NO

[INFLOWS]
;;Node           Constituent  Time Series      Type     Mfactor  Sfactor  Baseline Pattern
;;-------------- ------------ ---------------- -------- -------- -------- -------- --------
;; SYNTHETIC TEST INFLOWS — the source .xp carried no constant inflows
;; and RUNF hydrology is not converted; 1.00 CFS is applied at each
;; headwater node so the network runs wet for QA. Replace with real
;; hydrology or inflow hydrographs before using results.
HW_214           FLOW         ""               FLOW     1.0      1.0      1.00
HW_215           FLOW         ""               FLOW     1.0      1.0      1.00
HW_219           FLOW         ""               FLOW     1.0      1.0      1.00
HW_222           FLOW         ""               FLOW     1.0      1.0      1.00
HW_220           FLOW         ""               FLOW     1.0      1.0      1.00
HW_226           FLOW         ""               FLOW     1.0      1.0      1.00
HW_226_2         FLOW         ""               FLOW     1.0      1.0      1.00
HW_229           FLOW         ""               FLOW     1.0      1.0      1.00
HW_233           FLOW         ""               FLOW     1.0      1.0      1.00
HW_234           FLOW         ""               FLOW     1.0      1.0      1.00
HW_236           FLOW         ""               FLOW     1.0      1.0      1.00
HW_240           FLOW         ""               FLOW     1.0      1.0      1.00
HW_243           FLOW         ""               FLOW     1.0      1.0      1.00
HW_241           FLOW         ""               FLOW     1.0      1.0      1.00
HW_244           FLOW         ""               FLOW     1.0      1.0      1.00
HW_241_2         FLOW         ""               FLOW     1.0      1.0      1.00

[COORDINATES]
;;Node           X-Coord            Y-Coord
;;-------------- ------------------ ------------------
214              70.77              -0.50             
215              99.50              -0.50             
217              99.50              19.50             
219              71.93              34.84             
220              83.76              47.41             
222              69.09              59.19             
224              98.91              39.55             
226              70.04              69.01             
227              98.91              68.22             
229              99.39              87.46             
231              71.46              87.07             
233              111.70             20.31             
234              112.64             5.00              
236              133.00             5.00              
238              133.00             21.88             
240              111.22             38.38             
241              126.84             37.98             
243              112.17             56.83             
244              126.84             57.23             
246              138.68             38.38             
248              140.10             57.62             

[MAP]
DIMENSIONS 69.09 -0.50 140.10 87.46
Units      None

[REPORT]
SUBCATCHMENTS ALL
NODES ALL
LINKS ALL
