;; SWMM5 .inp converted from XPSWMM .xp file
;; Generated by XPSWMM Card Reader
;; Source format: XP_CARD | Original title: (none)
;; Links parsed from source: 16 | Routable in this .inp: 16

[TITLE]
;;Project Title/Notes
Converted from XPSWMM .xp file

[OPTIONS]
FLOW_UNITS           CFS
INFILTRATION         HORTON
FLOW_ROUTING         DYNWAVE
LINK_OFFSETS         DEPTH
MIN_SLOPE            0.0
ALLOW_PONDING        NO
SKIP_STEADY_STATE    NO
INERTIAL_DAMPING     PARTIAL
NORMAL_FLOW_LIMITED  BOTH
START_DATE           01/01/2001
START_TIME           00:00:00
REPORT_START_DATE    01/01/2001
REPORT_START_TIME    00:00:00
END_DATE             01/02/2001
END_TIME             00:00:00
SWEEP_START          01/01
SWEEP_END            12/31
DRY_DAYS             0
REPORT_STEP          00:15:00
WET_STEP             00:05:00
DRY_STEP             01:00:00

[JUNCTIONS]
;;Name           Elev       MaxDepth   InitDepth  SurDepth   Aponded
;;-------------- ---------- ---------- ---------- ---------- ----------
214              0          0          0          0          0
215              0          0          0          0          0
219              0          0          0          0          0
220              0          0          0          0          0
222              0          0          0          0          0
224              0          0          0          0          0
226              0          0          0          0          0
227              0          0          0          0          0
229              0          0          0          0          0
231              0          0          0          0          0
233              0          0          0          0          0
234              0          0          0          0          0
236              0          0          0          0          0
238              0          0          0          0          0
240              0          0          0          0          0
241              0          0          0          0          0
243              0          0          0          0          0
244              0          0          0          0          0
246              0          0          0          0          0
248              0          0          0          0          0

[OUTFALLS]
;;Name           Elev       Type       Stage      Gated
;;-------------- ---------- ---------- ---------- -----
217              0          FREE                  NO

[CONDUITS]
;;Name           From             To               Length     Roughness  InOffset   OutOffset  InitFlow   MaxFlow
;;-------------- ---------------- ---------------- ---------- ---------- ---------- ---------- ---------- ----------
216              214              215              100.00     0.0130     0          0          0          0
218              215              217              100.00     0.0130     0          0          0          0
221              219              220              100.00     0.0130     0          0          0          0
223              222              220              100.00     0.0130     0          0          0          0
225              220              224              100.00     0.0130     0          0          0          0
228              226              227              100.00     0.0130     0          0          0          0
230              226              229              100.00     0.0130     0          0          0          0
232              229              231              100.00     0.0130     0          0          0          0
235              233              234              100.00     0.0130     0          0          0          0
237              234              236              100.00     0.0130     0          0          0          0
239              236              238              100.00     0.0130     0          0          0          0
242              240              241              100.00     0.0130     0          0          0          0
245              243              244              100.00     0.0130     0          0          0          0
247              241              246              100.00     0.0130     0          0          0          0
249              244              248              100.00     0.0130     0          0          0          0
250              241              244              100.00     0.0130     0          0          0          0

[XSECTIONS]
;;Link           Shape        Geom1      Geom2      Geom3      Geom4      Barrels
;;-------------- ------------ ---------- ---------- ---------- ---------- ----------
216              CIRCULAR     1.00       0          0          0          1
218              CIRCULAR     1.00       0          0          0          1
221              CIRCULAR     1.00       0          0          0          1
223              CIRCULAR     1.00       0          0          0          1
225              CIRCULAR     1.00       0          0          0          1
228              CIRCULAR     1.00       0          0          0          1
230              CIRCULAR     1.00       0          0          0          1
232              CIRCULAR     1.00       0          0          0          1
235              CIRCULAR     1.00       0          0          0          1
237              CIRCULAR     1.00       0          0          0          1
239              CIRCULAR     1.00       0          0          0          1
242              CIRCULAR     1.00       0          0          0          1
245              CIRCULAR     1.00       0          0          0          1
247              CIRCULAR     1.00       0          0          0          1
249              CIRCULAR     1.00       0          0          0          1
250              CIRCULAR     1.00       0          0          0          1

[LOSSES]
;;Link           Inlet      Outlet     Average    Flap Gate
;;-------------- ---------- ---------- ---------- ----------
216              0          0          0          NO
218              0          0          0          NO
221              0          0          0          NO
223              0          0          0          NO
225              0          0          0          NO
228              0          0          0          NO
230              0          0          0          NO
232              0          0          0          NO
235              0          0          0          NO
237              0          0          0          NO
239              0          0          0          NO
242              0          0          0          NO
245              0          0          0          NO
247              0          0          0          NO
249              0          0          0          NO
250              0          0          0          NO

[INFLOWS]
;;Node           Constituent  Time Series      Type     Mfactor  Sfactor  Baseline Pattern
;;-------------- ------------ ---------------- -------- -------- -------- -------- --------
;; SYNTHETIC TEST INFLOWS — the source .xp carried no constant inflows
;; and RUNF hydrology is not converted; 1.00 CFS is applied at each
;; headwater node so the network runs wet for QA. Replace with real
;; hydrology or inflow hydrographs before using results.
214              FLOW         ""               FLOW     1.0      1.0      1.00
219              FLOW         ""               FLOW     1.0      1.0      1.00
222              FLOW         ""               FLOW     1.0      1.0      1.00
226              FLOW         ""               FLOW     1.0      1.0      1.00
233              FLOW         ""               FLOW     1.0      1.0      1.00
240              FLOW         ""               FLOW     1.0      1.0      1.00
243              FLOW         ""               FLOW     1.0      1.0      1.00

[COORDINATES]
;;Node           X-Coord            Y-Coord
;;-------------- ------------------ ------------------
214              70.77              -0.50             
215              99.50              -0.50             
217              99.50              19.50             
219              71.93              34.84             
220              83.76              47.41             
222              69.09              59.19             
224              98.91              39.55             
226              70.04              69.01             
227              98.91              68.22             
229              99.39              87.46             
231              71.46              87.07             
233              111.70             20.31             
234              112.64             5.00              
236              133.00             5.00              
238              133.00             21.88             
240              111.22             38.38             
241              126.84             37.98             
243              112.17             56.83             
244              126.84             57.23             
246              138.68             38.38             
248              140.10             57.62             

[MAP]
DIMENSIONS 69.09 -0.50 140.10 87.46
Units      None

[REPORT]
SUBCATCHMENTS ALL
NODES ALL
LINKS ALL
