;; SWMM5 .inp converted from XPSWMM .xp file
;; Generated by XPSWMM Card Reader
;; Source format: XP_CARD | Original title: (none)

[TITLE]
;;Project Title/Notes
Converted from XPSWMM .xp file

[OPTIONS]
FLOW_UNITS           CMS
INFILTRATION         HORTON
FLOW_ROUTING         DYNWAVE
LINK_OFFSETS         DEPTH
MIN_SLOPE            0.0
ALLOW_PONDING        NO
SKIP_STEADY_STATE    NO
ROUTING_STEP         00:00:04
VARIABLE_STEP        0.75
INERTIAL_DAMPING     PARTIAL
NORMAL_FLOW_LIMITED  BOTH
MAX_TRIALS           50
START_DATE           01/01/2001
START_TIME           00:00:00
REPORT_START_DATE    01/01/2001
REPORT_START_TIME    00:00:00
END_DATE             01/02/2001
END_TIME             00:00:00
SWEEP_START          01/01
SWEEP_END            12/31
DRY_DAYS             0
REPORT_STEP          00:15:00
WET_STEP             00:05:00
DRY_STEP             01:00:00

[JUNCTIONS]
;;Name           Elev       MaxDepth   InitDepth  SurDepth   Aponded
;;-------------- ---------- ---------- ---------- ---------- ----------
1                11.00      0          0          0          0
2                11.00      0          0          0          0
3                11.00      0          0          0          0
4                11.00      0          0          0          0
5                11.00      0          0          0          0
6                11.00      0          0          0          0
7                11.00      0          0          0          0
8                11.00      0          0          0          0
9                11.00      0          0          0          0
10               11.00      0          0          0          0
11               11.00      0          0          0          0
12               11.00      0          0          0          0
100              11.00      0          0          0          0
101              11.00      0          0          0          0
102              11.00      0          0          0          0
103              11.00      0          0          0          0
200              11.00      0          0          0          0
201              11.00      0          0          0          0
202              11.00      0          0          0          0
203              11.00      0          0          0          0

[OUTFALLS]
;;Name           Elev       Type       Stage      Gated
;;-------------- ---------- ---------- ---------- -----
13               11.00      FREE                  NO

[CONDUITS]
;;Name           From             To               Length     Roughness  InOffset   OutOffset  InitFlow   MaxFlow
;;-------------- ---------------- ---------------- ---------- ---------- ---------- ---------- ---------- ----------
Shape1           1                2                100.00     0.0130     0.12       0.11       0          0
Shape2           2                3                100.00     0.0130     0.11       0.10       0          0
Shape3           3                4                100.00     0.0130     0.10       0.09       0          0
Shape4           4                5                100.00     0.0130     0.09       0.08       0          0
Shape5           5                6                100.00     0.0130     0.08       0.07       0          0
Shape6           6                7                100.00     0.0130     0.07       0.06       0          0
Shape7           7                8                100.00     0.0130     0.06       0.05       0          0
Shape8           8                9                100.00     0.0130     0.05       0.04       0          0
Shape9           9                10               100.00     0.0130     0.04       0.03       0          0
Shape10          10               11               100.00     0.0130     0.03       0.02       0          0
Shape11          11               12               100.00     0.0130     0.02       0.01       0          0
Shape12          12               13               100.00     0.0130     0.01       0          0          0
shape1a          100              101              100.00     0.0130     0.03       0.02       0          0
shape1b          101              102              100.00     0.0130     0.02       0.01       0          0
shape1c          102              103              100.00     0.0130     0.01       0          0          0
shape2a          200              201              100.00     0.0130     0.03       0.02       0          0
shape2b          201              202              100.00     0.0130     0.02       0.01       0          0
shape2c          202              203              100.00     0.0130     0.01       0          0          0
240              200              100              100.00     0.0130     0          0          0          0

[XSECTIONS]
;;Link           Shape        Geom1      Geom2      Geom3      Geom4      Barrels
;;-------------- ------------ ---------- ---------- ---------- ---------- ----------
Shape1           TRAPEZOIDAL  10.00      10.00      2          2          1
Shape2           TRAPEZOIDAL  10.00      10.00      2          2          1
Shape3           TRAPEZOIDAL  10.00      10.00      2          2          1
Shape4           TRAPEZOIDAL  10.00      10.00      2          2          1
Shape5           TRAPEZOIDAL  10.00      10.00      2          2          1
Shape6           TRAPEZOIDAL  10.00      10.00      2          2          1
Shape7           TRAPEZOIDAL  10.00      10.00      2          2          1
Shape8           TRAPEZOIDAL  10.00      10.00      2          2          1
Shape9           TRAPEZOIDAL  10.00      10.00      2          2          1
Shape10          TRAPEZOIDAL  10.00      10.00      2          2          1
Shape11          TRAPEZOIDAL  10.00      10.00      2          2          1
Shape12          TRAPEZOIDAL  10.00      10.00      2          2          1
shape1a          TRAPEZOIDAL  10.00      10.00      2          2          1
shape1b          TRAPEZOIDAL  10.00      10.00      2          2          1
shape1c          TRAPEZOIDAL  10.00      10.00      2          2          1
shape2a          TRAPEZOIDAL  10.00      10.00      2          2          1
shape2b          TRAPEZOIDAL  10.00      10.00      2          2          1
shape2c          TRAPEZOIDAL  10.00      10.00      2          2          1
240              CIRCULAR     1.00       0          0          0          1

[LOSSES]
;;Link           Inlet      Outlet     Average    Flap Gate
;;-------------- ---------- ---------- ---------- ----------
Shape1           0          0          0          NO
Shape2           0          0          0          NO
Shape3           0          0          0          NO
Shape4           0          0          0          NO
Shape5           0          0          0          NO
Shape6           0          0          0          NO
Shape7           0          0          0          NO
Shape8           0          0          0          NO
Shape9           0          0          0          NO
Shape10          0          0          0          NO
Shape11          0          0          0          NO
Shape12          0          0          0          NO
shape1a          0          0          0          NO
shape1b          0          0          0          NO
shape1c          0          0          0          NO
shape2a          0          0          0          NO
shape2b          0          0          0          NO
shape2c          0          0          0          NO
240              0          0          0          NO

[COORDINATES]
;;Node           X-Coord            Y-Coord
;;-------------- ------------------ ------------------
1                17.64              17.64             
2                17.64              37.64             
3                37.64              37.64             
4                37.64              57.64             
5                57.64              57.64             
6                57.64              77.64             
7                77.64              77.64             
8                77.64              97.64             
9                97.64              97.64             
10               97.64              117.64            
11               117.64             117.64            
12               117.64             137.64            
13               137.64             137.64            
100              33.79              17.59             
101              48.98              35.59             
102              77.64              37.64             
103              97.64              57.64             
200              37.64              -22.36            
201              57.64              -2.36             
202              77.64              17.64             
203              97.64              37.64             

[MAP]
DIMENSIONS 17.64 -22.36 137.64 137.64
Units      None

[REPORT]
SUBCATCHMENTS ALL
NODES ALL
LINKS ALL
