;; SWMM5 .inp converted from XPSWMM .xp file
;; Generated by XPSWMM Card Reader
;; Source format: XP_CARD | Original title: (none)
;; Links parsed from source: 47 | Routable in this .inp: 47

[TITLE]
;;Project Title/Notes
Converted from XPSWMM .xp file

[OPTIONS]
FLOW_UNITS           CMS
INFILTRATION         HORTON
FLOW_ROUTING         DYNWAVE
LINK_OFFSETS         DEPTH
MIN_SLOPE            0.0
ALLOW_PONDING        NO
SKIP_STEADY_STATE    NO
ROUTING_STEP         00:00:04
VARIABLE_STEP        0.75
INERTIAL_DAMPING     PARTIAL
NORMAL_FLOW_LIMITED  BOTH
MAX_TRIALS           50
START_DATE           01/01/2001
START_TIME           00:00:00
REPORT_START_DATE    01/01/2001
REPORT_START_TIME    00:00:00
END_DATE             01/02/2001
END_TIME             00:00:00
SWEEP_START          01/01
SWEEP_END            12/31
DRY_DAYS             0
REPORT_STEP          00:15:00
WET_STEP             00:05:00
DRY_STEP             01:00:00

[JUNCTIONS]
;;Name           Elev       MaxDepth   InitDepth  SurDepth   Aponded
;;-------------- ---------- ---------- ---------- ---------- ----------
100              11.00      0          0          0          0
101              11.00      0          0          0          0
102              11.00      0          0          0          0
200              11.00      0          0          0          0
201              11.00      0          0          0          0
202              11.00      0          0          0          0
203              11.00      0          0          0          0
300              11.00      0          0          0          0
301              11.00      0          0          0          0
302              11.00      0          0          0          0
303              11.00      0          0          0          0
400              11.00      0          0          0          0
401              11.00      0          0          0          0
402              11.00      0          0          0          0
403              11.00      0          0          0          0
500              11.00      0          0          0          0
501              11.00      0          0          0          0
502              11.00      0          0          0          0
503              11.00      0          0          0          0
600              11.00      0          0          0          0
601              11.00      0          0          0          0
602              11.00      0          0          0          0
603              11.00      0          0          0          0
700              11.00      0          0          0          0
701              11.00      0          0          0          0
702              11.00      0          0          0          0
703              11.00      0          0          0          0
800              11.00      0          0          0          0
801              11.00      0          0          0          0
802              11.00      0          0          0          0
803              11.00      0          0          0          0
900              11.00      0          0          0          0
901              11.00      0          0          0          0
902              11.00      0          0          0          0
903              11.00      0          0          0          0
1000             11.00      0          0          0          0
1001             11.00      0          0          0          0
1002             11.00      0          0          0          0
1003             11.00      0          0          0          0
1100             11.00      0          0          0          0
1101             11.00      0          0          0          0
1102             11.00      0          0          0          0
1103             11.00      0          0          0          0
1200             11.00      0          0          0          0
1201             11.00      0          0          0          0
1202             11.00      0          0          0          0
1203             11.00      0          0          0          0

[OUTFALLS]
;;Name           Elev       Type       Stage      Gated
;;-------------- ---------- ---------- ---------- -----
103              11.00      FREE                  NO

[CONDUITS]
;;Name           From             To               Length     Roughness  InOffset   OutOffset  InitFlow   MaxFlow
;;-------------- ---------------- ---------------- ---------- ---------- ---------- ---------- ---------- ----------
shape1a          100              101              100.00     0.0130     0.03       0.02       0          0
shape1b          101              102              100.00     0.0130     0.02       0.01       0          0
shape1c          102              103              100.00     0.0130     0.01       0          0          0
shape2a          200              201              100.00     0.0130     0.03       0.02       0          0
shape2b          201              202              100.00     0.0130     0.02       0.01       0          0
shape2c          202              203              100.00     0.0130     0.01       0          0          0
240              200              100              100.00     0.0130     0          0          0          0
shape3a          300              301              100.00     0.0130     0.03       0.02       0          0
shape3b          301              302              100.00     0.0130     0.10       0.09       0          0
shape3c          302              303              100.00     0.0130     0.01       0          0          0
shape4a          400              401              100.00     0.0130     0.03       0.02       0          0
shape4b          401              402              100.00     0.0130     0.09       0.08       0          0
shape4c          402              403              100.00     0.0130     0.01       0          0          0
shape5a          500              501              100.00     0.0130     0.03       0.02       0          0
shape5b          501              502              100.00     0.0130     0.08       0.07       0          0
shape5c          502              503              100.00     0.0130     0.01       0          0          0
shape6a          600              601              100.00     0.0130     0.03       0.02       0          0
shape6b          601              602              100.00     0.0130     0.07       0.06       0          0
shape6c          602              603              100.00     0.0130     0.01       0          0          0
shape7a          700              701              100.00     0.0130     0.03       0.02       0          0
shape7b          701              702              100.00     0.0130     0.06       0.05       0          0
shape7c          702              703              100.00     0.0130     0.01       0          0          0
shape8a          800              801              100.00     0.0130     0.03       0.02       0          0
shape8b          801              802              100.00     0.0130     0.05       0.04       0          0
shape8c          802              803              100.00     0.0130     0.01       0          0          0
shape9a          900              901              100.00     0.0130     0.03       0.02       0          0
shape9b          901              902              100.00     0.0130     0.04       0.03       0          0
shape9c          902              903              100.00     0.0130     0.01       0          0          0
shape10a         1000             1001             100.00     0.0130     0.03       0.02       0          0
shape10b         1001             1002             100.00     0.0130     0.02       0.01       0          0
shape10c         1002             1003             100.00     0.0130     0.01       0          0          0
shape11a         1100             1101             100.00     0.0130     0.03       0.02       0          0
shape11b         1101             1102             100.00     0.0130     0.02       0.01       0          0
shape11c         1102             1103             100.00     0.0130     0.01       0          0          0
shape12a         1200             1201             100.00     0.0130     0.03       0.02       0          0
shape12b         1201             1202             100.00     0.0130     0.02       0.01       0          0
shape12c         1202             1203             100.00     0.0130     0.01       0          0          0
329              700              600              100.00     0.0130     0          0          0          0
330              600              500              100.00     0.0130     0          0          0          0
331              500              400              100.00     0.0130     0          0          0          0
332              400              300              100.00     0.0130     0          0          0          0
333              300              200              100.00     0.0130     0          0          0          0
334              1200             1100             100.00     0.0130     0          0          0          0
335              1100             1000             100.00     0.0130     0          0          0          0
336              1000             900              100.00     0.0130     0          0          0          0
337              900              800              100.00     0.0130     0          0          0          0
338              800              700              100.00     0.0130     0          0          0          0

[XSECTIONS]
;;Link           Shape        Geom1      Geom2      Geom3      Geom4      Barrels
;;-------------- ------------ ---------- ---------- ---------- ---------- ----------
shape1a          TRAPEZOIDAL  10.00      10.00      2          2          1
shape1b          TRAPEZOIDAL  10.00      10.00      2          2          1
shape1c          TRAPEZOIDAL  10.00      10.00      2          2          1
shape2a          TRAPEZOIDAL  10.00      10.00      2          2          1
shape2b          TRAPEZOIDAL  10.00      10.00      2          2          1
shape2c          TRAPEZOIDAL  10.00      10.00      2          2          1
240              CIRCULAR     1.00       0          0          0          1
shape3a          TRAPEZOIDAL  10.00      10.00      2          2          1
shape3b          TRAPEZOIDAL  10.00      10.00      2          2          1
shape3c          TRAPEZOIDAL  10.00      10.00      2          2          1
shape4a          TRAPEZOIDAL  10.00      10.00      2          2          1
shape4b          TRAPEZOIDAL  10.00      10.00      2          2          1
shape4c          TRAPEZOIDAL  10.00      10.00      2          2          1
shape5a          TRAPEZOIDAL  10.00      10.00      2          2          1
shape5b          TRAPEZOIDAL  10.00      10.00      2          2          1
shape5c          TRAPEZOIDAL  10.00      10.00      2          2          1
shape6a          TRAPEZOIDAL  10.00      10.00      2          2          1
shape6b          TRAPEZOIDAL  10.00      10.00      2          2          1
shape6c          TRAPEZOIDAL  10.00      10.00      2          2          1
shape7a          TRAPEZOIDAL  10.00      10.00      2          2          1
shape7b          TRAPEZOIDAL  10.00      10.00      2          2          1
shape7c          TRAPEZOIDAL  10.00      10.00      2          2          1
shape8a          TRAPEZOIDAL  10.00      10.00      2          2          1
shape8b          TRAPEZOIDAL  10.00      10.00      2          2          1
shape8c          TRAPEZOIDAL  10.00      10.00      2          2          1
shape9a          TRAPEZOIDAL  10.00      10.00      2          2          1
shape9b          TRAPEZOIDAL  10.00      10.00      2          2          1
shape9c          TRAPEZOIDAL  10.00      10.00      2          2          1
shape10a         TRAPEZOIDAL  10.00      10.00      2          2          1
shape10b         TRAPEZOIDAL  10.00      10.00      2          2          1
shape10c         TRAPEZOIDAL  10.00      10.00      2          2          1
shape11a         TRAPEZOIDAL  10.00      10.00      2          2          1
shape11b         TRAPEZOIDAL  10.00      10.00      2          2          1
shape11c         TRAPEZOIDAL  10.00      10.00      2          2          1
shape12a         TRAPEZOIDAL  10.00      10.00      2          2          1
shape12b         TRAPEZOIDAL  10.00      10.00      2          2          1
shape12c         TRAPEZOIDAL  10.00      10.00      2          2          1
329              CIRCULAR     1.00       0          0          0          1
330              CIRCULAR     1.00       0          0          0          1
331              CIRCULAR     1.00       0          0          0          1
332              CIRCULAR     1.00       0          0          0          1
333              CIRCULAR     1.00       0          0          0          1
334              CIRCULAR     1.00       0          0          0          1
335              CIRCULAR     1.00       0          0          0          1
336              CIRCULAR     1.00       0          0          0          1
337              CIRCULAR     1.00       0          0          0          1
338              CIRCULAR     1.00       0          0          0          1

[LOSSES]
;;Link           Inlet      Outlet     Average    Flap Gate
;;-------------- ---------- ---------- ---------- ----------
shape1a          0          0          0          NO
shape1b          0          0          0          NO
shape1c          0          0          0          NO
shape2a          0          0          0          NO
shape2b          0          0          0          NO
shape2c          0          0          0          NO
240              0          0          0          NO
shape3a          0          0          0          NO
shape3b          0          0          0          NO
shape3c          0          0          0          NO
shape4a          0          0          0          NO
shape4b          0          0          0          NO
shape4c          0          0          0          NO
shape5a          0          0          0          NO
shape5b          0          0          0          NO
shape5c          0          0          0          NO
shape6a          0          0          0          NO
shape6b          0          0          0          NO
shape6c          0          0          0          NO
shape7a          0          0          0          NO
shape7b          0          0          0          NO
shape7c          0          0          0          NO
shape8a          0          0          0          NO
shape8b          0          0          0          NO
shape8c          0          0          0          NO
shape9a          0          0          0          NO
shape9b          0          0          0          NO
shape9c          0          0          0          NO
shape10a         0          0          0          NO
shape10b         0          0          0          NO
shape10c         0          0          0          NO
shape11a         0          0          0          NO
shape11b         0          0          0          NO
shape11c         0          0          0          NO
shape12a         0          0          0          NO
shape12b         0          0          0          NO
shape12c         0          0          0          NO
329              0          0          0          NO
330              0          0          0          NO
331              0          0          0          NO
332              0          0          0          NO
333              0          0          0          NO
334              0          0          0          NO
335              0          0          0          NO
336              0          0          0          NO
337              0          0          0          NO
338              0          0          0          NO

[INFLOWS]
;;Node           Constituent  Time Series      Type     Mfactor  Sfactor  Baseline Pattern
;;-------------- ------------ ---------------- -------- -------- -------- -------- --------
;; SYNTHETIC TEST INFLOWS — the source .xp carried no constant inflows
;; and RUNF hydrology is not converted; 0.03 CMS is applied at each
;; headwater node so the network runs wet for QA. Replace with real
;; hydrology or inflow hydrographs before using results.
1200             FLOW         ""               FLOW     1.0      1.0      0.03

[COORDINATES]
;;Node           X-Coord            Y-Coord
;;-------------- ------------------ ------------------
100              37.64              -2.36             
101              57.64              17.64             
102              77.64              37.64             
103              97.64              57.64             
200              37.64              -22.36            
201              57.64              -2.36             
202              77.64              17.64             
203              97.64              37.64             
300              37.64              -42.36            
301              57.64              -22.36            
302              77.64              -2.36             
303              97.64              17.64             
400              37.64              -62.36            
401              57.64              -42.36            
402              77.64              -22.36            
403              97.64              -2.36             
500              37.64              -82.36            
501              57.64              -62.36            
502              77.64              -42.36            
503              97.64              -22.36            
600              37.64              -102.36           
601              57.64              -82.36            
602              77.64              -62.36            
603              97.64              -42.36            
700              37.64              -122.36           
701              57.64              -102.36           
702              77.64              -82.36            
703              97.64              -62.36            
800              37.64              -142.36           
801              57.64              -122.36           
802              77.64              -102.36           
803              97.64              -82.36            
900              37.64              -162.36           
901              57.64              -142.36           
902              77.64              -122.36           
903              97.64              -102.36           
1000             37.64              -182.36           
1001             57.64              -162.36           
1002             77.64              -142.36           
1003             97.64              -122.36           
1100             37.64              -202.36           
1101             57.64              -182.36           
1102             77.64              -162.36           
1103             97.64              -142.36           
1200             37.64              -222.36           
1201             57.64              -202.36           
1202             77.64              -182.36           
1203             97.64              -162.36           

[MAP]
DIMENSIONS 37.64 -222.36 97.64 57.64
Units      None

[REPORT]
SUBCATCHMENTS ALL
NODES ALL
LINKS ALL
