;; SWMM5 .inp converted from XPSWMM .xp file
;; Generated by XPSWMM Card Reader
;; Source format: XP_CARD | Original title: (none)
;; Links parsed from source: 47 | Routable in this .inp: 47

[TITLE]
;;Project Title/Notes
Converted from XPSWMM .xp file

[OPTIONS]
FLOW_UNITS           CMS
INFILTRATION         HORTON
FLOW_ROUTING         DYNWAVE
LINK_OFFSETS         DEPTH
MIN_SLOPE            0.0
ALLOW_PONDING        NO
SKIP_STEADY_STATE    NO
ROUTING_STEP         00:00:04
VARIABLE_STEP        0.75
INERTIAL_DAMPING     PARTIAL
NORMAL_FLOW_LIMITED  BOTH
MAX_TRIALS           50
START_DATE           01/01/2001
START_TIME           00:00:00
REPORT_START_DATE    01/01/2001
REPORT_START_TIME    00:00:00
END_DATE             01/02/2001
END_TIME             00:00:00
SWEEP_START          01/01
SWEEP_END            12/31
DRY_DAYS             0
REPORT_STEP          00:15:00
WET_STEP             00:05:00
DRY_STEP             01:00:00

[JUNCTIONS]
;;Name           Elev       MaxDepth   InitDepth  SurDepth   Aponded
;;-------------- ---------- ---------- ---------- ---------- ----------
100              11.00      0          0          0          0
101              11.00      0          0          0          0
102              11.00      0          0          0          0
200              11.00      0          0          0          0
201              11.00      0          0          0          0
202              11.00      0          0          0          0
203              11.00      0          0          0          0
300              11.00      0          0          0          0
301              11.00      0          0          0          0
302              11.00      0          0          0          0
303              11.00      0          0          0          0
400              11.00      0          0          0          0
401              11.00      0          0          0          0
402              11.00      0          0          0          0
403              11.00      0          0          0          0
500              11.00      0          0          0          0
501              11.00      0          0          0          0
502              11.00      0          0          0          0
503              11.00      0          0          0          0
600              11.00      0          0          0          0
601              11.00      0          0          0          0
602              11.00      0          0          0          0
603              11.00      0          0          0          0
700              11.00      0          0          0          0
701              11.00      0          0          0          0
702              11.00      0          0          0          0
703              11.00      0          0          0          0
800              11.00      0          0          0          0
801              11.00      0          0          0          0
802              11.00      0          0          0          0
803              11.00      0          0          0          0
900              11.00      0          0          0          0
901              11.00      0          0          0          0
902              11.00      0          0          0          0
903              11.00      0          0          0          0
1000             11.00      0          0          0          0
1001             11.00      0          0          0          0
1002             11.00      0          0          0          0
1003             11.00      0          0          0          0
1100             11.00      0          0          0          0
1101             11.00      0          0          0          0
1102             11.00      0          0          0          0
1103             11.00      0          0          0          0
1200             11.00      0          0          0          0
1201             11.00      0          0          0          0
1202             11.00      0          0          0          0
1203             11.00      0          0          0          0
HW_233_2         0          0          0          0          0
HW_274_2         0          0          0          0          0
HW_266_2         0          0          0          0          0
HW_258_2         0          0          0          0          0
HW_250_2         0          0          0          0          0
HW_242_2         0          0          0          0          0
HW_322_2         0          0          0          0          0
HW_306_2         0          0          0          0          0
HW_298_2         0          0          0          0          0
HW_290_2         0          0          0          0          0
HW_282_2         0          0          0          0          0

[OUTFALLS]
;;Name           Elev       Type       Stage      Gated
;;-------------- ---------- ---------- ---------- -----
103              11.00      FREE                  NO

[CONDUITS]
;;Name           From             To               Length     Roughness  InOffset   OutOffset  InitFlow   MaxFlow
;;-------------- ---------------- ---------------- ---------- ---------- ---------- ---------- ---------- ----------
226              100              101              100.00     0.0130     0.03       0.02       0          0
227              101              102              100.00     0.0130     0.02       0.01       0          0
229              102              103              100.00     0.0130     0.01       0          0          0
233              200              201              100.00     0.0130     0.03       0.02       0          0
234              201              202              100.00     0.0130     0.02       0.01       0          0
236              202              203              100.00     0.0130     0.01       0          0          0
233_2            HW_233_2         200              100.00     0.0130     0          0          0          0
242              300              301              100.00     0.0130     0.03       0.02       0          0
243              301              302              100.00     0.0130     0.10       0.09       0          0
244              302              303              100.00     0.0130     0.01       0          0          0
250              400              401              100.00     0.0130     0.03       0.02       0          0
251              401              402              100.00     0.0130     0.09       0.08       0          0
252              402              403              100.00     0.0130     0.01       0          0          0
258              500              501              100.00     0.0130     0.03       0.02       0          0
259              501              502              100.00     0.0130     0.08       0.07       0          0
260              502              503              100.00     0.0130     0.01       0          0          0
266              600              601              100.00     0.0130     0.03       0.02       0          0
267              601              602              100.00     0.0130     0.07       0.06       0          0
268              602              603              100.00     0.0130     0.01       0          0          0
274              700              701              100.00     0.0130     0.03       0.02       0          0
275              701              702              100.00     0.0130     0.06       0.05       0          0
276              702              703              100.00     0.0130     0.01       0          0          0
282              800              801              100.00     0.0130     0.03       0.02       0          0
283              801              802              100.00     0.0130     0.05       0.04       0          0
284              802              803              100.00     0.0130     0.01       0          0          0
290              900              901              100.00     0.0130     0.03       0.02       0          0
291              901              902              100.00     0.0130     0.04       0.03       0          0
292              902              903              100.00     0.0130     0.01       0          0          0
298              1000             1001             100.00     0.0130     0.03       0.02       0          0
299              1001             1002             100.00     0.0130     0.02       0.01       0          0
300              1002             1003             100.00     0.0130     0.01       0          0          0
306              1100             1101             100.00     0.0130     0.03       0.02       0          0
307              1101             1102             100.00     0.0130     0.02       0.01       0          0
308              1102             1103             100.00     0.0130     0.01       0          0          0
322              1200             1201             100.00     0.0130     0.03       0.02       0          0
323              1201             1202             100.00     0.0130     0.02       0.01       0          0
324              1202             1203             100.00     0.0130     0.01       0          0          0
274_2            HW_274_2         700              100.00     0.0130     0          0          0          0
266_2            HW_266_2         600              100.00     0.0130     0          0          0          0
258_2            HW_258_2         500              100.00     0.0130     0          0          0          0
250_2            HW_250_2         400              100.00     0.0130     0          0          0          0
242_2            HW_242_2         300              100.00     0.0130     0          0          0          0
322_2            HW_322_2         1200             100.00     0.0130     0          0          0          0
306_2            HW_306_2         1100             100.00     0.0130     0          0          0          0
298_2            HW_298_2         1000             100.00     0.0130     0          0          0          0
290_2            HW_290_2         900              100.00     0.0130     0          0          0          0
282_2            HW_282_2         800              100.00     0.0130     0          0          0          0

[XSECTIONS]
;;Link           Shape        Geom1      Geom2      Geom3      Geom4      Barrels
;;-------------- ------------ ---------- ---------- ---------- ---------- ----------
226              TRAPEZOIDAL  10.00      10.00      2          2          1
227              TRAPEZOIDAL  10.00      10.00      2          2          1
229              TRAPEZOIDAL  10.00      10.00      2          2          1
233              TRAPEZOIDAL  10.00      10.00      2          2          1
234              TRAPEZOIDAL  10.00      10.00      2          2          1
236              TRAPEZOIDAL  10.00      10.00      2          2          1
233_2            CIRCULAR     1.00       0          0          0          1
242              TRAPEZOIDAL  10.00      10.00      2          2          1
243              TRAPEZOIDAL  10.00      10.00      2          2          1
244              TRAPEZOIDAL  10.00      10.00      2          2          1
250              TRAPEZOIDAL  10.00      10.00      2          2          1
251              TRAPEZOIDAL  10.00      10.00      2          2          1
252              TRAPEZOIDAL  10.00      10.00      2          2          1
258              TRAPEZOIDAL  10.00      10.00      2          2          1
259              TRAPEZOIDAL  10.00      10.00      2          2          1
260              TRAPEZOIDAL  10.00      10.00      2          2          1
266              TRAPEZOIDAL  10.00      10.00      2          2          1
267              TRAPEZOIDAL  10.00      10.00      2          2          1
268              TRAPEZOIDAL  10.00      10.00      2          2          1
274              TRAPEZOIDAL  10.00      10.00      2          2          1
275              TRAPEZOIDAL  10.00      10.00      2          2          1
276              TRAPEZOIDAL  10.00      10.00      2          2          1
282              TRAPEZOIDAL  10.00      10.00      2          2          1
283              TRAPEZOIDAL  10.00      10.00      2          2          1
284              TRAPEZOIDAL  10.00      10.00      2          2          1
290              TRAPEZOIDAL  10.00      10.00      2          2          1
291              TRAPEZOIDAL  10.00      10.00      2          2          1
292              TRAPEZOIDAL  10.00      10.00      2          2          1
298              TRAPEZOIDAL  10.00      10.00      2          2          1
299              TRAPEZOIDAL  10.00      10.00      2          2          1
300              TRAPEZOIDAL  10.00      10.00      2          2          1
306              TRAPEZOIDAL  10.00      10.00      2          2          1
307              TRAPEZOIDAL  10.00      10.00      2          2          1
308              TRAPEZOIDAL  10.00      10.00      2          2          1
322              TRAPEZOIDAL  10.00      10.00      2          2          1
323              TRAPEZOIDAL  10.00      10.00      2          2          1
324              TRAPEZOIDAL  10.00      10.00      2          2          1
274_2            CIRCULAR     1.00       0          0          0          1
266_2            CIRCULAR     1.00       0          0          0          1
258_2            CIRCULAR     1.00       0          0          0          1
250_2            CIRCULAR     1.00       0          0          0          1
242_2            CIRCULAR     1.00       0          0          0          1
322_2            CIRCULAR     1.00       0          0          0          1
306_2            CIRCULAR     1.00       0          0          0          1
298_2            CIRCULAR     1.00       0          0          0          1
290_2            CIRCULAR     1.00       0          0          0          1
282_2            CIRCULAR     1.00       0          0          0          1

[LOSSES]
;;Link           Inlet      Outlet     Average    Flap Gate
;;-------------- ---------- ---------- ---------- ----------
226              0          0          0          NO
227              0          0          0          NO
229              0          0          0          NO
233              0          0          0          NO
234              0          0          0          NO
236              0          0          0          NO
233_2            0          0          0          NO
242              0          0          0          NO
243              0          0          0          NO
244              0          0          0          NO
250              0          0          0          NO
251              0          0          0          NO
252              0          0          0          NO
258              0          0          0          NO
259              0          0          0          NO
260              0          0          0          NO
266              0          0          0          NO
267              0          0          0          NO
268              0          0          0          NO
274              0          0          0          NO
275              0          0          0          NO
276              0          0          0          NO
282              0          0          0          NO
283              0          0          0          NO
284              0          0          0          NO
290              0          0          0          NO
291              0          0          0          NO
292              0          0          0          NO
298              0          0          0          NO
299              0          0          0          NO
300              0          0          0          NO
306              0          0          0          NO
307              0          0          0          NO
308              0          0          0          NO
322              0          0          0          NO
323              0          0          0          NO
324              0          0          0          NO
274_2            0          0          0          NO
266_2            0          0          0          NO
258_2            0          0          0          NO
250_2            0          0          0          NO
242_2            0          0          0          NO
322_2            0          0          0          NO
306_2            0          0          0          NO
298_2            0          0          0          NO
290_2            0          0          0          NO
282_2            0          0          0          NO

[INFLOWS]
;;Node           Constituent  Time Series      Type     Mfactor  Sfactor  Baseline Pattern
;;-------------- ------------ ---------------- -------- -------- -------- -------- --------
;; SYNTHETIC TEST INFLOWS — the source .xp carried no constant inflows
;; and RUNF hydrology is not converted; 0.03 CMS is applied at each
;; headwater node so the network runs wet for QA. Replace with real
;; hydrology or inflow hydrographs before using results.
100              FLOW         ""               FLOW     1.0      1.0      0.03
HW_233_2         FLOW         ""               FLOW     1.0      1.0      0.03
HW_274_2         FLOW         ""               FLOW     1.0      1.0      0.03
HW_266_2         FLOW         ""               FLOW     1.0      1.0      0.03
HW_258_2         FLOW         ""               FLOW     1.0      1.0      0.03
HW_250_2         FLOW         ""               FLOW     1.0      1.0      0.03
HW_242_2         FLOW         ""               FLOW     1.0      1.0      0.03
HW_322_2         FLOW         ""               FLOW     1.0      1.0      0.03
HW_306_2         FLOW         ""               FLOW     1.0      1.0      0.03
HW_298_2         FLOW         ""               FLOW     1.0      1.0      0.03
HW_290_2         FLOW         ""               FLOW     1.0      1.0      0.03
HW_282_2         FLOW         ""               FLOW     1.0      1.0      0.03

[COORDINATES]
;;Node           X-Coord            Y-Coord
;;-------------- ------------------ ------------------
100              37.64              -2.36             
101              57.64              17.64             
102              77.64              37.64             
103              97.64              57.64             
200              37.64              -22.36            
201              57.64              -2.36             
202              77.64              17.64             
203              97.64              37.64             
300              37.64              -42.36            
301              57.64              -22.36            
302              77.64              -2.36             
303              97.64              17.64             
400              37.64              -62.36            
401              57.64              -42.36            
402              77.64              -22.36            
403              97.64              -2.36             
500              37.64              -82.36            
501              57.64              -62.36            
502              77.64              -42.36            
503              97.64              -22.36            
600              37.64              -102.36           
601              57.64              -82.36            
602              77.64              -62.36            
603              97.64              -42.36            
700              37.64              -122.36           
701              57.64              -102.36           
702              77.64              -82.36            
703              97.64              -62.36            
800              37.64              -142.36           
801              57.64              -122.36           
802              77.64              -102.36           
803              97.64              -82.36            
900              37.64              -162.36           
901              57.64              -142.36           
902              77.64              -122.36           
903              97.64              -102.36           
1000             37.64              -182.36           
1001             57.64              -162.36           
1002             77.64              -142.36           
1003             97.64              -122.36           
1100             37.64              -202.36           
1101             57.64              -182.36           
1102             77.64              -162.36           
1103             97.64              -142.36           
1200             37.64              -222.36           
1201             57.64              -202.36           
1202             77.64              -182.36           
1203             97.64              -162.36           

[MAP]
DIMENSIONS 37.64 -222.36 97.64 57.64
Units      None

[REPORT]
SUBCATCHMENTS ALL
NODES ALL
LINKS ALL
