;; SWMM5 .inp converted from XPSWMM .xp file
;; Generated by XPSWMM Card Reader
;; Source format: XP_CARD | Original title: Welland Sewers

[TITLE]
;;Project Title/Notes
Welland Sewers

[OPTIONS]
FLOW_UNITS           CMS
INFILTRATION         HORTON
FLOW_ROUTING         DYNWAVE
LINK_OFFSETS         DEPTH
MIN_SLOPE            0.0
ALLOW_PONDING        NO
SKIP_STEADY_STATE    NO
ROUTING_STEP         00:05:00
VARIABLE_STEP        0.75
INERTIAL_DAMPING     PARTIAL
NORMAL_FLOW_LIMITED  BOTH
START_DATE           01/01/2001
START_TIME           00:00:00
REPORT_START_DATE    01/01/2001
REPORT_START_TIME    00:00:00
END_DATE             01/02/2001
END_TIME             00:00:00
SWEEP_START          01/01
SWEEP_END            12/31
DRY_DAYS             0
REPORT_STEP          00:15:00
WET_STEP             00:05:00
DRY_STEP             01:00:00

[JUNCTIONS]
;;Name           Elev       MaxDepth   InitDepth  SurDepth   Aponded
;;-------------- ---------- ---------- ---------- ---------- ----------
H6-146           177.00     0          0          0          0
Ontario          175.00     0          0          0          0
F7-12            181.70     0          0          0          0
River            180.00     0          0          0          0
H6-65            179.00     0          0          0          0
H6-100           177.47     0          0          0          0
H6-35            179.56     0          0          0          0
H6-41            178.74     0          0          0          0
WPCP             175.00     0          0          0          0
H5-130           178.22     0          0          0          0
H5-34            178.20     0          0          0          0
Dain             177.44     0          0          0          0
H5-128           178.80     0          0          0          0
H5-38            178.29     0          0          0          0
H6-22            177.82     0          0          0          0
East             173.75     0          0          0          0
F7-62            182.08     0          0          0          0
82               173.50     0          0          0          0
F7-397           181.70     0          0          0          0
F7-7             181.40     0          0          0          0
F7-16            181.96     0          0          0          0
F7-28            182.08     0          0          0          0
F7-43            182.23     0          0          0          0
F7-49            181.73     0          0          0          0
E7-124           182.50     0          0          0          0
Drop             180.00     0          0          0          0
132              0          0          0          0          0

[OUTFALLS]
;;Name           Elev       Type       Stage      Gated
;;-------------- ---------- ---------- ---------- -----
Outfall          180.00     FREE                  NO

[STORAGE]
;;Name           Elev       MaxDepth   InitDepth  Shape      Curve/Params
;;-------------- ---------- ---------- ---------- ---------- ----------
Pond             177.29     10.00      0.45       FUNCTIONAL 1000.00 0          0

[CONDUITS]
;;Name           From             To               Length     Roughness  InOffset   OutOffset  InitFlow   MaxFlow
;;-------------- ---------------- ---------------- ---------- ---------- ---------- ---------- ---------- ----------
211              H6-100           Pond             191.60     0.0130     172.40     172.38     0          0
238              Pond             H6-146           50.00      0.0130     172.06     171.62     0          0
210              H6-65            H6-35            166.20     0.0130     175.19     174.66     0          0
217              H6-35            H6-100           735.00     0.0130     174.69     171.84     0          0
202              H6-146           H6-41            1013.90    0.0130     171.15     168.86     0          0
220              H6-41            82               395.90     0.0130     168.86     168.55     0          0
208              River            Outfall          103.10     0.0130     172.00     171.92     0          0
330              Drop             WPCP             128.90     0.0130     161.32     161.06     0          0
268              H5-128           H5-34            195.40     0.0130     173.35     173.00     0          0
240              H5-34            H5-38            95.30      0.0130     173.07     172.68     0          0
252              Dain             H5-34            717.00     0.0130     174.92     173.26     0          0
239              H5-130           H5-128           147.50     0.0130     173.75     173.35     0          0
270              H5-38            H6-22            207.00     0.0130     172.58     171.95     0          0
271              H6-22            H6-146           349.50     0.0130     171.95     171.15     0          0
276              East             82               10.00      0.0130     168.75     168.55     0          0
282              82               Ontario          1.00       0.0130     168.55     168.50     0          0
206              F7-12            F7-397           19.00      0.0130     177.80     177.75     0          0
288              F7-397           F7-7             99.70      0.0130     177.70     177.50     0          0
290              F7-7             F7-16            112.20     0.0130     177.22     176.96     0          0
300              F7-43            F7-49            131.60     0.0130     175.68     175.38     0          0
292              F7-16            F7-28            216.10     0.0130     176.96     176.58     0          0
296              F7-28            F7-43            204.50     0.0130     176.58     175.83     0          0
302              F7-49            F7-62            267.10     0.0130     175.33     174.91     0          0
278              F7-62            E7-124           1413.70    0.0130     174.16     172.50     0          0
317              E7-124           River            707.30     0.0130     172.50     171.95     0          0
204              Ontario          F7-12            300.00     0.0130     179.00     178.00     0          0
217_2            H6-35            H6-41            170.00     0.0130     174.10     172.82     0          0
208_2            River            Drop             19.82      0.0130     171.61     171.56     0          0
238_2            Pond             132              50.00      0.0130     175.53     175.21     0          0

[XSECTIONS]
;;Link           Shape        Geom1      Geom2      Geom3      Geom4      Barrels
;;-------------- ------------ ---------- ---------- ---------- ---------- ----------
211              CIRCULAR     1.80       0          0          0          1
238              CIRCULAR     0.30       0          0          0          1
210              CIRCULAR     2.10       0          0          0          1
217              CIRCULAR     1.80       0          0          0          1
202              CIRCULAR     0.90       0          0          0          1
220              CIRCULAR     0.90       0          0          0          1
208              CIRCULAR     2.40       0          0          0          1
330              CIRCULAR     1.80       0          0          0          1
268              CIRCULAR     0.40       0          0          0          1
240              CIRCULAR     0.60       0          0          0          1
252              CIRCULAR     0.45       0          0          0          1
239              CIRCULAR     0.38       0          0          0          1
270              CIRCULAR     0.60       0          0          0          1
271              CIRCULAR     0.75       0          0          0          1
276              CIRCULAR     0.90       0          0          0          1
282              CIRCULAR     0.90       0          0          0          1
206              CIRCULAR     0.60       0          0          0          1
288              CIRCULAR     0.75       0          0          0          1
290              CIRCULAR     0.82       0          0          0          1
300              CIRCULAR     1.35       0          0          0          1
292              CIRCULAR     1.05       0          0          0          1
296              CIRCULAR     1.20       0          0          0          1
302              CIRCULAR     1.50       0          0          0          1
278              CIRCULAR     2.40       0          0          0          1
317              CIRCULAR     2.40       0          0          0          1
204              CIRCULAR     0.35       0          0          0          1
217_2            CIRCULAR     0.40       0          0          0          1
208_2            CIRCULAR     1.05       0          0          0          1
238_2            CIRCULAR     1.05       0          0          0          1

[LOSSES]
;;Link           Inlet      Outlet     Average    Flap Gate
;;-------------- ---------- ---------- ---------- ----------
211              0          0          0          NO
238              0          0          0          NO
210              0          0          0          NO
217              0          0          0          NO
202              0          0          0          NO
220              0          0          0          NO
208              0          0          0          NO
330              0          0          0          NO
268              0          0          0          NO
240              0          0          0          NO
252              0          0          0          NO
239              0          0          0          NO
270              0          0          0          NO
271              0          0          0          NO
276              0          0          0          NO
282              0          0          0          NO
206              0          0          0          NO
288              0          0          0          NO
290              0          0          0          NO
300              0          0          0          NO
292              0          0          0          NO
296              0          0          0          NO
302              0          0          0          NO
278              0          0          0          NO
317              0          0          0          NO
204              0          0          0          NO
217_2            0          0          0          NO
208_2            0          0          0          NO
238_2            0          0          0          NO

[COORDINATES]
;;Node           X-Coord            Y-Coord
;;-------------- ------------------ ------------------
H6-146           81.94              111.07            
Ontario          62.16              224.17            
F7-12            38.54              222.82            
River            -45.00             93.83             
H6-65            40.32              115.12            
H6-100           110.19             168.71            
H6-35            50.46              156.95            
H6-41            84.59              183.90            
Outfall          -51.90             -18.26            
WPCP             -95.62             79.41             
Pond             122.95             166.03            
H5-130           34.64              -37.80            
H5-34            93.04              19.63             
Dain             121.65             -22.03            
H5-128           70.19              -12.11            
H5-38            90.92              52.32             
H6-22            91.27              83.44             
East             119.95             252.97            
F7-62            -101.03            224.35            
82               81.74              224.71            
F7-397           17.26              225.29            
F7-7             -1.76              226.73            
F7-16            -19.91             226.01            
F7-28            -38.07             225.29            
F7-43            -60.55             225.29            
F7-49            -79.57             225.29            
E7-124           -100.37            148.53            
Drop             -76.26             40.89             
132              139.11             102.24            

[MAP]
DIMENSIONS -101.03 -37.80 139.11 252.97
Units      None

[REPORT]
SUBCATCHMENTS ALL
NODES ALL
LINKS ALL
