;; SWMM5 .inp converted from XPSWMM .xp file
;; Generated by XPSWMM Card Reader
;; Source format: XP_CARD | Original title: (none)
;; Links parsed from source: 7 | Routable in this .inp: 7

[TITLE]
;;Project Title/Notes
Converted from XPSWMM .xp file

[OPTIONS]
FLOW_UNITS           CFS
INFILTRATION         HORTON
FLOW_ROUTING         DYNWAVE
LINK_OFFSETS         DEPTH
MIN_SLOPE            0.0
ALLOW_PONDING        NO
SKIP_STEADY_STATE    NO
ROUTING_STEP         00:00:15
VARIABLE_STEP        0.75
INERTIAL_DAMPING     PARTIAL
NORMAL_FLOW_LIMITED  BOTH
MAX_TRIALS           50
HEAD_TOLERANCE       0.0033
START_DATE           01/01/2001
START_TIME           00:00:00
REPORT_START_DATE    01/01/2001
REPORT_START_TIME    00:00:00
END_DATE             01/02/2001
END_TIME             00:00:00
SWEEP_START          01/01
SWEEP_END            12/31
DRY_DAYS             0
REPORT_STEP          00:15:00
WET_STEP             00:05:00
DRY_STEP             01:00:00

[JUNCTIONS]
;;Name           Elev       MaxDepth   InitDepth  SurDepth   Aponded
;;-------------- ---------- ---------- ---------- ---------- ----------
n1               0          0          0          0          0
n2               15.00      0          0          0          0
n3               15.00      0          0          0          0
n4               12.00      0          0          0          0
n5               12.00      0          0          0          0
n6               12.00      0          0          0          0
n7               11.00      0          0          0          0

[OUTFALLS]
;;Name           Elev       Type       Stage      Gated
;;-------------- ---------- ---------- ---------- -----
17               15.00      FREE                  NO

[CONDUITS]
;;Name           From             To               Length     Roughness  InOffset   OutOffset  InitFlow   MaxFlow
;;-------------- ---------------- ---------------- ---------- ---------- ---------- ---------- ---------- ----------
c1               n2               n3               1000.00    0.0130     0          0          0          0
c2               n3               n4               1000.00    0.0130     0          0          0          0
c3               n5               n6               700.00     0.0130     0          0          0          0
c4               n6               n7               1200.00    0.0130     0          0          0          0
culvert2         n1               n2               30.00      0.0130     0          0          0          0
Culvert1         n4               n5               40.00      0.0130     0          0          0          0
18               n7               17               33.00      0.0140     2.00       1.99       0          0

[XSECTIONS]
;;Link           Shape        Geom1      Geom2      Geom3      Geom4      Barrels
;;-------------- ------------ ---------- ---------- ---------- ---------- ----------
c1               TRAPEZOIDAL  1.00       10.00      2          2          1
c2               TRAPEZOIDAL  1.00       10.00      2          2          1
c3               TRAPEZOIDAL  1.00       10.00      2          2          1
c4               TRAPEZOIDAL  1.00       10.00      2          2          1
culvert2         CIRCULAR     4.00       0          0          0          1
Culvert1         CIRCULAR     4.80       6.00       0          0          1
18               CIRCULAR     3.00       0          0          0          1

[LOSSES]
;;Link           Inlet      Outlet     Average    Flap Gate
;;-------------- ---------- ---------- ---------- ----------
c1               0          0          0          NO
c2               0          0          0          NO
c3               0          0          0          NO
c4               0          0          0          NO
culvert2         0          0          0          NO
Culvert1         0          0          0          NO
18               0          0          0          NO

[INFLOWS]
;;Node           Constituent  Time Series      Type     Mfactor  Sfactor  Baseline Pattern
;;-------------- ------------ ---------------- -------- -------- -------- -------- --------
;; SYNTHETIC TEST INFLOWS — the source .xp carried no constant inflows
;; and RUNF hydrology is not converted; 1.00 CFS is applied at each
;; headwater node so the network runs wet for QA. Replace with real
;; hydrology or inflow hydrographs before using results.
n1               FLOW         ""               FLOW     1.0      1.0      1.00

[COORDINATES]
;;Node           X-Coord            Y-Coord
;;-------------- ------------------ ------------------
n1               25.75              113.49            
n2               54.09              62.54             
n3               89.66              69.33             
n4               76.88              112.82            
n5               105.92             145.31            
n6               112.92             104.23            
n7               145.82             94.25             
17               144.22             56.79             

[MAP]
DIMENSIONS 25.75 56.79 145.82 145.31
Units      None

[REPORT]
SUBCATCHMENTS ALL
NODES ALL
LINKS ALL
