;; SWMM5 .inp converted from XPSWMM .xp file
;; Generated by XPSWMM Card Reader
;; Source format: XP_CARD | Original title: TEXACO SOUTH CATCH BASIN - EXTRAN MODEL
;; Links parsed from source: 152 | Routable in this .inp: 152

[TITLE]
;;Project Title/Notes
TEXACO SOUTH CATCH BASIN - EXTRAN MODEL

[OPTIONS]
FLOW_UNITS           CFS
INFILTRATION         HORTON
FLOW_ROUTING         DYNWAVE
LINK_OFFSETS         DEPTH
MIN_SLOPE            0.0
ALLOW_PONDING        NO
SKIP_STEADY_STATE    NO
ROUTING_STEP         00:00:10
VARIABLE_STEP        0.75
INERTIAL_DAMPING     PARTIAL
NORMAL_FLOW_LIMITED  BOTH
MAX_TRIALS           50
HEAD_TOLERANCE       0.0033
START_DATE           01/01/2001
START_TIME           00:00:00
REPORT_START_DATE    01/01/2001
REPORT_START_TIME    00:00:00
END_DATE             01/02/2001
END_TIME             00:00:00
SWEEP_START          01/01
SWEEP_END            12/31
DRY_DAYS             0
REPORT_STEP          00:15:00
WET_STEP             00:05:00
DRY_STEP             01:00:00

[JUNCTIONS]
;;Name           Elev       MaxDepth   InitDepth  SurDepth   Aponded
;;-------------- ---------- ---------- ---------- ---------- ----------
1000             93.00      0          0          0          0
1001             94.50      0          0          0          0
1002             94.71      0          0          0          0
1003             94.62      0          0          0          0
1004             94.82      0          0          0          0
1005             95.23      0          0          0          0
1006             96.00      0          0          0          0
1007             94.89      0          0          0          0
1008             94.46      0          0          0          0
1009             98.17      0          0          0          0
1010             96.96      0          0          0          0
1011             97.48      0          0          0          0
1012             96.57      0          0          0          0
1013             96.65      0          0          0          0
1014             94.46      0          0          0          0
1015             94.66      0          0          0          0
1016             94.82      0          0          0          0
1017             95.13      0          0          0          0
1018             95.12      0          0          0          0
SEPR3            95.10      0          0          0          0
1                93.16      0          0          0          0
5                95.43      0          0          0          0
8                99.74      0          0          0          0
9                99.77      0          0          0          0
10               99.92      0          0          0          0
11               99.97      0          0          0          0
12               95.53      0          0          0          0
13               95.66      0          0          0          0
14               95.66      0          0          0          0
100              111.84     0          0          0          0
101              111.08     0          0          0          0
101A             109.80     0          0          0          0
102              110.61     0          0          0          0
103              109.76     0          0          0          0
104              110.37     0          0          0          0
105              110.91     0          0          0          0
106              111.83     0          0          0          0
107              111.08     0          0          0          0
110              111.10     0          0          0          0
111              112.99     0          0          0          0
112              111.53     0          0          0          0
113              111.76     0          0          0          0
114              111.61     0          0          0          0
115              111.94     0          0          0          0
117              112.32     0          0          0          0
118              111.88     0          0          0          0
119              112.20     0          0          0          0
120              111.71     0          0          0          0
121              111.24     0          0          0          0
122              111.43     0          0          0          0
123              111.58     0          0          0          0
124              111.55     0          0          0          0
125              111.50     0          0          0          0
126              111.59     0          0          0          0
128              111.97     0          0          0          0
129              115.59     0          0          0          0
200              95.79      0          0          0          0
201              95.28      0          0          0          0
203              94.89      0          0          0          0
204              94.83      0          0          0          0
205              94.76      0          0          0          0
206              95.01      0          0          0          0
207              93.87      0          0          0          0
208              94.10      0          0          0          0
209              94.56      0          0          0          0
210A             95.38      0          0          0          0
210              94.93      0          0          0          0
211              95.77      0          0          0          0
212              95.87      0          0          0          0
213              95.99      0          0          0          0
214              95.07      0          0          0          0
215              95.26      0          0          0          0
216              95.98      0          0          0          0
217              96.07      0          0          0          0
218              94.98      0          0          0          0
219              94.36      0          0          0          0
220              95.80      0          0          0          0
221              95.53      0          0          0          0
222              96.90      0          0          0          0
223              96.60      0          0          0          0
224              96.91      0          0          0          0
225              96.13      0          0          0          0
227              95.08      0          0          0          0
228              95.18      0          0          0          0
229              95.85      0          0          0          0
230              95.06      0          0          0          0
233              94.74      0          0          0          0
234              94.77      0          0          0          0
236              94.77      0          0          0          0
238              94.83      0          0          0          0
240              94.32      0          0          0          0
241              95.40      0          0          0          0
242              94.85      0          0          0          0
245              94.52      0          0          0          0
246              94.35      0          0          0          0
247              95.41      0          0          0          0
248              94.72      0          0          0          0
249              95.62      0          0          0          0
251              96.27      0          0          0          0
252              94.12      0          0          0          0
253              94.67      0          0          0          0
256              94.96      0          0          0          0
257              95.55      0          0          0          0
258              95.41      0          0          0          0
259              95.34      0          0          0          0
1100             95.62      0          0          0          0
1101             94.07      0          0          0          0
1102             94.86      0          0          0          0
1103             94.09      0          0          0          0
1200             95.35      0          0          0          0
1201             95.34      0          0          0          0
1202             95.34      0          0          0          0
1203             95.31      0          0          0          0
1204             95.48      0          0          0          0
1205             95.32      0          0          0          0
1206             95.74      0          0          0          0
1207             95.71      0          0          0          0
1208             96.21      0          0          0          0
1209             96.05      0          0          0          0
1210             96.36      0          0          0          0
1211             96.23      0          0          0          0
1212             96.44      0          0          0          0
1213             96.44      0          0          0          0
1214             98.08      0          0          0          0
1300             95.20      0          0          0          0
1301             94.47      0          0          0          0
1302             95.32      0          0          0          0
1303             94.47      0          0          0          0
1304             94.59      0          0          0          0
1400             94.98      0          0          0          0
1402             94.63      0          0          0          0
1403             94.67      0          0          0          0
1404             96.09      0          0          0          0
1405             95.90      0          0          0          0
1406             95.85      0          0          0          0
1407             95.68      0          0          0          0
1408             95.06      0          0          0          0
1409             97.04      0          0          0          0
1410             97.00      0          0          0          0
1411             97.23      0          0          0          0
1412             97.21      0          0          0          0
1413             97.03      0          0          0          0
1415A            96.11      0          0          0          0
1415B            96.52      0          0          0          0
1416             95.62      0          0          0          0
1418             96.16      0          0          0          0
1403A            94.67      0          0          0          0
516              95.50      0          0          0          0
HW_221_2         84.00      0          0          0          0

[OUTFALLS]
;;Name           Elev       Type       Stage      Gated
;;-------------- ---------- ---------- ---------- -----
202              95.17      FREE                  NO

[CONDUITS]
;;Name           From             To               Length     Roughness  InOffset   OutOffset  InitFlow   MaxFlow
;;-------------- ---------------- ---------------- ---------- ---------- ---------- ---------- ---------- ----------
222              1                SEPR3            34.00      0.0150     86.41      84.00      0          0
223              5                1                700.00     0.0150     92.33      86.41      0          0
224              8                5                69.00      0.0150     96.97      92.33      0          0
225              9                8                42.00      0.0130     96.17      96.97      0          0
226              10               9                177.00     0.0130     96.82      96.17      0          0
227              11               10               106.00     0.0130     96.82      96.82      0          0
228              12               5                68.00      0.0150     92.25      92.50      0          0
229              13               12               261.00     0.0150     93.13      92.33      0          0
230              14               13               14.00      0.0150     94.00      93.86      0          0
311              119              14               190.00     0.0150     92.52      94.00      0          0
312              119              249              166.00     0.0150     93.27      92.50      0          0
231              100              14               44.00      0.0150     100.29     94.00      0          0
232              101              100              76.00      0.0150     106.58     100.29     0          0
233              101A             101              37.00      0.0130     108.55     108.23     0          0
234              102              101              211.00     0.0150     107.26     106.58     0          0
236              104              102              163.00     0.0150     107.70     107.36     0          0
235              103              104              32.00      0.0130     108.56     108.29     0          0
237              105              104              50.00      0.0150     108.66     106.87     0          0
238              106              105              69.00      0.0150     105.93     107.91     0          0
239              107              106              105.00     0.0150     108.22     105.11     0          0
241              110              107              62.00      0.0150     108.52     108.28     0          0
260              200              1                114.00     0.0150     89.67      86.41      0          0
261              201              200              136.00     0.0150     88.25      89.67      0          0
262              1000             201              56.00      0.0150     88.58      88.25      0          0
263              1000             202              69.00      0.0150     88.89      88.58      0          0
264              1001             203              91.00      0.0150     88.61      88.61      0          0
265              1002             204              156.00     0.0150     89.46      88.61      0          0
266              1003             205              32.00      0.0150     90.00      89.46      0          0
267              1004             206              297.00     0.0150     90.27      90.00      0          0
268              1005             207              44.00      0.0150     87.54      90.27      0          0
269              1006             208              217.00     0.0150     90.01      87.54      0          0
270              1007             209              222.00     0.0150     90.38      90.01      0          0
271              1008             210A             44.00      0.0150     90.53      90.38      0          0
272              1008             210              39.00      0.0150     90.96      90.53      0          0
273              1009             211              138.00     0.0150     91.87      90.96      0          0
274              1010             212              113.00     0.0150     92.04      92.09      0          0
275              1011             213              54.00      0.0150     92.22      92.09      0          0
276              1012             214              289.00     0.0150     91.61      91.22      0          0
221              SEPR3            1000             64.00      0.0150     86.00      87.20      0          0
203              1001             1000             72.00      0.0150     88.50      87.78      0          0
204              1002             1001             32.00      0.0150     89.00      88.50      0          0
205              1003             1002             41.00      0.0150     89.75      89.00      0          0
206              1004             1002             79.00      0.0150     90.24      89.00      0          0
318              129              1004             228.00     0.0150     88.56      90.24      0          0
317              129              259              140.00     0.0150     89.00      88.75      0          0
316              128              258              150.00     0.0150     89.35      88.95      0          0
207              1005             1000             205.00     0.0150     88.50      87.50      0          0
313              122              1005             89.00      0.0150     88.00      88.50      0          0
314              122              252              72.00      0.0150     91.17      88.50      0          0
315              123              253              272.00     0.0150     90.41      91.17      0          0
308              126              256              155.00     0.0150     89.35      90.24      0          0
230_2            115              246              163.00     0.0150     94.00      89.35      0          0
309              126              256              170.00     0.0150     91.01      90.24      0          0
307              117              247              86.00      0.0150     91.52      91.01      0          0
310              114              245              95.00      0.0150     91.46      91.52      0          0
302              117              247              233.00     0.0150     90.25      91.01      0          0
300              106              240              77.00      0.0150     90.33      91.37      0          0
298              106              238              68.00      0.0150     92.02      91.47      0          0
296              104              236              27.00      0.0150     90.55      91.78      0          0
309_2            117              1013             18.00      0.0150     91.01      90.65      0          0
209              1007             1005             234.00     0.0150     88.59      88.50      0          0
211              1009             1007             66.00      0.0150     89.37      89.19      0          0
212              1010             1009             124.00     0.0150     89.96      89.52      0          0
213              1011             1010             84.00      0.0150     90.43      89.96      0          0
214              1012             1011             98.00      0.0150     90.57      90.43      0          0
215              1013             1012             63.00      0.0150     90.65      90.57      0          0
208              1006             1005             18.00      0.0150     88.65      88.50      0          0
321              1101             1006             28.00      0.0150     87.37      88.65      0          0
320              1100             1101             329.00     0.0150     92.61      87.37      0          0
322              1102             1101             205.00     0.0150     92.01      87.37      0          0
217              1015             1011             244.00     0.0150     90.86      90.23      0          0
218              1016             1015             40.00      0.0150     91.02      90.81      0          0
343              1304             1016             302.00     0.0150     92.06      91.02      0          0
340              1301             1304             67.00      0.0150     91.72      92.09      0          0
342              1303             1301             50.00      0.0150     91.67      91.97      0          0
341              1302             1301             15.00      0.0150     92.07      92.07      0          0
339              1300             1301             63.00      0.0150     92.20      91.67      0          0
210              1008             1007             135.00     0.0150     89.50      90.49      0          0
324              1200             1008             259.00     0.0150     88.95      89.50      0          0
326              1202             1200             246.00     0.0150     88.59      88.75      0          0
325              1201             1202             17.00      0.0150     89.04      89.04      0          0
327              1203             1201             125.00     0.0150     89.25      89.09      0          0
328              1204             1203             308.00     0.0150     90.22      89.25      0          0
329              1205             1204             54.00      0.0150     90.04      90.04      0          0
330              1206             1205             170.00     0.0150     90.56      90.52      0          0
331              1207             1206             15.00      0.0150     92.11      91.94      0          0
332              1208             1206             168.00     0.0150     90.51      90.54      0          0
333              1209             1208             19.00      0.0150     92.15      92.01      0          0
334              1210             1208             148.00     0.0150     90.66      90.46      0          0
335              1211             1210             19.00      0.0150     92.13      91.66      0          0
336              1212             1210             120.00     0.0150     90.24      90.61      0          0
337              1213             1212             27.00      0.0150     90.29      90.29      0          0
338              1214             1213             46.00      0.0150     90.29      90.29      0          0
355              1410             1214             52.00      0.0150     90.29      90.29      0          0
354              1409             1410             243.00     0.0150     90.26      90.29      0          0
356              1411             1410             75.00      0.0150     91.90      91.50      0          0
357              1412             1411             104.00     0.0150     94.00      93.36      0          0
358              1413             1412             61.00      0.0150     94.00      94.25      0          0
323              1103             1008             42.00      0.0150     91.38      89.50      0          0
216              1014             1008             193.00     0.0150     89.00      89.50      0          0
219              1017             1014             118.00     0.0150     91.63      90.31      0          0
220              1018             1017             54.00      0.0150     91.17      87.73      0          0
304              111              1018             73.00      0.0130     93.07      92.62      0          0
303              110              1018             66.00      0.0150     92.00      91.17      0          0
251              121              1009             954.00     0.0150     99.14      89.39      0          0
250              120              121              55.00      0.0150     103.06     102.74     0          0
243              112              120              187.00     0.0150     103.50     104.10     0          0
242              111              112              46.00      0.0150     107.99     104.08     0          0
241_2            110              111              20.00      0.0150     107.93     108.09     0          0
244              113              112              44.00      0.0150     104.36     104.11     0          0
245              114              113              145.00     0.0150     105.98     104.88     0          0
246              115              114              35.00      0.0150     107.68     106.26     0          0
247              117              114              204.00     0.0150     106.38     106.94     0          0
248              118              117              34.00      0.0150     108.23     106.68     0          0
252              122              120              11.00      0.0150     106.88     104.01     0          0
253              123              122              62.00      0.0150     106.75     106.49     0          0
254              124              123              50.00      0.0150     107.30     106.81     0          0
255              125              124              58.00      0.0150     108.30     108.35     0          0
256              126              125              69.00      0.0150     109.17     109.17     0          0
258              128              121              499.00     0.0150     106.32     102.69     0          0
249              119              128              394.00     0.0150     110.20     107.17     0          0
353              1408             1409             103.00     0.0150     90.23      90.21      0          0
352              1407             1408             74.00      0.0150     91.18      90.51      0          0
351              1406             1407             56.00      0.0150     90.50      91.05      0          0
363              1418             1406             83.00      0.0150     90.53      90.50      0          0
350              1405             1406             85.00      0.0150     91.32      90.50      0          0
349              1404             1405             100.00     0.0150     90.79      90.87      0          0
348              1403             1404             54.00      0.0150     87.24      90.99      0          0
347              1402             1403             87.00      0.0150     90.53      87.53      0          0
345              1400             1402             212.00     0.0150     92.19      90.43      0          0
360              1415B            1404             199.00     0.0150     91.32      90.64      0          0
359              1415A            1415B            7.00       0.0150     90.91      91.07      0          0
288              11               1415A            154.00     0.0150     91.87      91.07      0          0
289              11               227              66.00      0.0150     91.76      91.32      0          0
291              11               227              214.00     0.0150     91.66      91.87      0          0
295              14               230              64.00      0.0150     92.87      89.88      0          0
283              1                1415A            31.00      0.0150     91.00      91.61      0          0
282              1                222              100.00     0.0150     91.90      91.00      0          0
281              SEPR3            221              35.00      0.0150     91.18      90.88      0          0
280              1018             220              60.00      0.0150     91.93      91.18      0          0
279              1017             219              66.00      0.0150     90.53      91.84      0          0
290              1016             218              36.00      0.0150     92.53      92.48      0          0
277              1016             218              131.00     0.0150     92.28      92.42      0          0
259              1014             216              213.00     0.0150     108.31     92.28      0          0
278              1014             216              78.00      0.0150     91.18      92.38      0          0
284              1                222              100.00     0.0150     91.70      91.72      0          0
285              5                223              102.00     0.0150     93.00      94.54      0          0
286              8                224              69.00      0.0150     93.70      93.00      0          0
361              5                223              30.00      0.0150     94.42      91.65      0          0
513              1403A            1010             589.00     0.0150     92.00      89.86      0          0
513_2            1403A            1403             525.00     0.0150     92.00      87.96      0          0
221_2            HW_221_2         SEPR3            10.00      0.0150     84.00      83.90      0          0

[XSECTIONS]
;;Link           Shape        Geom1      Geom2      Geom3      Geom4      Barrels
;;-------------- ------------ ---------- ---------- ---------- ---------- ----------
222              CIRCULAR     2.00       0          0          0          1
223              CIRCULAR     2.00       0          0          0          1
224              CIRCULAR     0.67       0          0          0          1
225              CIRCULAR     0.50       0          0          0          1
226              CIRCULAR     0.50       0          0          0          1
227              CIRCULAR     0.50       0          0          0          1
228              CIRCULAR     2.00       0          0          0          1
229              CIRCULAR     2.00       0          0          0          1
230              CIRCULAR     1.00       0          0          0          1
311              CIRCULAR     1.00       0          0          0          1
312              CIRCULAR     0.83       0          0          0          1
231              CIRCULAR     1.00       0          0          0          1
232              CIRCULAR     2.00       0          0          0          1
233              CIRCULAR     0.33       0          0          0          1
234              CIRCULAR     2.00       0          0          0          1
236              CIRCULAR     2.00       0          0          0          1
235              CIRCULAR     0.83       0          0          0          1
237              CIRCULAR     2.00       0          0          0          1
238              CIRCULAR     2.00       0          0          0          1
239              CIRCULAR     2.00       0          0          0          1
241              CIRCULAR     2.00       0          0          0          1
260              CIRCULAR     2.00       0          0          0          1
261              CIRCULAR     2.00       0          0          0          1
262              CIRCULAR     2.00       0          0          0          1
263              CIRCULAR     2.00       0          0          0          1
264              CIRCULAR     2.00       0          0          0          1
265              CIRCULAR     2.00       0          0          0          1
266              CIRCULAR     2.00       0          0          0          1
267              CIRCULAR     2.00       0          0          0          1
268              CIRCULAR     2.00       0          0          0          1
269              CIRCULAR     2.00       0          0          0          1
270              CIRCULAR     2.00       0          0          0          1
271              CIRCULAR     2.00       0          0          0          1
272              CIRCULAR     2.00       0          0          0          1
273              CIRCULAR     2.00       0          0          0          1
274              CIRCULAR     1.50       0          0          0          1
275              CIRCULAR     1.50       0          0          0          1
276              CIRCULAR     1.00       0          0          0          1
221              CIRCULAR     2.50       0          0          0          1
203              CIRCULAR     1.75       0          0          0          1
204              CIRCULAR     1.75       0          0          0          1
205              CIRCULAR     1.00       0          0          0          1
206              CIRCULAR     1.75       0          0          0          1
318              CIRCULAR     1.25       0          0          0          1
317              CIRCULAR     1.00       0          0          0          1
316              CIRCULAR     1.00       0          0          0          1
207              CIRCULAR     2.00       0          0          0          1
313              CIRCULAR     1.00       0          0          0          1
314              CIRCULAR     1.00       0          0          0          1
315              CIRCULAR     1.00       0          0          0          1
308              CIRCULAR     1.00       0          0          0          1
230_2            CIRCULAR     1.00       0          0          0          1
309              CIRCULAR     1.75       0          0          0          1
307              CIRCULAR     1.75       0          0          0          1
310              CIRCULAR     1.75       0          0          0          1
302              CIRCULAR     1.25       0          0          0          1
300              CIRCULAR     1.25       0          0          0          1
298              CIRCULAR     1.25       0          0          0          1
296              CIRCULAR     1.25       0          0          0          1
309_2            CIRCULAR     2.00       0          0          0          1
209              CIRCULAR     2.00       0          0          0          1
211              CIRCULAR     2.00       0          0          0          1
212              CIRCULAR     2.00       0          0          0          1
213              CIRCULAR     2.00       0          0          0          1
214              CIRCULAR     2.00       0          0          0          1
215              CIRCULAR     2.00       0          0          0          1
208              CIRCULAR     1.00       0          0          0          1
321              CIRCULAR     1.00       0          0          0          1
320              CIRCULAR     1.00       0          0          0          1
322              CIRCULAR     1.00       0          0          0          1
217              CIRCULAR     1.00       0          0          0          1
218              CIRCULAR     1.00       0          0          0          1
343              CIRCULAR     1.00       0          0          0          1
340              CIRCULAR     1.00       0          0          0          1
342              CIRCULAR     0.83       0          0          0          1
341              CIRCULAR     0.83       0          0          0          1
339              CIRCULAR     0.83       0          0          0          1
210              CIRCULAR     2.00       0          0          0          1
324              CIRCULAR     2.00       0          0          0          1
326              CIRCULAR     2.00       0          0          0          1
325              CIRCULAR     2.00       0          0          0          1
327              CIRCULAR     2.00       0          0          0          1
328              CIRCULAR     2.00       0          0          0          1
329              CIRCULAR     2.00       0          0          0          1
330              CIRCULAR     2.00       0          0          0          1
331              CIRCULAR     1.00       0          0          0          1
332              CIRCULAR     2.00       0          0          0          1
333              CIRCULAR     1.00       0          0          0          1
334              CIRCULAR     2.00       0          0          0          1
335              CIRCULAR     1.00       0          0          0          1
336              CIRCULAR     2.00       0          0          0          1
337              CIRCULAR     2.00       0          0          0          1
338              CIRCULAR     2.00       0          0          0          1
355              CIRCULAR     2.00       0          0          0          1
354              CIRCULAR     1.50       0          0          0          1
356              CIRCULAR     1.00       0          0          0          1
357              CIRCULAR     1.00       0          0          0          1
358              CIRCULAR     0.67       0          0          0          1
323              CIRCULAR     0.33       0          0          0          1
216              CIRCULAR     2.00       0          0          0          1
219              CIRCULAR     2.00       0          0          0          1
220              CIRCULAR     2.00       0          0          0          1
304              CIRCULAR     0.33       0          0          0          1
303              CIRCULAR     2.00       0          0          0          1
251              CIRCULAR     1.75       0          0          0          1
250              CIRCULAR     2.00       0          0          0          1
243              CIRCULAR     1.25       0          0          0          1
242              CIRCULAR     1.25       0          0          0          1
241_2            CIRCULAR     1.50       0          0          0          1
244              CIRCULAR     1.00       0          0          0          1
245              CIRCULAR     0.83       0          0          0          1
246              CIRCULAR     1.00       0          0          0          1
247              CIRCULAR     1.00       0          0          0          1
248              CIRCULAR     0.83       0          0          0          1
252              CIRCULAR     1.50       0          0          0          1
253              CIRCULAR     1.25       0          0          0          1
254              CIRCULAR     1.00       0          0          0          1
255              CIRCULAR     1.00       0          0          0          1
256              CIRCULAR     0.83       0          0          0          1
258              CIRCULAR     1.00       0          0          0          1
249              CIRCULAR     0.50       0          0          0          1
353              CIRCULAR     1.50       0          0          0          1
352              CIRCULAR     1.50       0          0          0          1
351              CIRCULAR     1.50       0          0          0          1
363              CIRCULAR     0.83       0          0          0          1
350              CIRCULAR     1.50       0          0          0          1
349              CIRCULAR     1.50       0          0          0          1
348              CIRCULAR     1.25       0          0          0          1
347              CIRCULAR     1.00       0          0          0          1
345              CIRCULAR     1.00       0          0          0          1
360              CIRCULAR     1.50       0          0          0          1
359              CIRCULAR     1.75       0          0          0          1
288              CIRCULAR     1.00       0          0          0          1
289              CIRCULAR     0.67       0          0          0          1
291              CIRCULAR     0.83       0          0          0          1
295              CIRCULAR     0.83       0          0          0          1
283              CIRCULAR     1.25       0          0          0          1
282              CIRCULAR     1.00       0          0          0          1
281              CIRCULAR     0.83       0          0          0          1
280              CIRCULAR     0.83       0          0          0          1
279              CIRCULAR     0.83       0          0          0          1
290              CIRCULAR     0.83       0          0          0          1
277              CIRCULAR     0.83       0          0          0          1
259              CIRCULAR     0.67       0          0          0          1
278              CIRCULAR     0.50       0          0          0          1
284              CIRCULAR     1.00       0          0          0          1
285              CIRCULAR     0.50       0          0          0          1
286              CIRCULAR     0.33       0          0          0          1
361              CIRCULAR     0.83       0          0          0          1
513              CIRCULAR     0.67       0          0          0          1
513_2            CIRCULAR     0.83       0          0          0          1
221_2            CIRCULAR     3.00       0          0          0          1

[LOSSES]
;;Link           Inlet      Outlet     Average    Flap Gate
;;-------------- ---------- ---------- ---------- ----------
222              0          0          0          NO
223              0          0          0          NO
224              0          0          0          NO
225              0          0          0          NO
226              0          0          0          NO
227              0          0          0          NO
228              0          0          0          NO
229              0          0          0          NO
230              0          0          0          NO
311              0          0          0          NO
312              0          0          0          NO
231              0          0          0          NO
232              0          0          0          NO
233              0          0          0          NO
234              0          0          0          NO
236              0          0          0          NO
235              0          0          0          NO
237              0          0          0          NO
238              0          0          0          NO
239              0          0          0          NO
241              0          0          0          NO
260              0          0          0          NO
261              0          0          0          NO
262              0          0          0          NO
263              0          0          0          NO
264              0          0          0          NO
265              0          0          0          NO
266              0          0          0          NO
267              0          0          0          NO
268              0          0          0          NO
269              0          0          0          NO
270              0          0          0          NO
271              0          0          0          NO
272              0          0          0          NO
273              0          0          0          NO
274              0          0          0          NO
275              0          0          0          NO
276              0          0          0          NO
221              0          0          0          NO
203              0          0          0          NO
204              0          0          0          NO
205              0          0          0          NO
206              0          0          0          NO
318              0          0          0          NO
317              0          0          0          NO
316              0          0          0          NO
207              0          0          0          NO
313              0          0          0          NO
314              0          0          0          NO
315              0          0          0          NO
308              0          0          0          NO
230_2            0          0          0          NO
309              0          0          0          NO
307              0          0          0          NO
310              0          0          0          NO
302              0          0          0          NO
300              0          0          0          NO
298              0          0          0          NO
296              0          0          0          NO
309_2            0          0          0          NO
209              0          0          0          NO
211              0          0          0          NO
212              0          0          0          NO
213              0          0          0          NO
214              0          0          0          NO
215              0          0          0          NO
208              0          0          0          NO
321              0          0          0          NO
320              0          0          0          NO
322              0          0          0          NO
217              0          0          0          NO
218              0          0          0          NO
343              0          0          0          NO
340              0          0          0          NO
342              0          0          0          NO
341              0          0          0          NO
339              0          0          0          NO
210              0          0          0          NO
324              0          0          0          NO
326              0          0          0          NO
325              0          0          0          NO
327              0          0          0          NO
328              0          0          0          NO
329              0          0          0          NO
330              0          0          0          NO
331              0          0          0          NO
332              0          0          0          NO
333              0          0          0          NO
334              0          0          0          NO
335              0          0          0          NO
336              0          0          0          NO
337              0          0          0          NO
338              0          0          0          NO
355              0          0          0          NO
354              0          0          0          NO
356              0          0          0          NO
357              0          0          0          NO
358              0          0          0          NO
323              0          0          0          NO
216              0          0          0          NO
219              0          0          0          NO
220              0          0          0          NO
304              0          0          0          NO
303              0          0          0          NO
251              0          0          0          NO
250              0          0          0          NO
243              0          0          0          NO
242              0          0          0          NO
241_2            0          0          0          NO
244              0          0          0          NO
245              0          0          0          NO
246              0          0          0          NO
247              0          0          0          NO
248              0          0          0          NO
252              0          0          0          NO
253              0          0          0          NO
254              0          0          0          NO
255              0          0          0          NO
256              0          0          0          NO
258              0          0          0          NO
249              0          0          0          NO
353              0          0          0          NO
352              0          0          0          NO
351              0          0          0          NO
363              0          0          0          NO
350              0          0          0          NO
349              0          0          0          NO
348              0          0          0          NO
347              0          0          0          NO
345              0          0          0          NO
360              0          0          0          NO
359              0          0          0          NO
288              0          0          0          NO
289              0          0          0          NO
291              0          0          0          NO
295              0          0          0          NO
283              0          0          0          NO
282              0          0          0          NO
281              0          0          0          NO
280              0          0          0          NO
279              0          0          0          NO
290              0          0          0          NO
277              0          0          0          NO
259              0          0          0          NO
278              0          0          0          NO
284              0          0          0          NO
285              0          0          0          NO
286              0          0          0          NO
361              0          0          0          NO
513              0          0          0          NO
513_2            0          0          0          NO
221_2            0          0          0          NO

[INFLOWS]
;;Node           Constituent  Time Series      Type     Mfactor  Sfactor  Baseline Pattern
;;-------------- ------------ ---------------- -------- -------- -------- -------- --------
1003             FLOW         ""               FLOW     1.0      1.0      0.18000
1013             FLOW         ""               FLOW     1.0      1.0      0.16000
103              FLOW         ""               FLOW     1.0      1.0      0.01000
106              FLOW         ""               FLOW     1.0      1.0      0.02000
121              FLOW         ""               FLOW     1.0      1.0      0.26000
241              FLOW         ""               FLOW     1.0      1.0      0.21000
249              FLOW         ""               FLOW     1.0      1.0      0.34000

[COORDINATES]
;;Node           X-Coord            Y-Coord
;;-------------- ------------------ ------------------
1000             2625.53            597.57            
1001             2625.53            542.47            
1002             2593.02            548.13            
1003             2594.09            506.38            
1004             2515.07            563.98            
1005             2463.72            598.78            
1006             2463.65            616.36            
1007             2229.34            599.76            
1008             2093.84            599.06            
1009             2227.44            535.61            
1010             2228.77            409.68            
1011             2228.22            326.18            
1012             2228.44            227.84            
1013             2291.12            226.58            
1014             1962.35            368.54            
1015             1980.66            334.55            
1016             1941.44            328.72            
1017             1972.51            250.69            
1018             1920.20            250.37            
SEPR3            2742.64            598.64            
1                2749.56            567.47            
5                2632.96            13.58             
8                2639.68            -80.51            
9                2602.82            -101.42           
10               2425.74            -103.13           
11               2319.83            -103.07           
12               2570.31            -12.45            
13               2310.11            -11.82            
14               2295.39            -15.45            
100              2291.87            -58.14            
101              2294.10            -136.83           
101A             2255.47            -134.15           
102              2293.37            -347.38           
103              2130.35            -312.66           
104              2128.75            -345.06           
105              2078.53            -345.28           
106              2009.40            -341.84           
107              1902.13            -345.55           
110              1839.85            -344.06           
111              1819.32            -343.98           
112              1792.31            -305.34           
113              1762.73            -340.41           
114              1617.42            -342.50           
115              1617.21            -306.87           
117              1413.42            -340.68           
118              1411.89            -307.37           
119              1133.74            -332.54           
120              1788.85            -119.57           
121              1788.16            -61.90            
122              1776.67            -119.35           
123              1714.95            -117.91           
124              1664.63            -116.94           
125              1605.62            -116.83           
126              1536.99            -116.97           
128              1286.26            -79.44            
129              1021.29            -286.97           
200              2756.17            454.12            
201              2785.25            321.59            
202              2799.68            267.23            
203              2776.07            202.87            
204              2782.57            111.80            
205              2640.68            46.35             
206              2611.86            33.04             
207              2315.66            18.91             
208              2269.78            19.89             
209              2054.24            18.36             
210A             1829.51            19.49             
210              1784.74            18.38             
211              1744.47            18.31             
212              1604.58            19.10             
213              1486.55            19.90             
214              1432.77            18.64             
215              1144.09            18.28             
216              1037.25            26.37             
217              958.78             26.22             
218              1169.14            24.62             
219              1169.18            90.79             
220              1161.82            150.51            
221              1153.63            185.11            
222              1053.36            184.02            
223              959.26             186.21            
224              857.51             178.93            
225              856.64             111.51            
227              1213.02            185.50            
228              1214.65            132.46            
229              1205.40            26.79             
230              1435.41            185.71            
233              1502.57            178.30            
234              2043.55            26.68             
236              2038.70            53.24             
238              2043.70            120.64            
240              2059.93            196.96            
241              1920.02            183.92            
242              1857.82            223.77            
245              2290.77            122.35            
246              2306.59            182.22            
247              2292.44            208.14            
248              2291.54            27.36             
249              2106.16            -22.96            
251              2109.64            -188.30           
252              2463.31            509.97            
253              2431.82            465.14            
256              2464.12            199.00            
257              2493.87            39.75             
258              2494.30            189.93            
259              2494.02            332.75            
1100             2792.47            635.49            
1101             2463.86            644.53            
1102             2259.03            646.49            
1103             2090.72            640.91            
1200             1833.71            605.78            
1201             1588.30            609.88            
1202             1587.43            591.69            
1203             1461.08            608.07            
1204             1153.25            602.57            
1205             1099.15            599.96            
1206             930.25             601.13            
1207             930.80             616.44            
1208             762.25             599.12            
1209             764.23             617.63            
1210             614.12             599.18            
1211             611.89             617.84            
1212             494.19             599.14            
1213             463.56             599.14            
1214             463.56             553.56            
1300             1572.17            265.65            
1301             1573.11            331.00            
1302             1572.40            346.06            
1303             1522.81            330.72            
1304             1639.67            330.89            
1400             1327.07            326.18            
1402             1115.62            334.83            
1403             1114.55            420.55            
1404             1060.71            419.36            
1405             1058.87            519.21            
1406             975.39             517.42            
1407             919.79             519.41            
1408             845.89             517.44            
1409             743.16             517.09            
1410             499.72             516.82            
1411             537.20             451.57            
1412             593.19             364.61            
1413             626.71             312.08            
1415A            1061.91            213.98            
1415B            1061.55            220.56            
1416             946.76             214.72            
1418             977.71             434.25            
1403A            1639.65            415.41            
516              2754.85            598.74            

[MAP]
DIMENSIONS 463.56 -347.38 2799.68 646.49
Units      None

[REPORT]
SUBCATCHMENTS ALL
NODES ALL
LINKS ALL
