;; SWMM5 .inp converted from XPSWMM .xp file
;; Generated by XPSWMM Card Reader
;; Source format: XP_CARD | Original title: Tyler Creek
;; Links parsed from source: 32 | Routable in this .inp: 33

[TITLE]
;;Project Title/Notes
Tyler Creek

[OPTIONS]
FLOW_UNITS           CFS
INFILTRATION         HORTON
FLOW_ROUTING         DYNWAVE
LINK_OFFSETS         DEPTH
MIN_SLOPE            0.0
ALLOW_PONDING        NO
SKIP_STEADY_STATE    NO
INERTIAL_DAMPING     PARTIAL
NORMAL_FLOW_LIMITED  BOTH
START_DATE           01/01/2001
START_TIME           00:00:00
REPORT_START_DATE    01/01/2001
REPORT_START_TIME    00:00:00
END_DATE             01/02/2001
END_TIME             00:00:00
SWEEP_START          01/01
SWEEP_END            12/31
DRY_DAYS             0
REPORT_STEP          00:15:00
WET_STEP             00:05:00
DRY_STEP             01:00:00

[JUNCTIONS]
;;Name           Elev       MaxDepth   InitDepth  SurDepth   Aponded
;;-------------- ---------- ---------- ---------- ---------- ----------
PC-1             0          0          0          0          0
PC-2             0          0          0          0          0
PC-2RS           0          0          0          0          0
PC-3             0          0          0          0          0
PC-4&4RS         0          0          0          0          0
PC-5             0          0          0          0          0
NP-1             0          0          0          0          0
NP-2             0          0          0          0          0
NP-3             0          0          0          0          0
NP-4             0          0          0          0          0
D1               0          0          0          0          0
PC-6A&6ARS       0          0          0          0          0
PC-6B            0          0          0          0          0
PC7&7RS          0          0          0          0          0
PC-8&8RS         0          0          0          0          0
TC-6             0          0          0          0          0
T3-1             0          0          0          0          0
T3-2             0          0          0          0          0
T3-2RS           0          0          0          0          0
T3-3             0          0          0          0          0
T3-3RS           0          0          0          0          0
T3-4&4RS         0          0          0          0          0
T3-5&5RS         0          0          0          0          0
T3-6             0          0          0          0          0
TC-5&5RS         0          0          0          0          0
TC-1             0          0          0          0          0
TC-3C            0          0          0          0          0
TC-2&2RS         0          0          0          0          0
TC-3A            0          0          0          0          0
TC-3B&3BRS       0          0          0          0          0
TC3CRS           0          0          0          0          0
TC-4             0          0          0          0          0
TC-4RS           0          0          0          0          0

[OUTFALLS]
;;Name           Elev       Type       Stage      Gated
;;-------------- ---------- ---------- ---------- -----
OUT_SYNTH        -1.00      FREE                  NO

[CONDUITS]
;;Name           From             To               Length     Roughness  InOffset   OutOffset  InitFlow   MaxFlow
;;-------------- ---------------- ---------------- ---------- ---------- ---------- ---------- ---------- ----------
201              PC-1             PC-2             3800.00    0.0140     149.40     100.00     0          0
205              PC-2             PC-2RS           6700.00    0.0140     126.80     100.00     0          0
207              PC-2RS           PC-3             33.00      0.0140     0          0          0          0
211              PC-3             PC-4&4RS         33.00      0.0140     0          0          0          0
214              PC-4&4RS         PC-5             2600.00    0.0130     102.60     100.00     0          0
222              NP-1             NP-2             6100.00    0.0130     130.50     100.00     0          0
223              NP-2             NP-3             5000.00    0.0130     135.00     100.00     0          0
224              NP-3             D1               5550.00    0.0130     1665.00    100.00     0          0
225              NP-4             PC-5             33.00      0.0140     0          0          0          0
230              D1               NP-4             1600.00    0.0130     101.60     100.00     0          0
218              PC-5             PC-6A&6ARS       33.00      0.0140     0          0          0          0
233              PC-6A&6ARS       PC-6B            1400.00    0.0130     101.40     100.00     0          0
235              PC-6B            PC7&7RS          4400.00    0.0130     104.40     100.00     0          0
237              PC7&7RS          PC-8&8RS         900.00     0.0140     100.90     100.00     0          0
239              PC-8&8RS         TC-6             4000.00    0.0130     104.00     100.00     0          0
243              T3-1             T3-2             4000.00    0.0130     132.00     100.00     0          0
244              T3-2             T3-2RS           3200.00    0.0130     128.80     100.00     0          0
246              T3-2RS           T3-3             33.00      0.0140     0          0          0          0
248              T3-3             T3-3RS           3900.00    0.0130     107.80     100.00     0          0
250              T3-3RS           T3-4&4RS         33.00      0.0140     0          0          0          0
252              T3-4&4RS         T3-5&5RS         33.00      0.0140     0          0          0          0
254              T3-5&5RS         T3-6             2400.00    0.0130     102.40     100.00     0          0
256              T3-6             TC-5&5RS         4200.00    0.0130     104.20     100.00     0          0
262              TC-1             TC-3C            6000.00    0.0130     142.00     100.00     0          0
263              TC-3C            TC3CRS           3200.00    0.0130     103.20     100.00     0          0
265              TC-2&2RS         TC-3A            33.00      0.0140     0          0          0          0
267              TC-3A            TC-3B&3BRS       33.00      0.0140     0          0          0          0
268              TC-3B&3BRS       TC3CRS           33.00      0.0140     0          0          0          0
274              TC3CRS           TC-4             33.00      0.0140     0          0          0          0
276              TC-4             TC-4RS           3500.00    0.0130     103.50     100.00     0          0
278              TC-4RS           TC-5&5RS         33.00      0.0140     0          0          0          0
260              TC-5&5RS         TC-6             3300.00    0.0130     103.30     100.00     0          0
C_OUT_SYNTH      TC-6             OUT_SYNTH        50.00      0.0130     0          0          0          0

[XSECTIONS]
;;Link           Shape        Geom1      Geom2      Geom3      Geom4      Barrels
;;-------------- ------------ ---------- ---------- ---------- ---------- ----------
201              TRAPEZOIDAL  1.00       10.00      2          2          1
205              TRAPEZOIDAL  1.00       10.00      2          2          1
207              CIRCULAR     1.00       0          0          0          1
211              CIRCULAR     1.00       0          0          0          1
214              TRAPEZOIDAL  1.00       10.00      2          2          1
222              TRAPEZOIDAL  1.00       10.00      2          2          1
223              TRAPEZOIDAL  1.00       10.00      2          2          1
224              TRAPEZOIDAL  1.00       10.00      2          2          1
225              CIRCULAR     1.00       0          0          0          1
230              TRAPEZOIDAL  1.00       10.00      2          2          1
218              CIRCULAR     1.00       0          0          0          1
233              TRAPEZOIDAL  1.00       10.00      2          2          1
235              TRAPEZOIDAL  1.00       10.00      2          2          1
237              TRAPEZOIDAL  1.00       10.00      2          2          1
239              TRAPEZOIDAL  1.00       10.00      2          2          1
243              TRAPEZOIDAL  1.00       10.00      2          2          1
244              TRAPEZOIDAL  1.00       10.00      2          2          1
246              CIRCULAR     1.00       0          0          0          1
248              TRAPEZOIDAL  1.00       10.00      2          2          1
250              CIRCULAR     1.00       0          0          0          1
252              CIRCULAR     1.00       0          0          0          1
254              TRAPEZOIDAL  1.00       10.00      2          2          1
256              TRAPEZOIDAL  1.00       10.00      2          2          1
262              TRAPEZOIDAL  1.00       10.00      2          2          1
263              TRAPEZOIDAL  1.00       10.00      2          2          1
265              CIRCULAR     1.00       0          0          0          1
267              CIRCULAR     1.00       0          0          0          1
268              CIRCULAR     1.00       0          0          0          1
274              CIRCULAR     1.00       0          0          0          1
276              TRAPEZOIDAL  1.00       10.00      2          2          1
278              CIRCULAR     1.00       0          0          0          1
260              TRAPEZOIDAL  1.00       10.00      2          2          1
C_OUT_SYNTH      CIRCULAR     3.00       0          0          0          1

[LOSSES]
;;Link           Inlet      Outlet     Average    Flap Gate
;;-------------- ---------- ---------- ---------- ----------
201              0          0          0          NO
205              0          0          0          NO
207              0          0          0          NO
211              0          0          0          NO
214              0          0          0          NO
222              0          0          0          NO
223              0          0          0          NO
224              0          0          0          NO
225              0          0          0          NO
230              0          0          0          NO
218              0          0          0          NO
233              0          0          0          NO
235              0          0          0          NO
237              0          0          0          NO
239              0          0          0          NO
243              0          0          0          NO
244              0          0          0          NO
246              0          0          0          NO
248              0          0          0          NO
250              0          0          0          NO
252              0          0          0          NO
254              0          0          0          NO
256              0          0          0          NO
262              0          0          0          NO
263              0          0          0          NO
265              0          0          0          NO
267              0          0          0          NO
268              0          0          0          NO
274              0          0          0          NO
276              0          0          0          NO
278              0          0          0          NO
260              0          0          0          NO
C_OUT_SYNTH      0          0          0          NO

[INFLOWS]
;;Node           Constituent  Time Series      Type     Mfactor  Sfactor  Baseline Pattern
;;-------------- ------------ ---------------- -------- -------- -------- -------- --------
;; SYNTHETIC TEST INFLOWS — the source .xp carried no constant inflows
;; and RUNF hydrology is not converted; 1.00 CFS is applied at each
;; headwater node so the network runs wet for QA. Replace with real
;; hydrology or inflow hydrographs before using results.
PC-1             FLOW         ""               FLOW     1.0      1.0      1.00
NP-1             FLOW         ""               FLOW     1.0      1.0      1.00
T3-1             FLOW         ""               FLOW     1.0      1.0      1.00
TC-1             FLOW         ""               FLOW     1.0      1.0      1.00
TC-2&2RS         FLOW         ""               FLOW     1.0      1.0      1.00

[COORDINATES]
;;Node           X-Coord            Y-Coord
;;-------------- ------------------ ------------------
PC-1             16.62              16.18             
PC-2             40.01              16.66             
PC-2RS           57.41              17.70             
PC-3             75.91              17.70             
PC-4&4RS         93.47              17.70             
PC-5             114.34             18.09             
NP-1             12.35              65.29             
NP-2             37.01              64.90             
NP-3             59.78              65.68             
NP-4             113.86             65.68             
D1               86.82              66.08             
PC-6A&6ARS       138.53             17.70             
PC-6B            157.98             17.31             
PC7&7RS          181.70             17.31             
PC-8&8RS         204.00             18.09             
TC-6             224.87             18.09             
T3-1             19.01              111.38            
T3-2             47.95              110.99            
T3-2RS           71.32              109.85            
T3-3             94.44              109.81            
T3-3RS           116.73             110.99            
T3-4&4RS         140.93             110.20            
T3-5&5RS         172.71             110.20            
T3-6             198.80             110.59            
TC-5&5RS         223.47             111.77            
TC-1             126.22             153.46            
TC-3C            149.46             154.25            
TC-2&2RS         123.37             190.83            
TC-3A            153.26             189.65            
TC-3B&3BRS       180.77             189.25            
TC3CRS           181.25             153.86            
TC-4             202.60             153.86            
TC-4RS           223.47             153.86            

[MAP]
DIMENSIONS 12.35 16.18 224.87 190.83
Units      None

[REPORT]
SUBCATCHMENTS ALL
NODES ALL
LINKS ALL
