;; SWMM5 .inp converted from XPSWMM .xp file
;; Generated by XPSWMM Card Reader
;; Source format: XP_CARD | Original title: (none)
;; NOTE: 312 link(s) dropped (missing endpoint): GL1HWY7Ec, GL-1MLc, ML-1, SLL-1, GL-1, GL-1_2, GL-1_3, ML-1_2, SLL-1_2, LW, CL-4, CL-2, CL-1, 231.1, BB1-CRI5t, BB-2_FRDt, BB-4-DL, WB-DL, WB-2, CRS-1MR, CRS-2, EU-1, EU-1_2, EU-1_3, CLC-5xsec1, CLC-5xsec2, CLC-5xsec3, CLC-4wier, CLC-3WTRDC, CLC-3WTRdT, CLC-5eofC, CLC-1eofT, CLC-5Out, DL-4_ditch, DL-5xsec1, DL-7xsec2, DL-7xsec4, DL-5xsec8, DL-5xsec7, DL-5xsec6, DL-5xsec5, DL-5xsec4, DL-5xsec3, DL-5xsec2, DL-7xsec3, LMC-5xsec1, LMC-6xsec1, LMC-7, 910.1, LMC-10weir, LV-4xsec2, LV-1xsec1, LMC-9MPk, LV-4xsec1, LV-4xsec3, LV-4xsec4, LV-4xsec5, LV-4xsec6, LV-4, LV-4xsec7, LV-4xsec8, LV-4_2, LV-4sec3.1, SL-4_C, SL-2, SL-3, SL-4, SL-4_2, SL-1, HB-LMbrdg, 1360.1, ExcBay-DL, LM-DL, To, LL-1bermT, LL-3xsec1, LL-2rrC, LST-1, LL-3xsec2, LL-5weir, LL-1bermC, RB-1MRdT, RB-3nat, RB-DL, GL-1_4, CB-DL, FL-2nat, LLC-21, LLC-23nat1, LLC12weir, LLC-13nat, 1783.1, LLC36cr6C, LLC-1nat1, LLC-25nat, LLC-41outC, LLC-43nc3, LLC-42nat, LLC-39us12, LLC-48Luce, 1836.1, LLC-49BrRd, LLC-25BRd1, LLC-25BRd2, LLC-18nat, LLC-22nat, LLC-11nat, LLC-9nat, LLC-1nat2, LLC-4nat, LLC-6nat, LLC-38orf, LLC-38pipe, LLC-45ordC, LLC-45ordO, LLC-41nat1, LLC-41us12, LLC-41nat2, LLC-47nc1, LLC-43nc1, LLC-43nc2, LLC-43nc4, LLC-43nc5, LLC-41nat3, LLC-41nat4, LLC-41nat5, LLC-41nat6, LLC-47nc2, LLC-47nat3, LLC-49FRd, LLC-20, LLC-20_2, LLC-26out, W, E, LLC-26us12, LLC-28, LLC-30nat2, LLC-30, LLC-35, LLC-36us12, LLC-32, weir/oriff, LLC-37, LLC-38nat, LLC-28nat, LLC-27nat, LLC-30nat1, LLC-33, LLC-34, LLC-29nat, LLC-27weir, LLC-31, LLC-41nat7, LLC-47nc4, LLC-47nc5, LLC-47nc6, LLC-47nc7, PC-2xsec2, PC-3xsec3, PC-4xsec1, PC-7xsec1, PC-5xsec1, PC-22xsec1, pc-20_rdC1, PC-16nc3.2, PC-16xsec1, PC-24nc1.2, PC-2xsec1, PC-3xsec2, pc-7_xsec1, PC-8xsec1, h, PC-10xsec1, PC-8steel, PC-11xsec1, PC-12nc1, PC-14nc1.2, PC-15n1, PC-21xsec2, PC-21xsec1, pc-21_sedC, PC-21, 1547.1, PC-23nc1.2, PC-23nc1, pc-10_rdC, PC-25xsec1, PC-20, PC-20xsec1, PC-17, PC-1xsec1, PC-8xsec2, PC-9xsec1, PC-9xsec3, PC-10xsec2, PC-12nc2, PC-12nc2.2, PC-14nc1, PC-14nc2, PC-14nc2.2, PC-15nc1.2, PC-15nc2, PC-15nc3, PC-15nc3.2, PC-16xsec2, PC-16nc3, PC-21xsec3, PC-23nc2, PC-23nc2.2, PC-24nc1, PC-24nc4, PC-26nc1, PC-26nc6, PC-24nc2, PC-24nc3, PC-24nc3.1, PC-26nc2, PC-26nc2.1, PC-26nc3, PC-26nc3.1, PC-26nc5, PC-26nc4, SMC-1nc1, SMC-1nc2, SMC-5, SMC-6, SMC-7, SMC-9, SMC-10, SMC-13US5, SMC-14, SMC-17US7C, SMC-18dam, SMC-26, SMC-37weir, SMC-35, SMC-38, SMC-47, SMC-23, SMC-27, SMC-29CPRd, SMC-31nc1, SMC-19, SMC-44berm, SMC-45nat, SMC-49nat, SMC-33nat1, SMC-34, SMC-35LRd, SMC-39, SMC-41, SMC-37arch, SMC-43, SMC-43_2, SMC-46berm, SMC-17, SMC-4nc1, SMC-4nc2, SMC-5nc2, SMC-31anc2, SMC-31nc2, SMC-31nc3, SMC-31nc1b, SMC-31bnc1, SMC-31anc1, WB-1_CR16c, GLC-4, GLC-2, GLC-6, GLC-7, GLC-9weir, HL-1, HL-2, HL-4, HL-5, GLC-5orf, GLC-5, GLC-2_2, GLC-3, GLC-3_2, GLC-3_3, GLC-3_4, GLC-3_5, GLC-6weir, GLC-6_2, GLC-11, GLC-11_2, HL-2_2, HL-2_3, HL-1_2, HL-1_3, HL-1_4, HL-1_5, HL-4FRdC, HL-4_2, 27, GLC-10nc6, GLC-10, GLC-10nc4, GLC-10nc7, 2491.1, GLC-10nc9, GLC-10nc10, 2499.1, GLC-11_3, WB-1, GLC-10nc1, GLC-10nc2, GLC-10nc3, 2513.1, GLC-11cb8

[TITLE]
;;Project Title/Notes
Converted from XPSWMM .xp file

[OPTIONS]
FLOW_UNITS           CFS
INFILTRATION         HORTON
FLOW_ROUTING         DYNWAVE
LINK_OFFSETS         DEPTH
MIN_SLOPE            0.0
ALLOW_PONDING        NO
SKIP_STEADY_STATE    NO
ROUTING_STEP         00:05:00
VARIABLE_STEP        0.75
INERTIAL_DAMPING     PARTIAL
NORMAL_FLOW_LIMITED  BOTH
START_DATE           01/01/2001
START_TIME           00:00:00
REPORT_START_DATE    01/01/2001
REPORT_START_TIME    00:00:00
END_DATE             01/02/2001
END_TIME             00:00:00
SWEEP_START          01/01
SWEEP_END            12/31
DRY_DAYS             0
REPORT_STEP          00:15:00
WET_STEP             00:05:00
DRY_STEP             01:00:00

[JUNCTIONS]
;;Name           Elev       MaxDepth   InitDepth  SurDepth   Aponded
;;-------------- ---------- ---------- ---------- ---------- ----------
GL-1             949.00     0          0          0          0
GL-1_2           945.00     0          0          0          0
GL1-POND         940.00     0          0          0          0
TB-1             940.00     0          0          0          0
ML-1             959.00     0          0          0          0
SLL-1            945.00     0          0          0          0
SLL-1_2          940.00     0          0          0          0
GL-1_3           0          0          0          0          0
ML-1_2           0          0          0          0          0
SLL-1_3          945.00     0          0          0          0
LW-1             940.00     0          0          0          0
LW-1_2           1025.00    0          0          0          0
CL-3             945.00     0          0          0          0
CL-4             945.00     0          0          0          0
CL-5             982.00     0          0          0          0
CL-1             982.00     0          0          0          0
CL-2             955.00     0          0          0          0
CL-1_2           0          0          0          0          0
Hwy7             941.00     0          0          0          0
CL-5_2           940.00     0          0          0          0
BB-4             941.00     0          0          0          0
BB-3             939.00     0          0          0          0
BB-1             941.00     0          0          0          0
BB-2             941.00     0          0          0          0
BB-4_2           946.00     0          0          0          0
BB-4.1           937.00     0          0          0          0
FL-1             956.00     0          0          0          0
FL-3             957.00     0          0          0          0
FL-2             940.00     0          0          0          0
FR               936.00     0          0          0          0
PL-1             971.00     0          0          0          0
PL-3             971.00     0          0          0          0
PL-4             961.00     0          0          0          0
PL-2             961.00     0          0          0          0
SB-1             958.00     0          0          0          0
SB-2             958.00     0          0          0          0
WB-2.2           945.00     0          0          0          0
GB-1.1           945.00     0          0          0          0
GB-2             947.00     0          0          0          0
MC-10            1029.00    0          0          0          0
WB-2             943.00     0          0          0          0
WB-2.1           945.00     0          0          0          0
GB               945.00     0          0          0          0
CRS-1            962.00     0          0          0          0
CRS-2            965.00     0          0          0          0
CRS-1_2          962.00     0          0          0          0
CRS-2_2          0          0          0          0          0
EU-3             933.00     0          0          0          0
EU-2             972.00     0          0          0          0
EU-1             972.00     0          0          0          0
EU-4             935.00     0          0          0          0
EU-1_2           972.50     0          0          0          0
CLC-4            972.00     0          0          0          0
CLC-5            970.00     0          0          0          0
CLC-5_2          940.00     0          0          0          0
CLC-5_3          940.00     0          0          0          0
CLC-5_4          940.00     0          0          0          0
CLC-5_5          946.85     0          0          0          0
CLC-5_6          964.00     0          0          0          0
CLC-3            990.00     0          0          0          0
CLC-2            990.00     0          0          0          0
CLC-1            984.00     0          0          0          0
CLC-5a           982.00     0          0          0          0
CLC-5a_2         986.00     0          0          0          0
DL-7             967.00     0          0          0          0
DL-7_2           1000.00    0          0          0          0
DL-7_3           1000.00    0          0          0          0
DL-7_4           1000.00    0          0          0          0
DL-5_2           951.00     0          0          0          0
DL-5_3           945.00     0          0          0          0
DL-5_4           945.00     0          0          0          0
DL-5_5           945.00     0          0          0          0
DL-5_6           945.00     0          0          0          0
DL-5_7           945.00     0          0          0          0
DL-5_8           945.00     0          0          0          0
DL-7_5           1000.00    0          0          0          0
LMC-3            965.00     0          0          0          0
LMC-2            965.00     0          0          0          0
LMC-10           972.00     0          0          0          0
LMC-1            965.00     0          0          0          0
LMC-5            985.00     0          0          0          0
LMC-6            965.00     0          0          0          0
LMC-7            970.00     0          0          0          0
LMC-8            970.00     0          0          0          0
LV-3             950.00     0          0          0          0
LV-2             957.00     0          0          0          0
LV-6             953.00     0          0          0          0
LMC-9            957.00     0          0          0          0
LV-4             953.00     0          0          0          0
LV-5             950.00     0          0          0          0
LMC-4            963.00     0          0          0          0
LV-1             985.00     0          0          0          0
LMC-9_2          957.00     0          0          0          0
LV-3epond        947.00     0          0          0          0
LV-4_2           945.00     0          0          0          0
LV-4_3           955.00     0          0          0          0
LV-4_4           955.00     0          0          0          0
LV-4_5           953.00     0          0          0          0
LV-4_6           945.00     0          0          0          0
LV-4_7           945.00     0          0          0          0
LV-4_8           945.00     0          0          0          0
LMC-10_2         955.00     0          0          0          0
LV-4_9           945.00     0          0          0          0
LV-4_10          945.00     0          0          0          0
LV-4_11          945.00     0          0          0          0
LV-4_12          949.00     0          0          0          0
LV-4_13          940.00     0          0          0          0
LV-4_14          940.00     0          0          0          0
LV-4_15          945.00     0          0          0          0
LV-4_16          945.00     0          0          0          0
SL-1             1000.00    0          0          0          0
SL-2             990.00     0          0          0          0
SL-3             973.00     0          0          0          0
SL-4             965.00     0          0          0          0
SL-4_2           955.00     0          0          0          0
SL-4_3           955.00     0          0          0          0
LM-all           1021.00    0          0          0          0
HB-LM            941.00     0          0          0          0
HB-2             970.00     0          0          0          0
HB-3             966.00     0          0          0          0
HB-5             960.00     0          0          0          0
HB-6             956.00     0          0          0          0
HB-1             940.00     0          0          0          0
HB-4             956.00     0          0          0          0
Upper-DN         959.00     0          0          0          0
SLL-LM           1021.00    0          0          0          0
LL-5             945.00     0          0          0          0
LL-3             965.00     0          0          0          0
LL-1             965.00     0          0          0          0
LL-3_2           950.00     0          0          0          0
LL-4             940.00     0          0          0          0
LL-2             965.00     0          0          0          0
LL-5CR110m       934.24     0          0          0          0
LST-1            939.35     0          0          0          0
LL-3_3           954.00     0          0          0          0
LL-3_4           955.00     0          0          0          0
LL-1_2           959.62     0          0          0          0
RB-1             950.00     0          0          0          0
RB-3             950.00     0          0          0          0
RB-LM            953.50     0          0          0          0
RB-2             950.00     0          0          0          0
MP-1             950.00     0          0          0          0
GL-1.1           945.00     0          0          0          0
CB-DN            971.00     0          0          0          0
Temp             1028.50    0          0          0          0
LLC-22           998.00     0          0          0          0
LLC-23           992.00     0          0          0          0
LLC-24           996.00     0          0          0          0
LLC-41           996.00     0          0          0          0
LLC-10           996.70     0          0          0          0
LLC-11           995.90     0          0          0          0
LLC-12           981.69     0          0          0          0
LLC-13           972.20     0          0          0          0
LLC-14           960.07     0          0          0          0
LLC-15           954.00     0          0          0          0
LLC-16           982.00     0          0          0          0
LLC-17           985.00     0          0          0          0
LLC-18           985.00     0          0          0          0
LLC-19           996.00     0          0          0          0
LLC-7            990.00     0          0          0          0
LLC-8            991.00     0          0          0          0
LLC-9            991.00     0          0          0          0
LLC-1            1004.98    0          0          0          0
LLC-2            995.00     0          0          0          0
LLC-4            995.00     0          0          0          0
LLC-6            970.00     0          0          0          0
LLC-5            970.00     0          0          0          0
LLC-3            985.00     0          0          0          0
LLC-25           995.78     0          0          0          0
LLC-43           971.31     0          0          0          0
LLC-47           952.80     0          0          0          0
LLC-50           950.00     0          0          0          0
LLC-52           940.00     0          0          0          0
LLC-53           939.40     0          0          0          0
LLC-46           2000.00    0          0          0          0
LLC-44           2000.00    0          0          0          0
LLC-45           966.00     0          0          0          0
LLC-42           2000.00    0          0          0          0
LLC-39           2000.00    0          0          0          0
LLC-48           936.00     0          0          0          0
LLC-38           958.00     0          0          0          0
LLC-51           936.00     0          0          0          0
LLC-49           936.00     0          0          0          0
LLC-25_2         992.53     0          0          0          0
LLC-25mh1        982.54     0          0          0          0
LLC-22_2         998.00     0          0          0          0
LLC-11_2         992.37     0          0          0          0
LLC-9_2          980.00     0          0          0          0
LLC-9_3          981.69     0          0          0          0
LLC-1pond        1003.70    0          0          0          0
LLC-1_2          1005.92    0          0          0          0
LLC-2_2          995.00     0          0          0          0
LLC-4_2          970.00     0          0          0          0
LLC-6_2          970.00     0          0          0          0
LLC-38_2         947.00     0          0          0          0
LLC-38s          947.00     0          0          0          0
LLC-45_2         2000.00    0          0          0          0
LLC-41_2         953.68     0          0          0          0
LLC-41_3         953.27     0          0          0          0
LLC-41_4         955.90     0          0          0          0
LLC-41_5         971.31     0          0          0          0
LLC-43_2         957.44     0          0          0          0
LLC-47_2         953.74     0          0          0          0
LLC-43_3         950.40     0          0          0          0
LLC-43_4         955.90     0          0          0          0
LLC-43FN1        951.39     0          0          0          0
LLC-43_5         957.40     0          0          0          0
LLC-41_6         955.65     0          0          0          0
LLC-41_7         956.10     0          0          0          0
LLC-41_8         957.60     0          0          0          0
LLC-41_9         956.70     0          0          0          0
LLC-47_3         953.00     0          0          0          0
LLC-47_4         955.10     0          0          0          0
LLC-20           2000.00    0          0          0          0
LLC-20mh1        2000.00    0          0          0          0
LLC-28           1004.00    0          0          0          0
LLC-30           1007.00    0          0          0          0
LLC-30_2         987.50     0          0          0          0
LLC-38_3         958.42     0          0          0          0
LLC-37_2         978.00     0          0          0          0
LLC-28_2         1005.59    0          0          0          0
LLC-27_2         1013.00    0          0          0          0
LLC-30_3         1001.70    0          0          0          0
LLC-29           1005.60    0          0          0          0
LLC-41_10        954.10     0          0          0          0
LLC-47_5         952.54     0          0          0          0
LLC-47_6         949.31     0          0          0          0
LLC-47_7         950.00     0          0          0          0
LLC-47_8         948.30     0          0          0          0
LLc-47_9         950.00     0          0          0          0
LLC-50FN2        945.00     0          0          0          0
LLC-50FN1        950.00     0          0          0          0
LLC-50FN3        942.83     0          0          0          0
LLC-50FN4        941.23     0          0          0          0
LLC-50FN5        938.00     0          0          0          0
LLC-50FN6        942.00     0          0          0          0
LLC-50FN7        942.00     0          0          0          0
LLC-50b          934.29     0          0          0          0
PC-11            973.00     0          0          0          0
PC-20            950.33     0          0          0          0
PC-7             988.97     0          0          0          0
PC-3             980.00     0          0          0          0
PC-24            971.24     0          0          0          0
PC-16FN1         970.60     0          0          0          0
PC-16FN5         961.47     0          0          0          0
PC-26FN5         948.00     0          0          0          0
PC-24FN6         970.30     0          0          0          0
PC-26            949.00     0          0          0          0
PC-2             982.55     0          0          0          0
PC-2_2           980.00     0          0          0          0
PC-2_3           980.00     0          0          0          0
PC-3_2           985.00     0          0          0          0
PC-3_3           985.00     0          0          0          0
PC-3_4           988.31     0          0          0          0
PC-3_5           990.00     0          0          0          0
PC-8_2           961.53     0          0          0          0
PC-8_3           995.00     0          0          0          0
PC-8_4           970.00     0          0          0          0
PC-9FN3          970.00     0          0          0          0
PC-10            968.10     0          0          0          0
PC-10FN2         972.00     0          0          0          0
PC-8_5           971.35     0          0          0          0
PC-8_6           970.00     0          0          0          0
PC-9_2           965.00     0          0          0          0
PC-11_2          972.00     0          0          0          0
PC-12            960.00     0          0          0          0
PC-12FN2         958.00     0          0          0          0
PC-14            955.00     0          0          0          0
PC-14_2          955.27     0          0          0          0
PC-15            956.00     0          0          0          0
PC-21FN1         950.50     0          0          0          0
PC-21FN3         956.00     0          0          0          0
PC-21FN4         956.00     0          0          0          0
PC-21FN5         954.00     0          0          0          0
PC-22FN1         960.10     0          0          0          0
PC-23FN1         955.00     0          0          0          0
PC-23            959.00     0          0          0          0
PC-19            1000.00    0          0          0          0
PC-17            998.50     0          0          0          0
PC-25            942.00     0          0          0          0
PC-20_2          956.66     0          0          0          0
PC-20_3          977.34     0          0          0          0
PC-15FN3         965.50     0          0          0          0
PC-2_4           985.00     0          0          0          0
PC-18            1000.00    0          0          0          0
PC-8_7           982.00     0          0          0          0
PC-9FN2          965.00     0          0          0          0
PC-9FN4          969.17     0          0          0          0
PC-9FN5          969.39     0          0          0          0
PC-10FN1         970.00     0          0          0          0
PC-12FN1         956.00     0          0          0          0
PC-12FN3         958.00     0          0          0          0
PC-14FN2         953.86     0          0          0          0
PC-14FN1         953.36     0          0          0          0
PC-14FN3         950.00     0          0          0          0
PC-15FN1         956.00     0          0          0          0
PC-15FN2         956.00     0          0          0          0
PC-15FN4         965.50     0          0          0          0
PC-15FN5         954.00     0          0          0          0
PC-16FN2         962.01     0          0          0          0
PC-16FN3         962.00     0          0          0          0
PC-16FN4         962.00     0          0          0          0
PC-21FN2         951.03     0          0          0          0
PC-23FN3         944.00     0          0          0          0
PC-23FN2         945.86     0          0          0          0
PC-24FN5         951.43     0          0          0          0
PC-23FN5         971.24     0          0          0          0
PC-24FN7         951.70     0          0          0          0
PC-26FN8         948.00     0          0          0          0
PC-24FN1         956.00     0          0          0          0
PC-24FN2         956.00     0          0          0          0
PC-24FN3         956.00     0          0          0          0
PC-24FN4         956.00     0          0          0          0
PC-26FN1         947.00     0          0          0          0
PC-26FN2         947.00     0          0          0          0
PC-26FN3         947.00     0          0          0          0
PC-26FN4         946.00     0          0          0          0
PC-26FN7         948.00     0          0          0          0
PC-26FN6         946.00     0          0          0          0
SMC-1            970.00     0          0          0          0
SMC-2            972.49     0          0          0          0
SMC-3            970.00     0          0          0          0
SMC-4            972.49     0          0          0          0
SMC-5            970.00     0          0          0          0
SMC-8            960.00     0          0          0          0
SMC-9            960.00     0          0          0          0
SMC-10           964.00     0          0          0          0
SMC-12           970.00     0          0          0          0
SMC-13           970.00     0          0          0          0
SMC-14           959.71     0          0          0          0
SMC-11           964.00     0          0          0          0
SMC-7            960.00     0          0          0          0
SMC-6            960.00     0          0          0          0
SMC-34           960.00     0          0          0          0
SMC-28           950.00     0          0          0          0
SMC-26           960.00     0          0          0          0
SMC-27           960.00     0          0          0          0
SMC-29           950.00     0          0          0          0
SMC-36           960.00     0          0          0          0
SMC-35           960.00     0          0          0          0
SMC-33           980.00     0          0          0          0
SMC-32           980.00     0          0          0          0
SMC-38           990.00     0          0          0          0
SMC-39           990.00     0          0          0          0
SMC-40           982.39     0          0          0          0
SMC-41           970.00     0          0          0          0
SMC-37           950.00     0          0          0          0
SMC-47           974.47     0          0          0          0
SMC-43           965.00     0          0          0          0
SMC-48           945.00     0          0          0          0
SMC-42           965.00     0          0          0          0
SMC-61           945.00     0          0          0          0
SMC-52           940.00     0          0          0          0
SMC-51           940.80     0          0          0          0
SMC-50           944.00     0          0          0          0
SMC-49           946.00     0          0          0          0
SMC-45           2000.00    0          0          0          0
SMC-46           2000.00    0          0          0          0
SMC-44           2000.00    0          0          0          0
SMC-30           982.00     0          0          0          0
SMC-31           982.00     0          0          0          0
SMC-18           2000.00    0          0          0          0
SMC-17           970.00     0          0          0          0
SMC-16           958.00     0          0          0          0
SMC-21           962.00     0          0          0          0
SMC-24           966.00     0          0          0          0
SMC-19           966.00     0          0          0          0
SMC-25           960.00     0          0          0          0
SMC-23           950.00     0          0          0          0
SMC-22           950.00     0          0          0          0
SMC-59           945.00     0          0          0          0
SMC-56           962.00     0          0          0          0
SMC-57           960.00     0          0          0          0
SMC-58           956.00     0          0          0          0
SMC-60           940.00     0          0          0          0
SMC-63           945.00     0          0          0          0
SMC-64           937.00     0          0          0          0
SMC-55           965.00     0          0          0          0
SMC-62           950.00     0          0          0          0
SMC-53           985.00     0          0          0          0
SMC-54           985.00     0          0          0          0
SMC-20           962.00     0          0          0          0
SMC-1_2          969.56     0          0          0          0
SMC-1_3          969.56     0          0          0          0
SMC-1_4          970.20     0          0          0          0
SMC-5_2          949.70     0          0          0          0
SMC-9_2          960.00     0          0          0          0
SMC-15           952.00     0          0          0          0
SMC-66           2000.00    0          0          0          0
SMC-53_2         966.83     0          0          0          0
SMC-54pond       965.00     0          0          0          0
SMC-33_2         962.98     0          0          0          0
SMC-32_2         962.98     0          0          0          0
SMC-39_2         990.00     0          0          0          0
SMC-41_2         950.00     0          0          0          0
SMC-41_3         942.23     0          0          0          0
SMC-8nPond       960.00     0          0          0          0
SMC-43_2         940.89     0          0          0          0
SMC-43_3         940.00     0          0          0          0
SMC-46pond       2000.00    0          0          0          0
SMC-56pond       964.00     0          0          0          0
SMC-56_2         964.00     0          0          0          0
SMC-56_3         955.60     0          0          0          0
SMC-57_2         949.20     0          0          0          0
SMC-57_3         950.00     0          0          0          0
SMC-57_4         950.60     0          0          0          0
SMC-58_2         949.40     0          0          0          0
SMC-58_3         942.00     0          0          0          0
SMC-61b          940.00     0          0          0          0
SMC-62pond       945.00     0          0          0          0
SMC-63_2         945.00     0          0          0          0
SMC-65           968.00     0          0          0          0
SMC-4FN1         972.49     0          0          0          0
SMC-4FN2         961.80     0          0          0          0
SMC-5FN2         960.00     0          0          0          0
SMC-11a          949.70     0          0          0          0
SMC-31A          950.00     0          0          0          0
SMC-31FN1        946.98     0          0          0          0
SMC-31FN3        941.69     0          0          0          0
SMC-31FN4        942.21     0          0          0          0
SMC-31FN2        946.00     0          0          0          0
SMC-31b          982.00     0          0          0          0
SMC-31aFN1       945.00     0          0          0          0
WB-1             932.00     0          0          0          0
WB-1_2           937.00     0          0          0          0
WB-1_3           937.00     0          0          0          0
WB-LM            971.00     0          0          0          0
GLC-4            1005.00    0          0          0          0
GLC-5            989.00     0          0          0          0
GLC-1            995.00     0          0          0          0
GLC-2            995.00     0          0          0          0
GLC-3            975.00     0          0          0          0
GLC-6            965.00     0          0          0          0
GLC-7            955.00     0          0          0          0
GLC-9            957.00     0          0          0          0
GLC-10           951.13     0          0          0          0
GLC-11           968.26     0          0          0          0
HL-1             987.00     0          0          0          0
HL-2             975.00     0          0          0          0
HL-4             969.00     0          0          0          0
HL-5             955.00     0          0          0          0
GLC-8            970.00     0          0          0          0
HL-3             975.00     0          0          0          0
GLC-5pond        1005.00    0          0          0          0
GLC-2pond        980.00     0          0          0          0
GLC-3_2          970.00     0          0          0          0
GLC-3_3          970.00     0          0          0          0
GLC-3_4          970.00     0          0          0          0
GLC-3_5          970.00     0          0          0          0
GLC-3_6          970.00     0          0          0          0
GLC-3_7          970.00     0          0          0          0
GLC-6_2          960.00     0          0          0          0
GLC-6_3          955.00     0          0          0          0
GLC-11MH6        968.26     0          0          0          0
GLC-11_2         935.00     0          0          0          0
HL-2_2           970.00     0          0          0          0
HL-2_3           970.00     0          0          0          0
GLC-10FN3        949.00     0          0          0          0
HL-1_2           982.00     0          0          0          0
HL-1_3           980.00     0          0          0          0
HL-1_4           985.00     0          0          0          0
HL-1_5           980.00     0          0          0          0
HL-4_2           955.00     0          0          0          0
HL-4spond        955.00     0          0          0          0
GLC-10FN7        953.13     0          0          0          0
GLC-10FN6        953.04     0          0          0          0
GLC-10FN4        949.30     0          0          0          0
GLC-10FN5        949.30     0          0          0          0
GLC-10FN8        949.80     0          0          0          0
GLC-10FN9        949.80     0          0          0          0
GLC-10FN10       949.80     0          0          0          0
GLC-10FN11       949.80     0          0          0          0
GLC-10FN12       949.80     0          0          0          0
GLC-11_3         935.00     0          0          0          0
WB-1_4           935.20     0          0          0          0
GLC-10FN1        950.37     0          0          0          0
GLC-10FN2        948.32     0          0          0          0
GLC-10FN13       939.65     0          0          0          0
TB-1_CR19t       930.00     0          0          0          0
LL1HWY7t         931.10     0          0          0          0
Node_14761962    923.76     0          0          0          0
CL3-RRdc         935.00     0          0          0          0
Node_14931494    935.00     0          0          0          0
CL1-PBt          954.00     0          0          0          0
Node_14961495    953.00     0          0          0          0
CL5-HWY7t        928.35     0          0          0          0
Node_15051962    928.60     0          0          0          0
CL-5_CLRt        930.57     0          0          0          0
Node_15071505    930.07     0          0          0          0
BB4-CR15t        933.00     0          0          0          0
Node_15112596    933.00     0          0          0          0
BB3-RAt          930.00     0          0          0          0
Node_15121513    930.00     0          0          0          0
BB4_RRt          931.70     0          0          0          0
Node_15111521    931.40     0          0          0          0
BB4-CR15o        929.00     0          0          0          0
Node_15211515    930.30     0          0          0          0
FL-1CR19T        940.00     0          0          0          0
Node_15261527    939.93     0          0          0          0
FL3CR19BR        921.60     0          0          0          0
Node_15272215    921.60     0          0          0          0
FR-NSDt          930.50     0          0          0          0
Node_15342215    930.00     0          0          0          0
PL-1WBvT         955.00     0          0          0          0
Node_15381539    951.50     0          0          0          0
PL-3RRt          942.00     0          0          0          0
Node_15391541    942.16     0          0          0          0
PL-2US12T        947.00     0          0          0          0
Node_15431539    945.60     0          0          0          0
PL4-MTKAt        945.00     0          0          0          0
Node_15411942    929.00     0          0          0          0
SB1-LLt          936.90     0          0          0          0
Node_15481549    936.03     0          0          0          0
SB2-BSRT         930.90     0          0          0          0
Node_15492215    930.88     0          0          0          0
WB2_RRt          928.71     0          0          0          0
Node_15571568    928.32     0          0          0          0
GB1-RRt          931.00     0          0          0          0
Node_15591572    930.50     0          0          0          0
GB2_GBBt         921.00     0          0          0          0
Node_15601942    921.00     0          0          0          0
WB2_CR16t        929.77     0          0          0          0
Node_15683763    929.90     0          0          0          0
GB1_CR16t        930.50     0          0          0          0
Node_15721942    930.00     0          0          0          0
RS1-KnBRt        953.70     0          0          0          0
Node_15761577    953.44     0          0          0          0
CRS2-RWt         952.50     0          0          0          0
Node_15771962    952.00     0          0          0          0
EU-2_NRdt        930.00     0          0          0          0
Node_15871586    929.59     0          0          0          0
EU-3_ERt         927.30     0          0          0          0
Node_15861960    927.14     0          0          0          0
CLC-5_BRdT       930.44     0          0          0          0
Node_16071605    929.89     0          0          0          0
CLC-5CVAvT       932.85     0          0          0          0
Node_16111609    931.83     0          0          0          0
CLC-5LLTrT       941.79     0          0          0          0
Node_16041613    941.16     0          0          0          0
CLC-4LStST       948.56     0          0          0          0
Node_16161604    947.73     0          0          0          0
CLC-4LStNT       959.22     0          0          0          0
Node_16191603    958.70     0          0          0          0
CLC-3WTeof       963.50     0          0          0          0
Node_16231621    962.56     0          0          0          0
CLC-2_RRT        969.09     0          0          0          0
Node_16251623    969.03     0          0          0          0
CLC-1_e12T       972.30     0          0          0          0
CLC-1_w12T       971.77     0          0          0          0
DL-1_NBRdT       949.50     0          0          0          0
Node_16421643    949.10     0          0          0          0
DL-3GFRdT        941.75     0          0          0          0
Node_16431645    941.17     0          0          0          0
DL-2GFRdT        943.56     0          0          0          0
Node_16441643    943.68     0          0          0          0
DL-6_GFRdT       955.47     0          0          0          0
Node_16401641    949.67     0          0          0          0
dl-7cr110t       932.09     0          0          0          0
Node_16562215    931.46     0          0          0          0
dl-7pdt          932.86     0          0          0          0
Node_16541656    932.80     0          0          0          0
LMC-3ADrT        952.50     0          0          0          0
Node_18451873    950.75     0          0          0          0
LMC-2ADrT        946.00     0          0          0          0
Node_18461848    945.80     0          0          0          0
LMC-1_PD_T       954.00     0          0          0          0
Node_18501846    954.00     0          0          0          0
LV-3wpondT       936.80     0          0          0          0
Node_18601879    934.40     0          0          0          0
LV-2US7T         933.50     0          0          0          0
Node_18611863    930.50     0          0          0          0
LV-6_SRdT        925.12     0          0          0          0
Node_18631960    926.00     0          0          0          0
LMC-9MPkT        945.40     0          0          0          0
Node_18661877    943.28     0          0          0          0
LV-5_LLT         0          0          0          0          0
Node_18701863    0          0          0          0          0
LMC-4PD_T        944.70     0          0          0          0
Node_18731848    944.55     0          0          0          0
LV-3FG_T         932.50     0          0          0          0
Node_18791861    932.00     0          0          0          0
LV-4MPwT         943.53     0          0          0          0
Node_18821883    943.62     0          0          0          0
LV-4US7T         939.01     0          0          0          0
Node_18861868    939.78     0          0          0          0
LV-4_PD1T        941.20     0          0          0          0
Node_18871889    0          0          0          0          0
LV-4_PD2T        934.42     0          0          0          0
Node_18811888    934.36     0          0          0          0
LV-4_PD3T        933.91     0          0          0          0
Node_18961898    933.58     0          0          0          0
LV-4_ATrT        931.63     0          0          0          0
Node_19041906    931.13     0          0          0          0
LV-4_PD0T        935.24     0          0          0          0
Node_19101911    934.82     0          0          0          0
SL-1_PDT         946.18     0          0          0          0
Node_19281930    946.04     0          0          0          0
HB-2CR110T       952.40     0          0          0          0
Node_19471948    951.17     0          0          0          0
HB-3_RR_T        933.00     0          0          0          0
Node_19481959    932.20     0          0          0          0
HB-4HDrT         927.60     0          0          0          0
Node_19591946    927.50     0          0          0          0
HB-5_RR_T        943.60     0          0          0          0
Node_19491950    942.70     0          0          0          0
HB-6HDrT         927.60     0          0          0          0
Node_19501946    927.40     0          0          0          0
HB-1HDrT         927.60     0          0          0          0
Node_19511946    927.10     0          0          0          0
LL-3wedgeT       936.48     0          0          0          0
Node_21712167    936.42     0          0          0          0
Node_110         931.60     0          0          0          0
Node_21672179    930.09     0          0          0          0
LL-2_rrT         946.99     0          0          0          0
Node_21772168    944.43     0          0          0          0
Node_21792182    929.90     0          0          0          0
Node_21672182    934.24     0          0          0          0
LL-3bermT        943.43     0          0          0          0
Node_21682185    943.62     0          0          0          0
RB-2NBvT         930.00     0          0          0          0
Node_21962195    930.00     0          0          0          0
MP-1MCrT         929.60     0          0          0          0
Node_21972195    929.20     0          0          0          0
EU-4BBRdt        929.97     0          0          0          0
EU-4_PAvc        929.60     0          0          0          0
GBdam_5-7        930.00     0          0          0          0
GBDam            930.00     0          0          0          0
LLC22HdrT        986.15     0          0          0          0
Node_26232544    982.21     0          0          0          0
LLC24LkrdT       943.43     0          0          0          0
Node_25462548    943.02     0          0          0          0
LLC10cr24T       994.70     0          0          0          0
Node_25502551    993.90     0          0          0          0
LLC11_MtrT       987.00     0          0          0          0
Node_25512625    984.40     0          0          0          0
LLC-14cr6T       952.00     0          0          0          0
Node_25572559    950.00     0          0          0          0
LLC-16_pdT       944.30     0          0          0          0
Node_25612548    942.56     0          0          0          0
LLC17cr6W        971.63     0          0          0          0
Node_25642548    971.06     0          0          0          0
LLC19cr6T        977.82     0          0          0          0
Node_25682546    975.91     0          0          0          0
LLC-7_TdrT       978.50     0          0          0          0
Node_25702571    978.00     0          0          0          0
LLC-8cr24T       972.90     0          0          0          0
Node_25712573    972.90     0          0          0          0
LLC-9_pdT        971.19     0          0          0          0
Node_25732627    970.79     0          0          0          0
LLC-2_pdT        982.85     0          0          0          0
Node_25772635    982.63     0          0          0          0
LLC-4_pdT        962.18     0          0          0          0
Node_25792637    962.37     0          0          0          0
LLC-6_trT        957.75     0          0          0          0
Node_25812639    957.61     0          0          0          0
LLC-5_trT        960.51     0          0          0          0
Node_25842581    960.39     0          0          0          0
LLC-3cr24T       973.40     0          0          0          0
Node_25862579    972.60     0          0          0          0
LLC-47BRdT       933.50     0          0          0          0
Node_28342838    931.70     0          0          0          0
LLC-50FStT       927.30     0          0          0          0
Node_25942850    927.30     0          0          0          0
Node_52          927.00     0          0          0          0
Node_25962598    927.00     0          0          0          0
LLC46_LLC2       937.50     0          0          0          0
Node_26002592    937.50     0          0          0          0
LLC-44ordT       953.95     0          0          0          0
Node_26022603    947.91     0          0          0          0
LLC-9ordT        947.00     0          0          0          0
Node_26032592    947.00     0          0          0          0
Node_51          931.50     0          0          0          0
Node_26142596    931.90     0          0          0          0
LLC-9DhrdT       968.51     0          0          0          0
Node_26282553    968.15     0          0          0          0
LLC-1_pdT        996.74     0          0          0          0
Node_26312632    997.12     0          0          0          0
LLC-2cr24T       986.00     0          0          0          0
Node_26352579    980.30     0          0          0          0
Node_53          921.40     0          0          0          0
Node_25981942    921.40     0          0          0          0
LLC-41RRC2       939.20     0          0          0          0
LLC-41RRT        938.50     0          0          0          0
LLC43ordC2       940.05     0          0          0          0
LLC43ordT        938.99     0          0          0          0
LLC-47BrT        935.09     0          0          0          0
Node_25922830    935.09     0          0          0          0
Node_50          932.59     0          0          0          0
Node_28382836    932.94     0          0          0          0
Node_28362839    931.27     0          0          0          0
Node_28392842    930.80     0          0          0          0
Node_28422843    929.18     0          0          0          0
Node_28432845    929.17     0          0          0          0
LLC-50PDT        929.17     0          0          0          0
Node_28452847    929.17     0          0          0          0
Node_28472594    929.15     0          0          0          0
LLC-50BrdT       927.30     0          0          0          0
Node_28502596    927.30     0          0          0          0
US12_Road        956.20     0          0          0          0
Node_29822985    955.22     0          0          0          0
pc-10cr6C2       955.24     0          0          0          0
pc-10_cr6T       955.15     0          0          0          0
pc-11cr19T       946.27     0          0          0          0
Node_29323002    945.90     0          0          0          0
pc-23pcdB        934.75     0          0          0          0
pc-23pcdT        934.25     0          0          0          0
pc-16_26T        953.90     0          0          0          0
Node_29412957    953.60     0          0          0          0
pc-24_wbT        931.59     0          0          0          0
Node_29623227    931.77     0          0          0          0
pc-2_pd1T        971.48     0          0          0          0
Node_29672969    971.20     0          0          0          0
pc-2_201T        971.51     0          0          0          0
Node_29702939    970.75     0          0          0          0
pc-3_bikeT       970.49     0          0          0          0
Node_29732974    970.51     0          0          0          0
pc-3_pd1T        970.78     0          0          0          0
Node_29752976    970.63     0          0          0          0
PC-8weir1        960.20     0          0          0          0
PC-8weir2        960.20     0          0          0          0
PC-8_RRT.1       958.06     0          0          0          0
Node_31832938    955.74     0          0          0          0
pc-9_pd2T        956.10     0          0          0          0
Node_29873187    955.61     0          0          0          0
pc-9_pd1T        955.68     0          0          0          0
Node_31882988    955.50     0          0          0          0
PC-8sbike        959.20     0          0          0          0
Node_29962994    958.14     0          0          0          0
pc-9weir1        0          0          0          0          0
pc-9weir2        0          0          0          0          0
pc-12cr6bT       942.96     0          0          0          0
Node_31952933    942.04     0          0          0          0
pc-13cr83T       941.16     0          0          0          0
Node_29333199    941.17     0          0          0          0
pc-14cr6aT       940.51     0          0          0          0
Node_30083010    940.57     0          0          0          0
pc-21wier2       0          0          0          0          0
Node_29403013    0          0          0          0          0
pc-21_pd1T       935.57     0          0          0          0
Node_30153017    935.45     0          0          0          0
pc-21cr26T       935.95     0          0          0          0
Node_30193021    935.44     0          0          0          0
pc-22937w1       0          0          0          0          0
pc-22937w2       0          0          0          0          0
pc-18_rdT        975.78     0          0          0          0
Node_30573034    974.30     0          0          0          0
pc-19luce2       960.58     0          0          0          0
pc-19luceT       959.92     0          0          0          0
pc-6_rdC2        977.83     0          0          0          0
pc-6_rdT         976.97     0          0          0          0
pc-20_rdT        938.86     0          0          0          0
Node_29342940    939.32     0          0          0          0
pc-17_rdT        989.63     0          0          0          0
Node_30372940    989.19     0          0          0          0
pc-21_rdT        979.74     0          0          0          0
Node_30332933    979.61     0          0          0          0
pc-15LuceB       940.20     0          0          0          0
pc-15LuceT       940.56     0          0          0          0
pc-26_110T       926.38     0          0          0          0
Node_32292215    926.26     0          0          0          0
PC-16PDT         953.44     0          0          0          0
Node_32123213    952.96     0          0          0          0
PC-24_FtT        932.05     0          0          0          0
Node_32333234    932.05     0          0          0          0
PC-26_BrT        929.04     0          0          0          0
Node_32413243    929.04     0          0          0          0
SMC-1pdT.1       961.43     0          0          0          0
Node_33823384    961.46     0          0          0          0
SMC-1CR43T       960.52     0          0          0          0
Node_33863320    958.73     0          0          0          0
SMC-2MLRdT       957.77     0          0          0          0
Node_33203654    956.59     0          0          0          0
SMC-3CR43T       957.31     0          0          0          0
Node_33213323    955.49     0          0          0          0
SMC-4_PDT        951.11     0          0          0          0
Node_33223657    951.52     0          0          0          0
SMC-5CR43T       941.41     0          0          0          0
Node_33923660    940.27     0          0          0          0
SMC-8CLBdT       948.95     0          0          0          0
Node_33243472    948.60     0          0          0          0
SMC-9_RdT        946.18     0          0          0          0
Node_33983330    945.39     0          0          0          0
SMC-11US5T       939.82     0          0          0          0
Node_33303336    939.31     0          0          0          0
SMC-12NStT       962.29     0          0          0          0
Node_33273328    960.80     0          0          0          0
SMC15CR11T       939.67     0          0          0          0
Node_34063336    939.75     0          0          0          0
SMC-16US7T       948.00     0          0          0          0
Node_33633361    947.00     0          0          0          0
SMC-21damT       943.00     0          0          0          0
Node_33643365    942.50     0          0          0          0
SMC-28US5T       942.00     0          0          0          0
Node_33343337    941.33     0          0          0          0
SMC-32pd1T       968.50     0          0          0          0
Node_33413340    967.14     0          0          0          0
SMC-34US5T       936.80     0          0          0          0
Node_33333338    936.00     0          0          0          0
SMC-36_TrT       930.56     0          0          0          0
Node_33383346    930.54     0          0          0          0
SMC-39_RRT       978.00     0          0          0          0
Node_33433344    978.67     0          0          0          0
SMC-40IRdT       963.00     0          0          0          0
Node_33443345    960.00     0          0          0          0
SMC-41PRdT       934.65     0          0          0          0
Node_34683347    934.27     0          0          0          0
SMC-61US7T       928.23     0          0          0          0
Node_33513502    925.70     0          0          0          0
SMC42CR30T       949.50     0          0          0          0
Node_33503348    940.60     0          0          0          0
SMC-43CRdT       931.04     0          0          0          0
Node_34793347    931.01     0          0          0          0
SMC-48eof        930.00     0          0          0          0
Node_33493351    929.45     0          0          0          0
SMC-24BikT       941.11     0          0          0          0
Node_33653367    940.95     0          0          0          0
SMC25CR11T       940.32     0          0          0          0
Node_33673336    939.43     0          0          0          0
SMC-22_PDT       939.86     0          0          0          0
Node_33693365    940.06     0          0          0          0
SMC-20damT       949.73     0          0          0          0
Node_33813364    949.60     0          0          0          0
SMC-30_TrT       973.00     0          0          0          0
Node_33593672    972.81     0          0          0          0
SMC-46GRdT       965.90     0          0          0          0
Node_34813347    965.70     0          0          0          0
SMC-50GRdT       932.30     0          0          0          0
Node_33543353    932.10     0          0          0          0
SMC-51_PDT       929.90     0          0          0          0
Node_33533352    929.80     0          0          0          0
SMC-52SRdT       927.20     0          0          0          0
Node_33523351    926.60     0          0          0          0
SMC-56MRdT       953.80     0          0          0          0
Node_34853487    953.10     0          0          0          0
Node_57          952.90     0          0          0          0
Node_33723373    952.90     0          0          0          0
SMC-58MStT       932.30     0          0          0          0
Node_35003374    931.90     0          0          0          0
Node_60          930.00     0          0          0          0
Node_33743351    929.75     0          0          0          0
Node_59          930.12     0          0          0          0
Node_33703374    930.32     0          0          0          0
SMC-62_PDT       936.00     0          0          0          0
Node_33783503    935.89     0          0          0          0
SMC-63_RRT       935.00     0          0          0          0
Node_33753505    934.50     0          0          0          0
Node_64          931.70     0          0          0          0
Node_33763424    931.13     0          0          0          0
Node_92          978.00     0          0          0          0
Node_33793380    978.00     0          0          0          0
Node_34543380    958.50     0          0          0          0
SMC-54_PDT       953.60     0          0          0          0
Node_33803457    953.30     0          0          0          0
SMC-55WAvT       946.77     0          0          0          0
Node_33773372    946.45     0          0          0          0
SMC-33LRdT       952.00     0          0          0          0
Node_34603463    950.64     0          0          0          0
SMC-41_PDT       935.63     0          0          0          0
Node_34703468    934.94     0          0          0          0
SMC-8_pdT        950.10     0          0          0          0
Node_34723325    950.00     0          0          0          0
Node_33793454    0          0          0          0          0
Node_33703500    940.70     0          0          0          0
SMC-54HRdT       954.10     0          0          0          0
Node_34573377    953.89     0          0          0          0
Node_56          957.80     0          0          0          0
Node_33713485    957.80     0          0          0          0
Node_34873488    945.60     0          0          0          0
Node_34883372    945.40     0          0          0          0
Node_33723491    943.20     0          0          0          0
Node_34913494    942.40     0          0          0          0
SMC-57_PDT       940.50     0          0          0          0
Node_34943495    940.60     0          0          0          0
Node_34953373    940.00     0          0          0          0
Node_58          940.00     0          0          0          0
Node_33733498    935.40     0          0          0          0
Node_34983500    934.30     0          0          0          0
SMC-62WAvT       935.00     0          0          0          0
Node_35033375    934.25     0          0          0          0
SMC-63HRdT       931.80     0          0          0          0
Node_35053424    931.58     0          0          0          0
Node_33763505    935.00     0          0          0          0
SMC-61HRdT       925.91     0          0          0          0
Node_35023424    925.91     0          0          0          0
Node_66          926.00     0          0          0          0
Node_34241946    926.00     0          0          0          0
Node_65          962.00     0          0          0          0
Node_35233424    935.00     0          0          0          0
SMC-11aRRT       939.90     0          0          0          0
Node_36603330    939.82     0          0          0          0
SMC-31PBrT       935.97     0          0          0          0
Node_36643670    935.97     0          0          0          0
WB-1_RRt         925.60     0          0          0          0
Node_37043702    925.50     0          0          0          0
WB1PONDt         924.00     0          0          0          0
Node_37023763    927.50     0          0          0          0
GLC-1_101T       970.00     0          0          0          0
Node_37663767    970.00     0          0          0          0
GLC10_19Cw       958.00     0          0          0          0
GLC-10_19T       957.75     0          0          0          0
GLC-11WBT        932.13     0          0          0          0
Node_37733791    924.00     0          0          0          0
GLC-5_TrT        952.92     0          0          0          0
Node_37653769    951.78     0          0          0          0
GLC-8_BLnT       943.69     0          0          0          0
Node_37783771    943.44     0          0          0          0
HL-3_FRdT        960.72     0          0          0          0
Node_37793776    960.00     0          0          0          0
Node_337         952.33     0          0          0          0
Node_37883769    947.35     0          0          0          0
GLC10US12W       935.20     0          0          0          0
Node_37953841    934.61     0          0          0          0
GLC10_101b       933.70     0          0          0          0
Node_38393847    934.10     0          0          0          0

[OUTFALLS]
;;Name           Elev       Type       Stage      Gated
;;-------------- ---------- ---------- ---------- -----
Node_14661962    928.47     FREE                  NO

[STORAGE]
;;Name           Elev       MaxDepth   InitDepth  Shape      Curve/Params
;;-------------- ---------- ---------- ---------- ---------- ----------
CLC-4PondS       970.00     30.00      0          FUNCTIONAL 1000.00 0          0
CLC-4PondN       982.00     18.00      0          FUNCTIONAL 1000.00 0          0
CLC-3WTMH        982.00     10.00      0          FUNCTIONAL 28.27 0          0
DL-6             975.00     25.00      0          FUNCTIONAL 1000.00 0          0
DL-1             971.00     29.00      0          FUNCTIONAL 1000.00 0          0
DL-3             971.00     29.00      0          FUNCTIONAL 1000.00 0          0
DL-2             960.00     40.00      0          FUNCTIONAL 1000.00 0          0
DL-4             966.00     34.00      1.01       FUNCTIONAL 1000.00 0          0
DL-5             961.00     39.00      2.11       FUNCTIONAL 1000.00 0          0
SL-1riser        1000.00    10.00      0          FUNCTIONAL 7.07 0          0
LLC-21           2000.00    10.00      2.20       FUNCTIONAL 1000.00 0          0
LLC-26           1016.25    10.00      0          FUNCTIONAL 1000.00 0          0
LLC-26pond       1014.50    10.00      0          FUNCTIONAL 1000.00 0          0
West             1014.50    10.00      0          FUNCTIONAL 1000.00 0          0
East             1014.50    10.00      0          FUNCTIONAL 1000.00 0          0
LLC-27           1008.00    10.00      2.11       FUNCTIONAL 1000.00 0          0
LLC-35           982.50     10.00      0          FUNCTIONAL 1000.00 0          0
LLC-36           961.83     10.00      0          FUNCTIONAL 1000.00 0          0
LLC-32           1002.76    10.00      0          FUNCTIONAL 1000.00 0          0
LLC-31           1000.65    10.00      0          FUNCTIONAL 1000.00 0          0
LLC-33           990.81     10.00      0          FUNCTIONAL 1000.00 0          0
LLC-37           978.00     10.00      4.00       FUNCTIONAL 1000.00 0          0
LLC-34           985.89     10.00      0          FUNCTIONAL 1000.00 0          0
PC-13            958.00     42.00      1.03       FUNCTIONAL 1000.00 0          0
PC-22            960.10     10.00      0.44       FUNCTIONAL 1000.00 0          0
PC-8             987.00     13.00      4.20       FUNCTIONAL 1000.00 0          0
PC-9             982.00     18.00      9.00       FUNCTIONAL 1000.00 0          0
PC-21            998.50     10.00      0          FUNCTIONAL 1000.00 0          0
PC-16            970.00     10.00      0          FUNCTIONAL 1000.00 0          0
PC-4             990.00     10.00      0          FUNCTIONAL 1000.00 0          0
PC-5             980.00     20.00      0          FUNCTIONAL 1000.00 0          0
PC-23FN4         959.75     10.00      0          FUNCTIONAL 13.00 0          0
PC-21_2          943.50     10.00      8.00       FUNCTIONAL 28.27 0          0
PC-21_3          935.91     10.00      8.91       FUNCTIONAL 50.27 0          0
PC-6             985.11     14.89      0.36       FUNCTIONAL 1000.00 0          0
PC-17_2          992.06     10.00      0          FUNCTIONAL 18.80 0          0
PC-1             1000.00    10.00      0          FUNCTIONAL 1000.00 0          0
SMC-37_2         936.70     10.00      0.12       FUNCTIONAL 76.00 0          0
GLC-5_2          1000.00    10.00      0          FUNCTIONAL 12.57 0          0

[CONDUITS]
;;Name           From             To               Length     Roughness  InOffset   OutOffset  InitFlow   MaxFlow
;;-------------- ---------------- ---------------- ---------- ---------- ---------- ---------- ---------- ----------
TB-1_CR19c       TB-1_CR19t       Node_14661962    750.00     0.0230     930.00     928.47     0          0
SLL1HWY7c        LL1HWY7t         Node_14761962    774.00     0.0130     931.10     923.76     0          0
CL3-RRdt         CL3-RRdc         Node_14931494    100.00     0.0140     935.00     935.00     0          0
CL1-PBc          CL1-PBt          Node_14961495    100.00     0.0240     954.00     953.00     0          0
CL5-HWY7c        CL5-HWY7t        Node_15051962    266.00     0.0140     928.35     928.60     0          0
CL-5_CLRc        CL-5_CLRt        Node_15071505    100.00     0.0240     930.57     930.07     0          0
BB4-CR15c        BB4-CR15t        Node_15112596    100.00     0.2000     933.00     933.00     0          0
BB3-RAc          BB3-RAt          Node_15121513    50.00      0.0240     930.00     930.00     0          0
BB4_RRc          BB4_RRt          Node_15111521    100.00     0.0200     931.70     931.40     0          0
BB4-CR15p        BB4-CR15o        Node_15211515    33.00      0.0240     929.00     930.30     0          0
FL-1CR19C        FL-1CR19T        Node_15261527    135.00     0.0130     940.00     939.93     0          0
FL3CR19CH        FL3CR19BR        Node_15272215    33.00      0.0140     921.60     921.60     0          0
FR-NSDc          FR-NSDt          Node_15342215    100.00     0.0240     930.50     930.00     0          0
PL-1WBvC         PL-1WBvT         Node_15381539    700.00     0.0240     955.00     951.50     0          0
PL-3RRc          PL-3RRt          Node_15391541    75.00      0.0230     942.00     942.16     0          0
PL-2US12C        PL-2US12T        Node_15431539    280.00     0.0130     947.00     945.60     0          0
PL4-MTKAch       PL4-MTKAt        Node_15411942    30.00      0.0140     945.00     929.00     0          0
SB1-LLc          SB1-LLt          Node_15481549    80.00      0.0140     936.90     936.03     0          0
SB2-BSRC.1       SB2-BSRT         Node_15492215    52.00      0.0140     930.90     930.88     0          0
WB2_RRc          WB2_RRt          Node_15571568    85.50      0.0240     928.71     928.32     0          0
GB1_RRc          GB1-RRt          Node_15591572    100.00     0.0240     931.00     930.50     0          0
GB2_GBBch        GB2_GBBt         Node_15601942    130.00     0.0140     921.00     921.00     0          0
WB2_CR16c        WB2_CR16t        Node_15683763    60.00      0.0240     929.77     929.90     0          0
GB1_CR16c        GB1_CR16t        Node_15721942    100.00     0.0240     930.50     930.00     0          0
CRS1-KnBRc       RS1-KnBRt        Node_15761577    260.00     0.0130     953.70     953.44     0          0
CRS2-RWc         CRS2-RWt         Node_15771962    100.00     0.0240     952.50     952.00     0          0
EU-2_NRdc        EU-2_NRdt        Node_15871586    82.00      0.0120     930.00     929.59     0          0
EU-3_ERc         EU-3_ERt         Node_15861960    32.00      0.0140     927.30     927.14     0          0
CLC-5_BRdC       CLC-5_BRdT       Node_16071605    60.00      0.0240     930.44     929.89     0          0
CLC-5CVAvC       CLC-5CVAvT       Node_16111609    40.00      0.0240     932.85     931.83     0          0
CLC-5LLTrC       CLC-5LLTrT       Node_16041613    102.00     0.0240     941.79     941.16     0          0
CLC-4LStSC       CLC-4LStST       Node_16161604    83.00      0.0140     948.56     947.73     0          0
CLC-4LStNC       CLC-4LStNT       Node_16191603    72.00      0.0140     959.22     958.70     0          0
CLC-3WTent       CLC-3WTeof       Node_16231621    5.00       0.0140     963.50     962.56     0          0
CLC-2_RRC        CLC-2_RRT        Node_16251623    90.00      0.0140     969.09     969.03     0          0
CLC-1_e12C       CLC-1_e12T       CLC-1_w12T       77.00      0.0140     972.30     971.77     0          0
DL-1_NBRdC       DL-1_NBRdT       Node_16421643    70.00      0.0240     949.50     949.10     0          0
DL-3GFRdC        DL-3GFRdT        Node_16431645    85.00      0.0240     941.75     941.17     0          0
DL-2GFRdC        DL-2GFRdT        Node_16441643    48.00      0.0140     943.56     943.68     0          0
DL-6_GFRdC       DL-6_GFRdT       Node_16401641    77.00      0.0240     955.47     949.67     0          0
dl-7cr110c       dl-7cr110t       Node_16562215    87.00      0.0240     932.09     931.46     0          0
dl-7pd1c         dl-7pdt          Node_16541656    32.00      0.0240     932.86     932.80     0          0
LMC-3ADrC        LMC-3ADrT        Node_18451873    110.00     0.0130     952.50     950.75     0          0
LMC-2ADrC        LMC-2ADrT        Node_18461848    50.00      0.0130     946.00     945.80     0          0
LMC-1_PD_C       LMC-1_PD_T       Node_18501846    20.00      0.0130     954.00     954.00     0          0
LV-3wpondC       LV-3wpondT       Node_18601879    300.00     0.0300     936.80     934.40     0          0
LV-2US7C         LV-2US7T         Node_18611863    110.00     0.0240     933.50     930.50     0          0
LV-6_SRdC        LV-6_SRdT        Node_18631960    60.00      0.0140     925.12     926.00     0          0
LMC-9MPkC        LMC-9MPkT        Node_18661877    270.00     0.0130     945.40     943.28     0          0
LV-5_LLC         LV-5_LLT         Node_18701863    33.00      0.0130     0          0          0          0
LMC-4PD_C        LMC-4PD_T        Node_18731848    30.00      0.0140     944.70     944.55     0          0
LV-3FG_C         LV-3FG_T         Node_18791861    40.00      0.0240     932.50     932.00     0          0
LV-4MPwC         LV-4MPwT         Node_18821883    65.00      0.0350     943.53     943.62     0          0
LV-4US7C         LV-4US7T         Node_18861868    50.00      0.0130     939.01     939.78     0          0
LV-4_PD1C        LV-4_PD1T        Node_18871889    33.00      0.0140     941.20     0          0          0
LV-4_PD2C        LV-4_PD2T        Node_18811888    40.00      0.0220     934.42     934.36     0          0
LV-4_PD3C        LV-4_PD3T        Node_18961898    25.00      0.0220     933.91     933.58     0          0
LV-4_ATrC        LV-4_ATrT        Node_19041906    20.00      0.0220     931.63     931.13     0          0
LV-4_PD0C        LV-4_PD0T        Node_19101911    25.00      0.0220     935.24     934.82     0          0
SL-1_PDC         SL-1_PDT         Node_19281930    20.00      0.0140     946.18     946.04     0          0
HB-2CR110C       HB-2CR110T       Node_19471948    116.00     0.0140     952.40     951.17     0          0
HB-3_RR_C        HB-3_RR_T        Node_19481959    80.00      0.0140     933.00     932.20     0          0
HB-4HDrC         HB-4HDrT         Node_19591946    50.00      0.0270     927.60     927.50     0          0
HB-5_RR_C        HB-5_RR_T        Node_19491950    52.00      0.0140     943.60     942.70     0          0
HB-6HDrC         HB-6HDrT         Node_19501946    40.00      0.0240     927.60     927.40     0          0
HB-1HDrC         HB-1HDrT         Node_19511946    57.00      0.0240     927.60     927.10     0          0
LL-3wedgeC       LL-3wedgeT       Node_21712167    40.00      0.0240     936.48     936.42     0          0
LL-5CR110a       Node_110         Node_21672179    14.00      0.0140     931.60     930.09     0          0
LL-2_rrC         LL-2_rrT         Node_21772168    50.00      0.0140     946.99     944.43     0          0
LL-5CR110b       Node_110         Node_21792182    66.00      0.0140     930.09     929.90     0          0
LL-5CR110T       Node_110         Node_21672182    50.00      0.0140     934.24     934.24     0          0
LL-3bermC        LL-3bermT        Node_21682185    30.00      0.0240     943.43     943.62     0          0
RB-2NBvC         RB-2NBvT         Node_21962195    100.00     0.0130     930.00     930.00     0          0
MP-1MCrC         MP-1MCrT         Node_21972195    80.00      0.0240     929.60     929.20     0          0
EU-4BBRdc        EU-4BBRdt        EU-4_PAvc        132.00     0.0140     929.97     929.60     0          0
LLC22HdrC        LLC22HdrT        Node_26232544    75.00      0.0140     986.15     982.21     0          0
LLC24LkrdC       LLC24LkrdT       Node_25462548    32.00      0.0130     943.43     943.02     0          0
LLC10cr24C       LLC10cr24T       Node_25502551    84.00      0.0240     994.70     993.90     0          0
LLC11_MtrC       LLC11_MtrT       Node_25512625    250.00     0.0140     987.00     984.40     0          0
LLC-14cr6C       LLC-14cr6T       Node_25572559    108.00     0.0140     952.00     950.00     0          0
LLC-16_pdC       LLC-16_pdT       Node_25612548    40.00      0.0240     944.30     942.56     0          0
LLC17cr6C        LLC17cr6W        Node_25642548    87.00      0.0240     971.63     971.06     0          0
LLC19cr6C        LLC19cr6T        Node_25682546    130.00     0.0240     977.82     975.91     0          0
LLC-7_TdrC       LLC-7_TdrT       Node_25702571    80.00      0.0240     978.50     978.00     0          0
LLC-8cr24C       LLC-8cr24T       Node_25712573    88.00      0.0240     972.90     972.90     0          0
LLC-9_pdC        LLC-9_pdT        Node_25732627    47.00      0.0240     971.19     970.79     0          0
LLC-2_pdC        LLC-2_pdT        Node_25772635    50.00      0.0240     982.85     982.63     0          0
LLC-4_pdC        LLC-4_pdT        Node_25792637    12.00      0.0240     962.18     962.37     0          0
LLC-6_trC        LLC-6_trT        Node_25812639    18.00      0.0240     957.75     957.61     0          0
LLC-5_trC        LLC-5_trT        Node_25842581    15.00      0.0140     960.51     960.39     0          0
LLC-3cr24C       LLC-3cr24T       Node_25862579    92.00      0.0240     973.40     972.60     0          0
LLC-47BRdC       LLC-47BRdT       Node_28342838    228.00     0.0140     933.50     931.70     0          0
LLC-50FStB       LLC-50FStT       Node_25942850    50.00      0.0300     927.30     927.30     0          0
LLC-52           Node_52          Node_25962598    50.00      0.0300     927.00     927.00     0          0
LLC46_LLC1       LLC46_LLC2       Node_26002592    61.00      0.0240     937.50     937.50     0          0
LLC-44ordC       LLC-44ordT       Node_26022603    225.00     0.0140     953.95     947.91     0          0
LLC-9ordC        LLC-9ordT        Node_26032592    30.00      0.0140     947.00     947.00     0          0
LLC-51BrRd       Node_51          Node_26142596    60.00      0.0240     931.50     931.90     0          0
LLC-9DhrdC       LLC-9DhrdT       Node_26282553    60.00      0.0240     968.51     968.15     0          0
LLC-1_pdC        LLC-1_pdT        Node_26312632    40.00      0.0140     996.74     997.12     0          0
LLC-2cr24C       LLC-2cr24T       Node_26352579    200.00     0.0240     986.00     980.30     0          0
LLC-53cr15       Node_53          Node_25981942    40.00      0.0200     921.40     921.40     0          0
LLC-41RRC1       LLC-41RRC2       LLC-41RRT        300.00     0.0140     939.20     938.50     0          0
LLC43ordC1       LLC43ordC2       LLC43ordT        125.00     0.0240     940.05     938.99     0          0
LLC-47BrC        LLC-47BrT        Node_25922830    4.00       0.0140     935.09     935.09     0          0
LLC-50nc1        Node_50          Node_28382836    77.00      0.0140     932.59     932.94     0          0
LLC-50n1.2       Node_50          Node_28362839    285.00     0.0140     932.94     931.27     0          0
LLC-50nc2        Node_50          Node_28392842    168.00     0.0140     931.27     930.80     0          0
LLC-50nc3        Node_50          Node_28422843    832.00     0.0140     930.80     929.18     0          0
LLC-50nc4        Node_50          Node_28432845    140.00     0.0140     929.18     929.17     0          0
LLC-50PDC        LLC-50PDT        Node_28452847    5.00       0.0140     929.17     929.17     0          0
LLC-50n4.2       Node_50          Node_28472594    370.00     0.0140     929.17     929.15     0          0
LLC-50BrdC       LLC-50BrdT       Node_28502596    50.00      0.0300     927.30     927.30     0          0
PC-8_US12C       US12_Road        Node_29822985    63.00      0.0140     956.20     955.22     0          0
pc-10cr6C1       pc-10cr6C2       pc-10_cr6T       191.00     0.0130     955.24     955.15     0          0
pc-11cr19C       pc-11cr19T       Node_29323002    42.00      0.0140     946.27     945.90     0          0
pc-23pcdA        pc-23pcdB        pc-23pcdT        69.00      0.0240     934.75     934.25     0          0
pc-16_26C        pc-16_26T        Node_29412957    55.00      0.0240     953.90     953.60     0          0
pc-24_wbC        pc-24_wbT        Node_29623227    81.00      0.0240     931.59     931.77     0          0
pc-2_pd1C        pc-2_pd1T        Node_29672969    25.00      0.0240     971.48     971.20     0          0
pc-2_201C        pc-2_201T        Node_29702939    55.00      0.0240     971.51     970.75     0          0
pc-3_bikeC       pc-3_bikeT       Node_29732974    16.00      0.0240     970.49     970.51     0          0
pc-3_pd1C        pc-3_pd1T        Node_29752976    45.00      0.0240     970.78     970.63     0          0
PC-8_RRC.1       PC-8_RRT.1       Node_31832938    85.00      0.0300     958.06     955.74     0          0
pc-9_pd2C        pc-9_pd2T        Node_29873187    50.00      0.0140     956.10     955.61     0          0
pc-9_pd1C        pc-9_pd1T        Node_31882988    62.00      0.0140     955.68     955.50     0          0
PC-8_CMPA        PC-8sbike        Node_29962994    48.00      0.0240     959.20     958.14     0          0
pc-12cr6bC       pc-12cr6bT       Node_31952933    122.00     0.0140     942.96     942.04     0          0
pc-13cr83C       pc-13cr83T       Node_29333199    84.00      0.0140     941.16     941.17     0          0
pc-14cr6aC       pc-14cr6aT       Node_30083010    120.00     0.0140     940.51     940.57     0          0
pc-21_pd1C       pc-21_pd1T       Node_30153017    45.00      0.0140     935.57     935.45     0          0
pc-21cr26C       pc-21cr26T       Node_30193021    46.00      0.0140     935.95     935.44     0          0
pc-18_rdC        pc-18_rdT        Node_30573034    150.00     0.0140     975.78     974.30     0          0
pc-19luce1       pc-19luce2       pc-19luceT       78.00      0.0240     960.58     959.92     0          0
pc-6_rdC1        pc-6_rdC2        pc-6_rdT         64.00      0.1000     977.83     976.97     0          0
pc-20_rdC2       pc-20_rdT        Node_29342940    58.00      0.0240     938.86     939.32     0          0
pc-17_cow        pc-17_rdT        Node_30372940    39.00      0.0140     989.63     989.19     0          0
pc-21_rdC        pc-21_rdT        Node_30332933    51.00      0.0240     979.74     979.61     0          0
pc-15LuceA       pc-15LuceB       pc-15LuceT       75.50      0.0240     940.20     940.56     0          0
pc-26_110C       pc-26_110T       Node_32292215    113.00     0.0140     926.38     926.26     0          0
PC-16PDC         PC-16PDT         Node_32123213    71.00      0.0140     953.44     952.96     0          0
PC-24_FtB        PC-24_FtT        Node_32333234    9.00       0.0140     932.05     932.05     0          0
PC-26_BrB        PC-26_BrT        Node_32413243    12.00      0.0140     929.04     929.04     0          0
SMC-1pdC.1       SMC-1pdT.1       Node_33823384    43.00      0.0240     961.43     961.46     0          0
SMC-1CR43C       SMC-1CR43T       Node_33863320    80.00      0.0140     960.52     958.73     0          0
SMC-2MLRdC       SMC-2MLRdT       Node_33203654    104.00     0.0240     957.77     956.59     0          0
SMC-3CR43C       SMC-3CR43T       Node_33213323    75.00      0.0240     957.31     955.49     0          0
SMC-4_PDC        SMC-4_PDT        Node_33223657    40.00      0.0240     951.11     951.52     0          0
SMC-5CR43C       SMC-5CR43T       Node_33923660    58.00      0.0240     941.41     940.27     0          0
SMC-8CLBdC       SMC-8CLBdT       Node_33243472    70.00      0.0140     948.95     948.60     0          0
SMC-9_RdC        SMC-9_RdT        Node_33983330    360.00     0.0140     946.18     945.39     0          0
SMC-11US5C       SMC-11US5T       Node_33303336    80.00      0.0140     939.82     939.31     0          0
SMC-12NStC       SMC-12NStT       Node_33273328    115.00     0.0140     962.29     960.80     0          0
SMC15CR11C       SMC15CR11T       Node_34063336    98.00      0.0240     939.67     939.75     0          0
SMC-16US7C       SMC-16US7T       Node_33633361    131.00     0.0240     948.00     947.00     0          0
SMC-21damC       SMC-21damT       Node_33643365    60.00      0.0140     943.00     942.50     0          0
SMC-28US5C       SMC-28US5T       Node_33343337    135.00     0.0140     942.00     941.33     0          0
SMC-32pd1C       SMC-32pd1T       Node_33413340    40.00      0.0120     968.50     967.14     0          0
SMC-34US5C       SMC-34US5T       Node_33333338    160.00     0.0140     936.80     936.00     0          0
SMC-36_TrC       SMC-36_TrT       Node_33383346    25.00      0.0240     930.56     930.54     0          0
SMC-39_RRC       SMC-39_RRT       Node_33433344    30.00      0.0240     978.00     978.67     0          0
SMC-40IRdC       SMC-40IRdT       Node_33443345    100.00     0.0240     963.00     960.00     0          0
SMC-41PRdC       SMC-41PRdT       Node_34683347    80.00      0.0240     934.65     934.27     0          0
SMC-61US7C       SMC-61US7T       Node_33513502    63.00      0.0300     928.23     925.70     0          0
SMC42CR30C       SMC42CR30T       Node_33503348    135.00     0.0140     949.50     940.60     0          0
SMC-43CRdC       SMC-43CRdT       Node_34793347    60.00      0.0240     931.04     931.01     0          0
SMC-48CRdC       SMC-48eof        Node_33493351    110.00     0.0240     930.00     929.45     0          0
SMC-24BikC       SMC-24BikT       Node_33653367    36.80      0.0240     941.11     940.95     0          0
SMC25CR11C       SMC25CR11T       Node_33673336    115.00     0.0130     940.32     939.43     0          0
SMC-22_PDC       SMC-22_PDT       Node_33693365    50.00      0.0240     939.86     940.06     0          0
SMC-20damC       SMC-20damT       Node_33813364    80.00      0.0140     949.73     949.60     0          0
SMC-30_TrC       SMC-30_TrT       Node_33593672    38.00      0.0240     973.00     972.81     0          0
SMC-46GRdC       SMC-46GRdT       Node_34813347    35.00      0.0240     965.90     965.70     0          0
SMC-50GRdC       SMC-50GRdT       Node_33543353    37.00      0.0220     932.30     932.10     0          0
SMC-51_PDC       SMC-51_PDT       Node_33533352    25.00      0.0240     929.90     929.80     0          0
SMC-52SRdC       SMC-52SRdT       Node_33523351    27.00      0.0240     927.20     926.60     0          0
SMC-56MRdC       SMC-56MRdT       Node_34853487    50.00      0.0240     953.80     953.10     0          0
SMC-57eof        Node_57          Node_33723373    100.00     0.0140     952.90     952.90     0          0
SMC-58MStC       SMC-58MStT       Node_35003374    106.00     0.0130     932.30     931.90     0          0
SMC-60           Node_60          Node_33743351    50.00      0.0140     930.00     929.75     0          0
SMC-59           Node_59          Node_33703374    180.00     0.0240     930.12     930.32     0          0
SMC-62_PDC       SMC-62_PDT       Node_33783503    22.00      0.0240     936.00     935.89     0          0
SMC-63_RRC       SMC-63_RRT       Node_33753505    100.00     0.0140     935.00     934.50     0          0
SMC-64HRdC       Node_64          Node_33763424    114.00     0.0240     931.70     931.13     0          0
SMC53cr92T       Node_92          Node_33793380    50.00      0.0130     978.00     978.00     0          0
SMC-53subT       Node_53          Node_34543380    1500.00    0.0140     966.00     958.50     0          0
SMC-54_PDC       SMC-54_PDT       Node_33803457    55.00      0.0240     953.60     953.30     0          0
SMC-55WAvC       SMC-55WAvT       Node_33773372    50.00      0.0140     946.77     946.45     0          0
SMC-33LRdC       SMC-33LRdT       Node_34603463    70.00      0.0240     952.00     950.64     0          0
SMC-41_PDC       SMC-41_PDT       Node_34703468    35.00      0.0240     935.63     934.94     0          0
SMC-8_pdC        SMC-8_pdT        Node_34723325    20.00      0.0240     950.10     950.00     0          0
SMC-59eof        Node_59          Node_33703500    25.00      0.0140     940.70     940.70     0          0
SMC-54HRdC       SMC-54HRdT       Node_34573377    42.00      0.0240     954.10     953.89     0          0
477.1            Node_56          Node_33713485    20.00      0.0140     957.80     957.80     0          0
SMC-56nat2       Node_56          Node_34873488    2874.00    0.0140     953.10     945.60     0          0
SMC-56           Node_56          Node_34883372    150.00     0.0140     945.60     945.40     0          0
SMC-57           Node_57          Node_33723491    127.00     0.0140     943.50     943.20     0          0
SMC-57nat1       Node_57          Node_34913494    190.00     0.0140     943.20     942.40     0          0
SMC-57_PDC       SMC-57_PDT       Node_34943495    25.00      0.0240     940.50     940.60     0          0
SMC-57nat2       Node_57          Node_34953373    3321.00    0.0140     940.60     940.00     0          0
SMC-58nat        Node_58          Node_33733498    420.00     0.0140     940.00     935.40     0          0
SMC-58_PDC       Node_58          Node_34983500    100.00     0.0240     934.95     934.30     0          0
SMC-62WAvC       SMC-62WAvT       Node_35033375    150.00     0.0240     935.00     934.25     0          0
SMC-63HRdC       SMC-63HRdT       Node_35053424    44.00      0.0240     931.80     931.58     0          0
SMC-64eof        Node_64          Node_33763505    20.00      0.0140     935.00     935.00     0          0
SMC-61HRdC       SMC-61HRdT       Node_35023424    32.00      0.0140     925.91     925.91     0          0
SMC-66           Node_66          Node_34241946    30.00      0.0140     926.00     926.00     0          0
SMC-65           Node_65          Node_35233424    2000.00    0.0140     962.00     935.00     0          0
SMC-11aRRC       SMC-11aRRT       Node_36603330    50.00      0.0240     939.90     939.82     0          0
SMC-31PBrC       SMC-31PBrT       Node_36643670    10.00      0.0140     935.97     935.97     0          0
WB1-RRc          WB-1_RRt         Node_37043702    35.00      0.0140     925.60     925.50     0          0
WB1PONDc         WB1PONDt         Node_37023763    40.00      0.0240     924.00     927.50     0          0
GLC-1_101C       GLC-1_101T       Node_37663767    80.00      0.0140     970.00     970.00     0          0
GLC10_19Ce       GLC10_19Cw       GLC-10_19T       82.00      0.0140     958.00     957.75     0          0
GLC-11_WBC       GLC-11WBT        Node_37733791    471.00     0.0140     932.13     924.00     0          0
GLC-5Tr_C        GLC-5_TrT        Node_37653769    114.00     0.0140     952.92     951.78     0          0
GLC-8_BLnC       GLC-8_BLnT       Node_37783771    80.00      0.0240     943.69     943.44     0          0
HL-3_FRdC        HL-3_FRdT        Node_37793776    88.00      0.0140     960.72     960.00     0          0
GLC-3_6          Node_337         Node_37883769    970.00     0.0140     952.33     947.35     0          0
GLC10US12E       GLC10US12W       Node_37953841    505.00     0.0140     935.20     934.61     0          0
GLC10_101a       GLC10_101b       Node_38393847    220.00     0.0140     933.70     934.10     0          0

[ORIFICES]
;;Name           From             To               Type       Offset     Qcoeff     Gated    CloseTime
;;-------------- ---------------- ---------------- ---------- ---------- ---------- -------- ----------
notch            PC-8weir1        PC-8weir2        SIDE       960.20     0.650      NO       0
pc-9orific       pc-9weir1        pc-9weir2        SIDE       0          0.650      NO       0
pc-22p937o       pc-22937w1       pc-22937w2       SIDE       0          0.650      NO       0
open_tile        Node_53          Node_33793454    SIDE       0          0.650      NO       0

[WEIRS]
;;Name           From             To               Type       CrestHt    Qcoeff     Gated    EndCon   EndCoeff   Surcharge
;;-------------- ---------------- ---------------- ---------- ---------- ---------- -------- -------- ---------- ----------
GBw              GBdam_5-7        GBDam            TRANSVERSE 930.00     1.840      NO       0        0          YES
pc-21wier1       pc-21wier2       Node_29403013    TRANSVERSE 940.55     1.840      NO       0        0          YES

[XSECTIONS]
;;Link           Shape        Geom1      Geom2      Geom3      Geom4      Barrels
;;-------------- ------------ ---------- ---------- ---------- ---------- ----------
TB-1_CR19c       CIRCULAR     3.00       0          0          0          1
SLL1HWY7c        CIRCULAR     2.25       0          0          0          1
CL3-RRdt         TRAPEZOIDAL  1.00       10.00      2          2          1
CL1-PBc          CIRCULAR     3.00       0          0          0          1
CL5-HWY7c        CIRCULAR     2.20       0          0          0          1
CL-5_CLRc        CIRCULAR     3.00       0          0          0          1
BB4-CR15c        TRAPEZOIDAL  7.00       10.00      2          2          1
BB3-RAc          CIRCULAR     1.25       0          0          0          1
BB4_RRc          CIRCULAR     1.33       0          0          0          1
BB4-CR15p        CIRCULAR     1.50       0          0          0          1
FL-1CR19C        CIRCULAR     3.00       0          0          0          1
FL3CR19CH        TRAPEZOIDAL  23.40      4.20       1          1          1
FR-NSDc          CIRCULAR     3.00       0          0          0          1
PL-1WBvC         CIRCULAR     4.50       0          0          0          1
PL-3RRc          CIRCULAR     3.00       0          0          0          1
PL-2US12C        CIRCULAR     3.50       0          0          0          1
PL4-MTKAch       TRAPEZOIDAL  5.00       10.00      2          2          1
SB1-LLc          CIRCULAR     3.00       0          0          0          1
SB2-BSRC.1       CIRCULAR     3.00       0          0          0          1
WB2_RRc          CIRCULAR     3.00       0          0          0          1
GB1_RRc          CIRCULAR     3.00       0          0          0          1
GB2_GBBch        TRAPEZOIDAL  25.00      9.50       1          1          1
WB2_CR16c        CIRCULAR     1.50       0          0          0          1
GB1_CR16c        CIRCULAR     2.00       0          0          0          1
CRS1-KnBRc       CIRCULAR     1.50       0          0          0          1
CRS2-RWc         CIRCULAR     1.75       0          0          0          1
EU-2_NRdc        HORSESHOE    2.73       0          0          0          4
EU-3_ERc         CIRCULAR     2.00       0          0          0          2
CLC-5_BRdC       CIRCULAR     4.00       0          0          0          1
CLC-5CVAvC       CIRCULAR     4.00       0          0          0          1
CLC-5LLTrC       CIRCULAR     4.00       0          0          0          1
CLC-4LStSC       CIRCULAR     4.00       0          0          0          1
CLC-4LStNC       CIRCULAR     3.00       0          0          0          1
CLC-3WTent       CIRCULAR     1.25       0          0          0          1
CLC-2_RRC        CIRCULAR     3.00       0          0          0          1
CLC-1_e12C       CIRCULAR     3.00       0          0          0          1
DL-1_NBRdC       CIRCULAR     2.50       0          0          0          1
DL-3GFRdC        CIRCULAR     3.50       0          0          0          1
DL-2GFRdC        CIRCULAR     3.00       0          0          0          1
DL-6_GFRdC       CIRCULAR     2.50       0          0          0          1
dl-7cr110c       CIRCULAR     4.00       0          0          0          1
dl-7pd1c         CIRCULAR     4.00       0          0          0          1
LMC-3ADrC        CIRCULAR     1.50       0          0          0          1
LMC-2ADrC        CIRCULAR     5.00       0          0          0          1
LMC-1_PD_C       CIRCULAR     1.25       0          0          0          1
LV-3wpondC       CIRCULAR     1.50       0          0          0          1
LV-2US7C         CIRCULAR     3.00       0          0          0          1
LV-6_SRdC        TRAPEZOIDAL  5.00       10.00      2          2          1
LMC-9MPkC        CIRCULAR     3.50       0          0          0          1
LV-5_LLC         TRAPEZOIDAL  1.00       10.00      2          2          1
LMC-4PD_C        CIRCULAR     2.25       0          0          0          1
LV-3FG_C         CIRCULAR     1.50       0          0          0          1
LV-4MPwC         RECT_CLOSED  4.00       6.00       0          0          1
LV-4US7C         RECT_CLOSED  6.00       6.00       0          0          1
LV-4_PD1C        CIRCULAR     3.00       0          0          0          1
LV-4_PD2C        CIRCULAR     3.00       0          0          0          1
LV-4_PD3C        CIRCULAR     3.00       0          0          0          1
LV-4_ATrC        CIRCULAR     3.00       0          0          0          1
LV-4_PD0C        CIRCULAR     3.00       0          0          0          1
SL-1_PDC         CIRCULAR     3.33       0          0          0          1
HB-2CR110C       CIRCULAR     2.50       0          0          0          1
HB-3_RR_C        CIRCULAR     3.00       0          0          0          1
HB-4HDrC         HORSESHOE    3.33       0          0          0          1
HB-5_RR_C        CIRCULAR     3.00       0          0          0          1
HB-6HDrC         HORSESHOE    3.00       0          0          0          1
HB-1HDrC         CIRCULAR     2.75       0          0          0          1
LL-3wedgeC       CIRCULAR     2.25       0          0          0          1
LL-5CR110a       HORSESHOE    1.88       0          0          0          1
LL-2_rrC         CIRCULAR     3.50       0          0          0          1
LL-5CR110b       HORSESHOE    2.60       0          0          0          1
LL-5CR110T       TRAPEZOIDAL  1.00       10.00      2          2          1
LL-3bermC        CIRCULAR     1.00       0          0          0          1
RB-2NBvC         CIRCULAR     1.00       0          0          0          1
MP-1MCrC         CIRCULAR     1.50       0          0          0          1
EU-4BBRdc        CIRCULAR     1.00       0          0          0          1
LLC22HdrC        CIRCULAR     1.25       0          0          0          1
LLC24LkrdC       RECT_CLOSED  5.00       5.00       0          0          1
LLC10cr24C       CIRCULAR     2.00       0          0          0          1
LLC11_MtrC       CIRCULAR     2.00       0          0          0          1
LLC-14cr6C       CIRCULAR     4.00       0          0          0          1
LLC-16_pdC       CIRCULAR     4.00       0          0          0          1
LLC17cr6C        CIRCULAR     3.00       0          0          0          1
LLC19cr6C        CIRCULAR     4.50       0          0          0          1
LLC-7_TdrC       CIRCULAR     2.00       0          0          0          1
LLC-8cr24C       CIRCULAR     3.00       0          0          0          1
LLC-9_pdC        CIRCULAR     4.00       0          0          0          1
LLC-2_pdC        CIRCULAR     3.00       0          0          0          1
LLC-4_pdC        CIRCULAR     3.00       0          0          0          1
LLC-6_trC        CIRCULAR     3.00       0          0          0          1
LLC-5_trC        CIRCULAR     1.00       0          0          0          1
LLC-3cr24C       CIRCULAR     2.00       0          0          0          1
LLC-47BRdC       CIRCULAR     5.00       0          0          0          1
LLC-50FStB       RECT_CLOSED  4.50       20.00      0          0          1
LLC-52           TRAPEZOIDAL  6.00       46.00      1          1          1
LLC46_LLC1       CIRCULAR     2.00       0          0          0          1
LLC-44ordC       CIRCULAR     1.25       0          0          0          1
LLC-9ordC        TRAPEZOIDAL  1.00       10.00      2          2          1
LLC-51BrRd       CIRCULAR     3.50       0          0          0          1
LLC-9DhrdC       CIRCULAR     3.00       0          0          0          1
LLC-1_pdC        CIRCULAR     2.00       0          0          0          1
LLC-2cr24C       CIRCULAR     3.00       0          0          0          1
LLC-53cr15       TRAPEZOIDAL  18.00      21.00      1          1          1
LLC-41RRC1       RECT_CLOSED  6.00       8.00       0          0          1
LLC43ordC1       CIRCULAR     4.00       0          0          0          1
LLC-47BrC        TRAPEZOIDAL  3.25       10.00      2          2          1
LLC-50nc1        TRAPEZOIDAL  1.00       10.00      2          2          1
LLC-50n1.2       TRAPEZOIDAL  1.00       10.00      2          2          1
LLC-50nc2        TRAPEZOIDAL  1.00       10.00      2          2          1
LLC-50nc3        TRAPEZOIDAL  1.00       10.00      2          2          1
LLC-50nc4        TRAPEZOIDAL  1.00       10.00      2          2          1
LLC-50PDC        TRAPEZOIDAL  3.28       10.00      2          2          1
LLC-50n4.2       TRAPEZOIDAL  1.00       10.00      2          2          1
LLC-50BrdC       RECT_CLOSED  4.50       20.00      0          0          1
PC-8_US12C       RECT_CLOSED  4.00       6.00       0          0          1
pc-10cr6C1       HORSESHOE    4.50       0          0          0          1
pc-11cr19C       RECT_CLOSED  4.00       10.00      0          0          1
pc-23pcdA        CIRCULAR     1.50       0          0          0          1
pc-16_26C        CIRCULAR     2.30       10.00      0          0          1
pc-24_wbC        HORSESHOE    5.25       0          0          0          1
pc-2_pd1C        CIRCULAR     4.00       0          0          0          1
pc-2_201C        CIRCULAR     4.00       0          0          0          1
pc-3_bikeC       CIRCULAR     4.00       0          0          0          1
pc-3_pd1C        CIRCULAR     4.00       0          0          0          1
PC-8_RRC.1       RECT_CLOSED  8.50       10.00      0          0          1
pc-9_pd2C        CIRCULAR     2.00       0          0          0          1
pc-9_pd1C        CIRCULAR     1.50       0          0          0          1
PC-8_CMPA        HORSESHOE    2.50       0          0          0          1
pc-12cr6bC       HORSESHOE    6.40       0          0          0          1
pc-13cr83C       HORSESHOE    7.25       0          0          0          1
pc-14cr6aC       HORSESHOE    7.25       0          0          0          1
pc-21_pd1C       RECT_CLOSED  7.00       11.00      0          0          1
pc-21cr26C       RECT_CLOSED  8.00       10.00      0          0          1
pc-18_rdC        CIRCULAR     2.00       0          0          0          1
pc-19luce1       CIRCULAR     6.00       0          0          0          1
pc-6_rdC1        CIRCULAR     0.83       0          0          0          1
pc-20_rdC2       CIRCULAR     3.00       0          0          0          1
pc-17_cow        RECT_CLOSED  6.00       6.00       0          0          1
pc-21_rdC        CIRCULAR     1.50       0          0          0          1
pc-15LuceA       CIRCULAR     8.30       0          0          0          1
pc-26_110C       HORSESHOE    8.00       0          0          0          1
PC-16PDC         CIRCULAR     3.50       0          0          0          1
PC-24_FtB        TRAPEZOIDAL  5.60       10.00      2          2          1
PC-26_BrB        TRAPEZOIDAL  6.11       10.00      2          2          1
SMC-1pdC.1       CIRCULAR     3.00       0          0          0          1
SMC-1CR43C       HORSESHOE    3.00       0          0          0          1
SMC-2MLRdC       CIRCULAR     2.50       0          0          0          1
SMC-3CR43C       CIRCULAR     3.00       0          0          0          1
SMC-4_PDC        CIRCULAR     2.00       0          0          0          1
SMC-5CR43C       CIRCULAR     4.00       0          0          0          1
SMC-8CLBdC       CIRCULAR     2.50       0          0          0          1
SMC-9_RdC        CIRCULAR     2.00       0          0          0          1
SMC-11US5C       RECT_CLOSED  6.00       6.00       0          0          1
SMC-12NStC       CIRCULAR     4.00       0          0          0          1
SMC15CR11C       CIRCULAR     3.00       0          0          0          1
SMC-16US7C       CIRCULAR     2.50       0          0          0          1
SMC-21damC       CIRCULAR     1.00       0          0          0          1
SMC-28US5C       CIRCULAR     3.50       0          0          0          1
SMC-32pd1C       CIRCULAR     2.00       0          0          0          1
SMC-34US5C       CIRCULAR     4.00       0          0          0          1
SMC-36_TrC       CIRCULAR     2.00       0          0          0          1
SMC-39_RRC       CIRCULAR     1.50       0          0          0          1
SMC-40IRdC       CIRCULAR     3.00       0          0          0          1
SMC-41PRdC       CIRCULAR     3.00       0          0          0          1
SMC-61US7C       TRAPEZOIDAL  9.30       30.00      2          2          1
SMC42CR30C       CIRCULAR     3.00       0          0          0          1
SMC-43CRdC       CIRCULAR     2.70       0          0          0          1
SMC-48CRdC       CIRCULAR     2.00       0          0          0          1
SMC-24BikC       CIRCULAR     3.00       0          0          0          1
SMC25CR11C       CIRCULAR     1.50       0          0          0          1
SMC-22_PDC       CIRCULAR     2.50       0          0          0          1
SMC-20damC       CIRCULAR     1.00       0          0          0          1
SMC-30_TrC       CIRCULAR     2.00       0          0          0          1
SMC-46GRdC       CIRCULAR     3.00       0          0          0          1
SMC-50GRdC       CIRCULAR     2.50       0          0          0          1
SMC-51_PDC       CIRCULAR     2.00       0          0          0          1
SMC-52SRdC       CIRCULAR     2.50       0          0          0          1
SMC-56MRdC       CIRCULAR     1.25       0          0          0          1
SMC-57eof        TRAPEZOIDAL  1.00       10.00      2          2          1
SMC-58MStC       CIRCULAR     3.50       0          0          0          1
SMC-60           CIRCULAR     3.00       0          0          0          1
SMC-59           CIRCULAR     2.00       0          0          0          1
SMC-62_PDC       CIRCULAR     2.00       0          0          0          1
SMC-63_RRC       CIRCULAR     3.00       0          0          0          1
SMC-64HRdC       CIRCULAR     1.25       0          0          0          1
SMC53cr92T       TRAPEZOIDAL  1.00       10.00      2          2          1
SMC-53subT       CIRCULAR     0.83       0          0          0          1
SMC-54_PDC       CIRCULAR     2.50       0          0          0          1
SMC-55WAvC       RECT_CLOSED  3.00       4.00       0          0          1
SMC-33LRdC       CIRCULAR     3.00       0          0          0          1
SMC-41_PDC       CIRCULAR     6.00       0          0          0          1
SMC-8_pdC        CIRCULAR     3.00       0          0          0          1
SMC-59eof        TRAPEZOIDAL  1.00       10.00      2          2          1
SMC-54HRdC       CIRCULAR     2.50       0          0          0          1
477.1            TRAPEZOIDAL  1.00       10.00      2          2          1
SMC-56nat2       TRAPEZOIDAL  1.00       10.00      2          2          1
SMC-56           CIRCULAR     2.50       0          0          0          1
SMC-57           CIRCULAR     4.00       0          0          0          1
SMC-57nat1       TRAPEZOIDAL  1.00       10.00      2          2          1
SMC-57_PDC       CIRCULAR     3.50       0          0          0          1
SMC-57nat2       TRAPEZOIDAL  1.00       10.00      2          2          1
SMC-58nat        TRAPEZOIDAL  1.00       10.00      2          2          1
SMC-58_PDC       CIRCULAR     4.00       0          0          0          1
SMC-62WAvC       CIRCULAR     2.00       0          0          0          1
SMC-63HRdC       CIRCULAR     2.50       0          0          0          1
SMC-64eof        TRAPEZOIDAL  1.00       10.00      2          2          1
SMC-61HRdC       TRAPEZOIDAL  8.00       10.00      2          2          1
SMC-66           TRAPEZOIDAL  9.00       10.00      2          2          1
SMC-65           TRAPEZOIDAL  1.00       10.00      2          2          1
SMC-11aRRC       CIRCULAR     5.00       0          0          0          1
SMC-31PBrC       TRAPEZOIDAL  2.58       10.00      2          2          1
WB1-RRc          CIRCULAR     5.00       0          0          0          2
WB1PONDc         CIRCULAR     3.00       0          0          0          3
GLC-1_101C       CIRCULAR     1.25       0          0          0          1
GLC10_19Ce       HORSESHOE    1.88       0          0          0          1
GLC-11_WBC       CIRCULAR     6.00       0          0          0          1
GLC-5Tr_C        CIRCULAR     3.00       0          0          0          1
GLC-8_BLnC       HORSESHOE    1.70       0          0          0          1
HL-3_FRdC        CIRCULAR     2.00       0          0          0          1
GLC-3_6          CIRCULAR     3.00       0          0          0          1
GLC10US12E       HORSESHOE    3.00       0          0          0          1
GLC10_101a       CIRCULAR     4.00       0          0          0          1
notch            RECT_CLOSED  0.67       0.67       0          0
pc-9orific       RECT_CLOSED  0.75       0.75       0          0
pc-22p937o       RECT_CLOSED  1.50       1.50       0          0
open_tile        RECT_CLOSED  0.45       0.45       0          0
GBw              RECT_OPEN    1.00       202.00     0          0
pc-21wier1       RECT_OPEN    1.00       12.00      0          0

[LOSSES]
;;Link           Inlet      Outlet     Average    Flap Gate
;;-------------- ---------- ---------- ---------- ----------
TB-1_CR19c       0          0          0          NO
SLL1HWY7c        0          0          0          NO
CL3-RRdt         0          0          0          NO
CL1-PBc          0          0          0          NO
CL5-HWY7c        0          0          0          NO
CL-5_CLRc        0          0          0          NO
BB4-CR15c        0          0          0          NO
BB3-RAc          0          0          0          NO
BB4_RRc          0          0          0          NO
BB4-CR15p        0          0          0          NO
FL-1CR19C        0          0          0          NO
FL3CR19CH        0          0          0          NO
FR-NSDc          0          0          0          NO
PL-1WBvC         0          0          0          NO
PL-3RRc          0          0          0          NO
PL-2US12C        0          0          0          NO
PL4-MTKAch       0          0          0          NO
SB1-LLc          0          0          0          NO
SB2-BSRC.1       0          0          0          NO
WB2_RRc          0          0          0          NO
GB1_RRc          0          0          0          NO
GB2_GBBch        0          0          0          NO
WB2_CR16c        0          0          0          NO
GB1_CR16c        0          0          0          NO
CRS1-KnBRc       0          0          0          NO
CRS2-RWc         0          0          0          NO
EU-2_NRdc        0          0          0          NO
EU-3_ERc         0          0          0          NO
CLC-5_BRdC       0          0          0          NO
CLC-5CVAvC       0          0          0          NO
CLC-5LLTrC       0          0          0          NO
CLC-4LStSC       0          0          0          NO
CLC-4LStNC       0          0          0          NO
CLC-3WTent       0          0          0          NO
CLC-2_RRC        0          0          0          NO
CLC-1_e12C       0          0          0          NO
DL-1_NBRdC       0          0          0          NO
DL-3GFRdC        0          0          0          NO
DL-2GFRdC        0          0          0          NO
DL-6_GFRdC       0          0          0          NO
dl-7cr110c       0          0          0          NO
dl-7pd1c         0          0          0          NO
LMC-3ADrC        0          0          0          NO
LMC-2ADrC        0          0          0          NO
LMC-1_PD_C       0          0          0          NO
LV-3wpondC       0          0          0          NO
LV-2US7C         0          0          0          NO
LV-6_SRdC        0          0          0          NO
LMC-9MPkC        0          0          0          NO
LV-5_LLC         0          0          0          NO
LMC-4PD_C        0          0          0          NO
LV-3FG_C         0          0          0          NO
LV-4MPwC         0          0          0          NO
LV-4US7C         0          0          0          NO
LV-4_PD1C        0          0          0          NO
LV-4_PD2C        0          0          0          NO
LV-4_PD3C        0          0          0          NO
LV-4_ATrC        0          0          0          NO
LV-4_PD0C        0          0          0          NO
SL-1_PDC         0          0          0          NO
HB-2CR110C       0          0          0          NO
HB-3_RR_C        0          0          0          NO
HB-4HDrC         0          0          0          NO
HB-5_RR_C        0          0          0          NO
HB-6HDrC         0          0          0          NO
HB-1HDrC         0          0          0          NO
LL-3wedgeC       0          0          0          NO
LL-5CR110a       0          0          0          NO
LL-2_rrC         0          0          0          NO
LL-5CR110b       0          0          0          NO
LL-5CR110T       0          0          0          NO
LL-3bermC        0          0          0          NO
RB-2NBvC         0          0          0          NO
MP-1MCrC         0          0          0          NO
EU-4BBRdc        0          0          0          NO
LLC22HdrC        0          0          0          NO
LLC24LkrdC       0          0          0          NO
LLC10cr24C       0          0          0          NO
LLC11_MtrC       0          0          0          NO
LLC-14cr6C       0          0          0          NO
LLC-16_pdC       0          0          0          NO
LLC17cr6C        0          0          0          NO
LLC19cr6C        0          0          0          NO
LLC-7_TdrC       0          0          0          NO
LLC-8cr24C       0          0          0          NO
LLC-9_pdC        0          0          0          NO
LLC-2_pdC        0          0          0          NO
LLC-4_pdC        0          0          0          NO
LLC-6_trC        0          0          0          NO
LLC-5_trC        0          0          0          NO
LLC-3cr24C       0          0          0          NO
LLC-47BRdC       0          0          0          NO
LLC-50FStB       0          0          0          NO
LLC-52           0          0          0          NO
LLC46_LLC1       0          0          0          NO
LLC-44ordC       0          0          0          NO
LLC-9ordC        0          0          0          NO
LLC-51BrRd       0          0          0          NO
LLC-9DhrdC       0          0          0          NO
LLC-1_pdC        0          0          0          NO
LLC-2cr24C       0          0          0          NO
LLC-53cr15       0          0          0          NO
LLC-41RRC1       0          0          0          NO
LLC43ordC1       0          0          0          NO
LLC-47BrC        0          0          0          NO
LLC-50nc1        0          0          0          NO
LLC-50n1.2       0          0          0          NO
LLC-50nc2        0          0          0          NO
LLC-50nc3        0          0          0          NO
LLC-50nc4        0          0          0          NO
LLC-50PDC        0          0          0          NO
LLC-50n4.2       0          0          0          NO
LLC-50BrdC       0          0          0          NO
PC-8_US12C       0          0          0          NO
pc-10cr6C1       0          0          0          NO
pc-11cr19C       0          0          0          NO
pc-23pcdA        0          0          0          NO
pc-16_26C        0          0          0          NO
pc-24_wbC        0          0          0          NO
pc-2_pd1C        0          0          0          NO
pc-2_201C        0          0          0          NO
pc-3_bikeC       0          0          0          NO
pc-3_pd1C        0          0          0          NO
PC-8_RRC.1       0          0          0          NO
pc-9_pd2C        0          0          0          NO
pc-9_pd1C        0          0          0          NO
PC-8_CMPA        0          0          0          NO
pc-12cr6bC       0          0          0          NO
pc-13cr83C       0          0          0          NO
pc-14cr6aC       0          0          0          NO
pc-21_pd1C       0          0          0          NO
pc-21cr26C       0          0          0          NO
pc-18_rdC        0          0          0          NO
pc-19luce1       0          0          0          NO
pc-6_rdC1        0          0          0          NO
pc-20_rdC2       0          0          0          NO
pc-17_cow        0          0          0          NO
pc-21_rdC        0          0          0          NO
pc-15LuceA       0          0          0          NO
pc-26_110C       0          0          0          NO
PC-16PDC         0          0          0          NO
PC-24_FtB        0          0          0          NO
PC-26_BrB        0          0          0          NO
SMC-1pdC.1       0          0          0          NO
SMC-1CR43C       0          0          0          NO
SMC-2MLRdC       0          0          0          NO
SMC-3CR43C       0          0          0          NO
SMC-4_PDC        0          0          0          NO
SMC-5CR43C       0          0          0          NO
SMC-8CLBdC       0          0          0          NO
SMC-9_RdC        0          0          0          NO
SMC-11US5C       0          0          0          NO
SMC-12NStC       0          0          0          NO
SMC15CR11C       0          0          0          NO
SMC-16US7C       0          0          0          NO
SMC-21damC       0          0          0          NO
SMC-28US5C       0          0          0          NO
SMC-32pd1C       0          0          0          NO
SMC-34US5C       0          0          0          NO
SMC-36_TrC       0          0          0          NO
SMC-39_RRC       0          0          0          NO
SMC-40IRdC       0          0          0          NO
SMC-41PRdC       0          0          0          NO
SMC-61US7C       0          0          0          NO
SMC42CR30C       0          0          0          NO
SMC-43CRdC       0          0          0          NO
SMC-48CRdC       0          0          0          NO
SMC-24BikC       0          0          0          NO
SMC25CR11C       0          0          0          NO
SMC-22_PDC       0          0          0          NO
SMC-20damC       0          0          0          NO
SMC-30_TrC       0          0          0          NO
SMC-46GRdC       0          0          0          NO
SMC-50GRdC       0          0          0          NO
SMC-51_PDC       0          0          0          NO
SMC-52SRdC       0          0          0          NO
SMC-56MRdC       0          0          0          NO
SMC-57eof        0          0          0          NO
SMC-58MStC       0          0          0          NO
SMC-60           0          0          0          NO
SMC-59           0          0          0          NO
SMC-62_PDC       0          0          0          NO
SMC-63_RRC       0          0          0          NO
SMC-64HRdC       0          0          0          NO
SMC53cr92T       0          0          0          NO
SMC-53subT       0          0          0          NO
SMC-54_PDC       0          0          0          NO
SMC-55WAvC       0          0          0          NO
SMC-33LRdC       0          0          0          NO
SMC-41_PDC       0          0          0          NO
SMC-8_pdC        0          0          0          NO
SMC-59eof        0          0          0          NO
SMC-54HRdC       0          0          0          NO
477.1            0          0          0          NO
SMC-56nat2       0          0          0          NO
SMC-56           0          0          0          NO
SMC-57           0          0          0          NO
SMC-57nat1       0          0          0          NO
SMC-57_PDC       0          0          0          NO
SMC-57nat2       0          0          0          NO
SMC-58nat        0          0          0          NO
SMC-58_PDC       0          0          0          NO
SMC-62WAvC       0          0          0          NO
SMC-63HRdC       0          0          0          NO
SMC-64eof        0          0          0          NO
SMC-61HRdC       0          0          0          NO
SMC-66           0          0          0          NO
SMC-65           0          0          0          NO
SMC-11aRRC       0          0          0          NO
SMC-31PBrC       0          0          0          NO
WB1-RRc          0          0          0          NO
WB1PONDc         0          0          0          NO
GLC-1_101C       0          0          0          NO
GLC10_19Ce       0          0          0          NO
GLC-11_WBC       0          0          0          NO
GLC-5Tr_C        0          0          0          NO
GLC-8_BLnC       0          0          0          NO
HL-3_FRdC        0          0          0          NO
GLC-3_6          0          0          0          NO
GLC10US12E       0          0          0          NO
GLC10_101a       0          0          0          NO

[INFLOWS]
;;Node           Constituent  Time Series      Type     Mfactor  Sfactor  Baseline Pattern
;;-------------- ------------ ---------------- -------- -------- -------- -------- --------
LM-all           FLOW         ""               FLOW     1.0      1.0      250.00
LLC-41           FLOW         ""               FLOW     1.0      1.0      1.60
LLC-6            FLOW         ""               FLOW     1.0      1.0      1.60
LLC-47           FLOW         ""               FLOW     1.0      1.0      1.60
LLC-52           FLOW         ""               FLOW     1.0      1.0      1.60
PC-13            FLOW         ""               FLOW     1.0      1.0      3.00
PC-22            FLOW         ""               FLOW     1.0      1.0      3.00
PC-8             FLOW         ""               FLOW     1.0      1.0      3.00
PC-21            FLOW         ""               FLOW     1.0      1.0      3.00
SMC-27           FLOW         ""               FLOW     1.0      1.0      2.80
SMC-37           FLOW         ""               FLOW     1.0      1.0      2.80
SMC-47           FLOW         ""               FLOW     1.0      1.0      2.80
SMC-61           FLOW         ""               FLOW     1.0      1.0      2.80

[COORDINATES]
;;Node           X-Coord            Y-Coord
;;-------------- ------------------ ------------------
GL-1             -4971135.49        454968.55         
GL-1_2           -4971694.88        455053.74         
GL1-POND         -4971409.73        455514.27         
TB-1             -4971388.86        454532.05         
ML-1             -4971181.24        453805.48         
SLL-1            -4971220.86        455967.87         
SLL-1_2          -4971730.26        455874.94         
GL-1_3           -4970737.94        454992.61         
ML-1_2           -4970992.68        453898.69         
SLL-1_3          -4971473.57        456112.42         
LW-1             -4973450.59        457148.42         
LW-1_2           -4973118.83        457189.85         
CL-3             -4972020.66        457350.52         
CL-4             -4971848.27        457596.39         
CL-5             -4971190.05        457127.68         
CL-1             -4969965.94        456506.98         
CL-2             -4970841.13        456365.78         
CL-1_2           -4970027.82        455910.20         
Hwy7             -4972611.36        456474.23         
CL-5_2           -4971545.11        456876.55         
BB-4             -4978839.20        455780.49         
BB-3             -4979083.95        456290.41         
BB-1             -4979223.58        456787.94         
BB-2             -4978827.29        456832.26         
BB-4_2           -4978403.28        456389.30         
BB-4.1           -4978651.50        455982.82         
FL-1             -4978683.92        448815.93         
FL-3             -4977849.15        450112.24         
FL-2             -4979022.97        449527.04         
FR               -4978209.80        453794.55         
PL-1             -4980175.14        458315.94         
PL-3             -4979548.25        457997.63         
PL-4             -4979162.46        457916.82         
PL-2             -4979921.68        457651.74         
SB-1             -4980707.29        450451.75         
SB-2             -4979845.03        450937.29         
WB-2.2           -4979168.94        460693.18         
GB-1.1           -4978859.47        461409.91         
GB-2             -4976714.43        461211.15         
MC-10            -4976657.41        461756.09         
WB-2             -4978923.82        460678.84         
WB-2.1           -4979387.89        460654.16         
GB               -4978567.12        461408.68         
CRS-1            -4972775.88        457600.17         
CRS-2            -4973325.90        457558.84         
CRS-1_2          -4972365.31        457809.79         
CRS-2_2          -4973044.47        458042.77         
EU-3             -4971778.69        450977.72         
EU-2             -4971427.90        451625.53         
EU-1             -4970986.13        451846.42         
EU-4             -4972325.58        452542.16         
EU-1_2           -4971245.79        451934.78         
CLC-4            -4980011.24        452570.83         
CLC-5            -4979748.92        452336.86         
CLC-5_2          -4979003.52        451716.72         
CLC-5_3          -4979213.95        451736.94         
CLC-5_4          -4979216.46        452075.27         
CLC-5_5          -4979369.25        452289.67         
CLC-5_6          -4979534.31        452356.17         
CLC-4PondS       -4979752.61        452605.36         
CLC-4PondN       -4980070.11        452311.80         
CLC-3WTMH        -4980402.07        452117.13         
CLC-3            -4980885.94        452264.03         
CLC-2            -4981148.10        452236.06         
CLC-1            -4981916.23        452193.22         
CLC-5a           -4982683.77        452175.61         
CLC-5a_2         -4981554.82        452229.93         
DL-6             -4977845.17        446825.21         
DL-7             -4977470.98        446814.36         
DL-1             -4978840.83        445662.37         
DL-3             -4977846.71        445284.15         
DL-2             -4977433.66        444481.26         
DL-4             -4976853.47        445138.68         
DL-5             -4976626.83        445624.37         
DL-7_2           -4977069.50        447085.57         
DL-7_3           -4977081.00        447315.68         
DL-7_4           -4977382.30        446992.87         
DL-5_2           -4976628.16        445877.15         
DL-5_3           -4976616.44        446110.32         
DL-5_4           -4976596.08        446390.82         
DL-5_5           -4976767.08        446563.66         
DL-5_6           -4976970.19        446517.16         
DL-5_7           -4977137.68        446577.74         
DL-5_8           -4977305.87        446678.87         
DL-7_5           -4977225.34        447012.59         
LMC-3            -4967390.70        450909.49         
LMC-2            -4966984.16        451647.57         
LMC-10           -4969921.68        452360.57         
LMC-1            -4966900.47        452149.75         
LMC-5            -4968681.50        452882.37         
LMC-6            -4969975.41        453755.22         
LMC-7            -4970594.59        453551.95         
LMC-8            -4970930.46        452930.20         
LV-3             -4969353.19        449427.14         
LV-2             -4969234.47        449965.69         
LV-6             -4969955.88        449942.92         
LMC-9            -4968893.47        450655.98         
LV-4             -4970496.92        451256.70         
LV-5             -4969542.50        450353.57         
LMC-4            -4967737.45        450885.57         
LV-1             -4968179.31        450120.33         
LMC-9_2          -4969143.49        451202.40         
LV-3epond        -4969246.34        449687.07         
LV-4_2           -4970210.61        450914.38         
LV-4_3           -4970231.02        451743.86         
LV-4_4           -4970379.54        451578.67         
LV-4_5           -4970496.30        451451.36         
LV-4_6           -4970385.82        450984.76         
LV-4_7           -4970106.76        450826.65         
LV-4_8           -4970291.04        450948.74         
LMC-10_2         -4970113.78        451962.82         
LV-4_9           -4970005.30        450775.80         
LV-4_10          -4969899.76        450707.56         
LV-4_11          -4969773.79        450625.28         
LV-4_12          -4969729.28        450474.31         
LV-4_13          -4969810.56        450392.81         
LV-4_14          -4969869.08        450260.75         
LV-4_15          -4970564.61        451178.81         
LV-4_16          -4970478.31        451004.05         
SL-1             -4966774.40        449473.51         
SL-2             -4967550.54        449545.15         
SL-3             -4968326.64        449288.43         
SL-4             -4969661.38        448614.87         
SL-4_2           -4969946.32        448480.51         
SL-4_3           -4970489.43        448807.89         
SL-1riser        -4967086.92        449476.69         
LM-all           -4977907.84        460821.02         
HB-LM            -4973152.08        445100.40         
HB-2             -4974393.86        442515.20         
HB-3             -4973987.45        443374.09         
HB-5             -4973392.21        442546.96         
HB-6             -4973458.56        443681.15         
HB-1             -4973592.33        444480.76         
HB-4             -4973729.00        443871.52         
Upper-DN         -4975138.70        451971.86         
SLL-LM           -4976562.88        455777.11         
LL-5             -4975230.37        446956.97         
LL-3             -4974934.04        445307.80         
LL-1             -4975384.41        444626.03         
LL-3_2           -4975205.84        446434.54         
LL-4             -4975485.60        445818.76         
LL-2             -4975252.34        445274.94         
LL-5CR110m       -4975395.00        447179.15         
LST-1            -4975304.72        447674.72         
LL-3_3           -4975197.35        446003.14         
LL-3_4           -4974992.09        445817.76         
LL-1_2           -4974958.96        444773.85         
RB-1             -4976518.65        459804.49         
RB-3             -4976691.31        459145.03         
RB-LM            -4976883.37        458552.91         
RB-2             -4976012.13        459138.83         
MP-1             -4977280.36        459134.99         
GL-1.1           -4971141.68        455419.91         
CB-DN            -4976864.39        452887.19         
Temp             -4975285.45        461769.20         
LLC-22           -4981811.26        458209.80         
LLC-23           -4981435.19        458085.73         
LLC-24           -4981548.15        457441.88         
LLC-41           -4981450.57        456066.22         
LLC-10           -4984249.16        458262.97         
LLC-11           -4983529.37        457382.09         
LLC-12           -4983161.71        455853.96         
LLC-13           -4982723.13        455666.39         
LLC-14           -4982175.28        455509.88         
LLC-15           -4981963.99        455644.33         
LLC-16           -4981826.20        456113.15         
LLC-17           -4982343.82        456522.00         
LLC-18           -4982427.79        456880.49         
LLC-19           -4981157.34        457608.59         
LLC-7            -4984373.23        455728.42         
LLC-8            -4984373.23        456712.11         
LLC-9            -4983792.71        456363.22         
LLC-1            -4986054.30        453128.51         
LLC-2            -4985265.57        452675.86         
LLC-4            -4984598.99        453304.60         
LLC-6            -4982911.28        454706.47         
LLC-5            -4983531.34        455272.44         
LLC-3            -4984975.31        453614.68         
LLC-25           -4981920.36        454160.62         
LLC-43           -4980777.48        455710.92         
LLC-47           -4980121.00        454973.56         
LLC-50           -4979282.13        454302.75         
LLC-52           -4978372.26        455155.05         
LLC-53           -4978021.04        455738.26         
LLC-46           -4979564.97        455207.84         
LLC-44           -4979600.42        456116.96         
LLC-45           -4980266.65        455715.18         
LLC-42           -4980725.98        456097.65         
LLC-39           -4980646.15        455063.77         
LLC-48           -4980025.80        454311.63         
LLC-38           -4981165.60        454911.08         
LLC-51           -4978381.26        454418.72         
LLC-49           -4979285.28        454810.91         
LLC-25_2         -4981914.41        454649.08         
LLC-25mh1        -4981907.30        455018.71         
LLC-22_2         -4981637.27        458152.42         
LLC-11_2         -4983921.82        456954.37         
LLC-9_2          -4983567.74        456231.65         
LLC-9_3          -4983354.32        456134.64         
LLC-1pond        -4985828.03        453185.59         
LLC-1_2          -4985604.91        453001.27         
LLC-2_2          -4985008.31        452967.32         
LLC-4_2          -4983306.02        454174.25         
LLC-6_2          -4982665.56        455119.72         
LLC-38_2         -4981035.58        454963.07         
LLC-38s          -4981313.26        455657.89         
LLC-45_2         -4980072.53        455489.04         
LLC-41_2         -4981346.69        456076.52         
LLC-41_3         -4981246.33        456075.90         
LLC-41_4         -4981140.68        456068.05         
LLC-41_5         -4980855.37        455887.08         
LLC-43_2         -4980371.31        455354.96         
LLC-47_2         -4980334.63        455288.95         
LLC-43_3         -4980627.13        455490.31         
LLC-43_4         -4980516.47        455448.96         
LLC-43FN1        -4980702.51        455672.08         
LLC-43_5         -4980429.00        455410.77         
LLC-41_6         -4981139.99        455973.16         
LLC-41_7         -4981088.89        455963.98         
LLC-41_8         -4981028.91        455950.37         
LLC-41_9         -4980984.69        455938.51         
LLC-47_3         -4980332.17        455225.11         
LLC-47_4         -4980336.09        455136.80         
LLC-20           -4983125.07        459071.23         
LLC-21           -4982103.91        458953.83         
LLC-20mh1        -4982820.74        459075.58         
LLC-26           -4981479.42        453493.62         
LLC-26pond       -4981371.51        453494.04         
West             -4981372.96        453392.98         
East             -4981372.03        453604.46         
LLC-27           -4981182.16        453494.97         
LLC-28           -4980975.32        453771.07         
LLC-30           -4980976.89        453838.55         
LLC-30_2         -4980932.12        454326.62         
LLC-35           -4980978.52        454493.33         
LLC-36           -4981065.32        454611.51         
LLC-38_3         -4981133.19        454642.87         
LLC-32           -4980712.63        453971.35         
LLC-31           -4980722.70        453759.06         
LLC-33           -4980697.08        454175.47         
LLC-37           -4981306.91        454397.88         
LLC-37_2         -4981260.92        454598.94         
LLC-28_2         -4981075.86        453633.39         
LLC-27_2         -4981297.72        453493.24         
LLC-30_3         -4980814.48        454353.41         
LLC-34           -4980854.54        454489.89         
LLC-29           -4980819.82        453715.01         
LLC-41_10        -4980930.29        455922.56         
LLC-47_5         -4980327.11        455042.77         
LLC-47_6         -4980248.92        454992.07         
LLC-47_7         -4980026.75        454846.05         
LLC-47_8         -4979925.73        454739.32         
LLc-47_9         -4979817.00        454628.97         
LLC-50FN2        -4979690.41        454537.27         
LLC-50FN1        -4979691.15        454593.93         
LLC-50FN3        -4979677.75        454466.44         
LLC-50FN4        -4979617.43        454429.90         
LLC-50FN5        -4979541.47        454397.84         
LLC-50FN6        -4979476.69        454388.15         
LLC-50FN7        -4979415.62        454371.00         
LLC-50b          -4979100.62        454323.14         
PC-11            -4981716.68        448581.23         
PC-13            -4982326.66        447888.09         
PC-20            -4980337.29        445027.81         
PC-22            -4979524.21        445636.86         
PC-7             -4983351.14        448978.15         
PC-8             -4983222.01        450709.14         
PC-9             -4982242.99        450059.36         
PC-3             -4984689.22        451220.36         
PC-21            -4980801.60        446314.26         
PC-16            -4980886.76        448135.52         
PC-4             -4983000.56        452332.99         
PC-5             -4983710.66        449418.03         
PC-24            -4979047.61        446691.59         
PC-16FN1         -4981013.17        447837.51         
PC-16FN5         -4980682.37        446895.35         
PC-26FN5         -4978383.92        447362.83         
PC-24FN6         -4978787.05        447176.86         
PC-26            -4978637.94        447204.83         
PC-23FN4         -4979043.59        446279.19         
PC-2             -4984925.32        451735.60         
PC-2_2           -4984778.47        451516.75         
PC-2_3           -4984680.63        451516.94         
PC-3_2           -4984545.36        451113.27         
PC-3_3           -4984397.22        450980.24         
PC-3_4           -4984204.11        450825.20         
PC-3_5           -4984013.74        450769.69         
PC-8_2           -4982999.31        450711.51         
PC-8_3           -4982523.90        450678.27         
PC-8_4           -4982369.36        450601.56         
PC-9FN3          -4982135.47        449438.86         
PC-10            -4981969.34        449399.65         
PC-10FN2         -4981746.00        449349.40         
PC-8_5           -4982637.42        450720.44         
PC-8_6           -4982779.75        450740.10         
PC-9_2           -4982351.43        449726.92         
PC-11_2          -4981551.71        449272.87         
PC-12            -4981721.50        448165.16         
PC-12FN2         -4982016.12        448017.29         
PC-14            -4982318.63        447468.65         
PC-14_2          -4982106.06        446955.96         
PC-15            -4982042.64        446954.28         
PC-21FN1         -4980129.00        446291.15         
PC-21FN3         -4979955.55        445906.00         
PC-21FN4         -4979955.01        445732.17         
PC-21FN5         -4979954.11        445521.01         
PC-22FN1         -4979732.30        445519.27         
PC-21_2          -4980121.35        446670.76         
PC-21_3          -4980363.22        446678.94         
PC-23FN1         -4979282.53        445987.25         
PC-23            -4979250.20        446036.98         
PC-6             -4983111.14        448612.55         
PC-19            -4981116.02        444675.67         
PC-17            -4982074.02        445995.82         
PC-25            -4977954.55        446700.73         
PC-20_2          -4980588.24        445003.50         
PC-20_3          -4980807.79        444714.94         
PC-17_2          -4981844.29        446323.57         
PC-15FN3         -4981614.83        446841.27         
PC-2_4           -4984520.62        452130.76         
PC-1             -4984027.38        452957.63         
PC-18            -4981667.54        444868.96         
PC-8_7           -4982279.43        450453.71         
PC-9FN2          -4982255.64        449529.35         
PC-9FN4          -4982070.04        449424.53         
PC-9FN5          -4982009.96        449409.05         
PC-10FN1         -4981808.30        449365.57         
PC-12FN1         -4981836.85        448100.83         
PC-12FN3         -4982136.66        447961.46         
PC-14FN2         -4982194.96        447124.06         
PC-14FN1         -4982322.26        447662.48         
PC-14FN3         -4982144.99        447004.35         
PC-15FN1         -4981953.44        446927.22         
PC-15FN2         -4981706.57        446862.30         
PC-15FN4         -4981514.43        446840.26         
PC-15FN5         -4981515.62        446678.26         
PC-16FN2         -4980877.92        447454.91         
PC-16FN3         -4980782.74        447316.74         
PC-16FN4         -4980687.56        447180.94         
PC-21FN2         -4979957.06        446110.07         
PC-23FN3         -4979094.51        446216.68         
PC-23FN2         -4979193.25        446103.52         
PC-24FN5         -4978813.13        447098.75         
PC-23FN5         -4979071.90        446602.03         
PC-24FN7         -4978707.25        447180.94         
PC-26FN8         -4978322.37        447607.38         
PC-24FN1         -4979003.41        446812.99         
PC-24FN2         -4978927.26        446965.10         
PC-24FN3         -4978872.54        447044.31         
PC-24FN4         -4978848.15        447063.97         
PC-26FN1         -4978588.78        447224.48         
PC-26FN2         -4978541.19        447267.36         
PC-26FN3         -4978485.28        447285.23         
PC-26FN4         -4978457.91        447308.46         
PC-26FN7         -4978323.47        447518.70         
PC-26FN6         -4978357.68        447405.54         
SMC-1            -4963735.89        444621.08         
SMC-2            -4963607.99        446200.72         
SMC-3            -4964524.80        445663.28         
SMC-4            -4963864.54        447764.16         
SMC-5            -4965272.89        446604.83         
SMC-8            -4965938.20        447798.01         
SMC-9            -4966662.99        447476.03         
SMC-10           -4966540.64        446785.16         
SMC-12           -4966668.76        448409.38         
SMC-13           -4967236.09        448391.54         
SMC-14           -4968029.09        447938.31         
SMC-11           -4966708.47        446294.39         
SMC-7            -4966271.90        445262.49         
SMC-6            -4966236.20        444555.15         
SMC-34           -4967397.85        444050.90         
SMC-28           -4967266.24        444693.99         
SMC-26           -4966924.85        445423.05         
SMC-27           -4967511.04        445954.73         
SMC-29           -4967909.23        445101.31         
SMC-36           -4967895.50        444129.09         
SMC-35           -4967313.39        443451.71         
SMC-33           -4966261.41        443572.71         
SMC-32           -4965994.12        443564.49         
SMC-38           -4967205.50        442617.21         
SMC-39           -4967258.35        441978.31         
SMC-40           -4967345.76        441413.83         
SMC-41           -4968101.53        441455.40         
SMC-37           -4968504.62        443610.73         
SMC-47           -4969447.70        442506.94         
SMC-43           -4969076.47        440949.95         
SMC-48           -4969942.72        440930.44         
SMC-42           -4969489.81        440117.91         
SMC-61           -4970980.73        441238.85         
SMC-52           -4971353.55        442218.47         
SMC-51           -4971386.24        442509.25         
SMC-50           -4971404.77        442767.77         
SMC-49           -4970887.27        443109.73         
SMC-45           -4970215.41        443154.70         
SMC-46           -4969982.53        443507.52         
SMC-44           -4970355.76        444019.60         
SMC-30           -4969382.31        443960.92         
SMC-31           -4968773.71        444326.30         
SMC-18           -4970216.71        446408.18         
SMC-17           -4970688.96        446951.47         
SMC-16           -4970789.60        446478.82         
SMC-21           -4969559.80        446328.58         
SMC-24           -4968961.79        446645.78         
SMC-19           -4968783.97        445749.03         
SMC-25           -4968386.35        446611.53         
SMC-23           -4968911.18        447375.45         
SMC-22           -4969729.52        447570.49         
SMC-59           -4971390.43        440621.69         
SMC-56           -4971893.80        439572.28         
SMC-57           -4972128.58        440370.37         
SMC-58           -4971916.00        440838.32         
SMC-60           -4971740.82        441200.06         
SMC-63           -4972195.27        441503.48         
SMC-64           -4971948.30        441849.59         
SMC-55           -4972593.09        440263.93         
SMC-62           -4972814.18        441621.33         
SMC-53           -4974047.10        441159.11         
SMC-54           -4974044.45        440178.05         
SMC-20           -4969579.89        445588.65         
SMC-1_2          -4963660.09        444930.09         
SMC-1_3          -4963680.01        445388.03         
SMC-1_4          -4963732.65        445501.16         
SMC-5_2          -4965808.40        446357.17         
SMC-9_2          -4967071.17        447221.33         
SMC-15           -4967642.40        447019.27         
SMC-66           -4972439.36        443889.85         
SMC-53_2         -4973784.99        440658.94         
SMC-54pond       -4973876.26        439914.86         
SMC-33_2         -4966558.99        443855.43         
SMC-32_2         -4966840.97        444056.00         
SMC-39_2         -4967015.60        442111.77         
SMC-41_2         -4968854.83        441907.11         
SMC-41_3         -4968515.16        441662.99         
SMC-8nPond       -4966377.94        447597.41         
SMC-37_2         -4968954.01        443423.22         
SMC-43_2         -4969478.92        441193.90         
SMC-43_3         -4969484.80        441807.59         
SMC-46pond       -4969702.68        443066.14         
SMC-56pond       -4972016.67        439886.79         
SMC-56_2         -4972037.45        440206.51         
SMC-56_3         -4971991.25        440343.01         
SMC-57_2         -4971967.57        440413.94         
SMC-57_3         -4971932.49        440424.09         
SMC-57_4         -4971886.64        440608.71         
SMC-58_2         -4971829.88        440912.44         
SMC-58_3         -4971841.28        441042.32         
SMC-61b          -4971647.11        441771.41         
SMC-62pond       -4972504.66        441814.06         
SMC-63_2         -4972151.71        441862.59         
SMC-65           -4970942.85        443887.84         
SMC-4FN1         -4963773.07        447251.81         
SMC-4FN2         -4964277.06        447424.03         
SMC-5FN2         -4965507.01        446448.92         
SMC-11a          -4966256.22        446250.19         
SMC-31A          -4968623.62        445091.15         
SMC-31FN1        -4968621.13        444227.76         
SMC-31FN3        -4968368.02        444073.90         
SMC-31FN4        -4968427.57        443870.16         
SMC-31FN2        -4968464.80        444232.73         
SMC-31b          -4968935.05        444677.47         
SMC-31aFN1       -4968296.05        445104.19         
WB-1             -4979237.37        459805.87         
WB-1_2           -4979055.17        459741.30         
WB-1_3           -4979150.89        459742.12         
WB-LM            -4978916.67        459730.02         
GLC-4            -4984374.11        461504.90         
GLC-5            -4982405.79        461672.05         
GLC-1            -4982793.74        459993.34         
GLC-2            -4982803.68        460557.56         
GLC-3            -4982689.00        460909.77         
GLC-6            -4982067.26        461166.57         
GLC-7            -4981314.26        461046.47         
GLC-9            -4980378.83        461019.15         
GLC-10           -4980377.25        460874.52         
GLC-11           -4979667.04        460101.78         
HL-1             -4981628.55        459993.77         
HL-2             -4980954.59        459574.27         
HL-4             -4980577.03        459418.68         
HL-5             -4980046.02        459819.14         
GLC-8            -4980365.49        461617.89         
HL-3             -4980940.22        458597.23         
GLC-5pond        -4983703.21        461669.02         
GLC-5_2          -4983197.06        461680.74         
GLC-2pond        -4983060.24        460929.48         
GLC-3_2          -4982566.91        460970.54         
GLC-3_3          -4982508.95        461071.27         
GLC-3_4          -4982407.50        461064.15         
GLC-3_5          -4982322.14        461070.78         
GLC-3_6          -4982223.84        461064.08         
GLC-3_7          -4982139.31        461061.74         
GLC-6_2          -4981797.46        461138.88         
GLC-6_3          -4981622.57        461142.48         
GLC-11MH6        -4979477.71        460088.35         
GLC-11_2         -4979140.18        459949.57         
HL-2_2           -4980787.06        459528.12         
HL-2_3           -4980712.62        459489.34         
GLC-10FN3        -4980057.46        460507.74         
HL-1_2           -4981461.95        459986.12         
HL-1_3           -4981350.51        460092.44         
HL-1_4           -4981232.12        459977.52         
HL-1_5           -4981228.64        459575.44         
HL-4_2           -4980377.95        459415.26         
HL-4spond        -4980138.37        459409.06         
GLC-10FN7        -4979771.67        460476.64         
GLC-10FN6        -4979806.23        460489.12         
GLC-10FN4        -4979903.71        460501.04         
GLC-10FN5        -4979854.96        460498.20         
GLC-10FN8        -4979772.23        460366.58         
GLC-10FN9        -4979771.10        460333.67         
GLC-10FN10       -4979771.67        460289.99         
GLC-10FN11       -4979773.93        460243.47         
GLC-10FN12       -4979772.60        460192.52         
GLC-11_3         -4979374.87        460048.51         
WB-1_4           -4979374.87        459905.81         
GLC-10FN1        -4980310.76        460691.31         
GLC-10FN2        -4980172.84        460558.39         
GLC-10FN13       -4979755.68        460149.87         

[MAP]
DIMENSIONS -4986054.30 439572.28 -4963607.99 461769.20
Units      None

[REPORT]
SUBCATCHMENTS ALL
NODES ALL
LINKS ALL
