;; SWMM5 .inp converted from XPSWMM .xp file
;; Generated by XPSWMM Card Reader
;; Source format: XP_CARD | Original title: Upper San Antonio River Watershed

[TITLE]
;;Project Title/Notes
Upper San Antonio River Watershed

[OPTIONS]
FLOW_UNITS           CFS
INFILTRATION         HORTON
FLOW_ROUTING         DYNWAVE
LINK_OFFSETS         DEPTH
MIN_SLOPE            0.0
ALLOW_PONDING        NO
SKIP_STEADY_STATE    NO
INERTIAL_DAMPING     PARTIAL
NORMAL_FLOW_LIMITED  BOTH
START_DATE           01/01/2001
START_TIME           00:00:00
REPORT_START_DATE    01/01/2001
REPORT_START_TIME    00:00:00
END_DATE             01/02/2001
END_TIME             00:00:00
SWEEP_START          01/01
SWEEP_END            12/31
DRY_DAYS             0
REPORT_STEP          00:15:00
WET_STEP             00:05:00
DRY_STEP             01:00:00

[JUNCTIONS]
;;Name           Elev       MaxDepth   InitDepth  SurDepth   Aponded
;;-------------- ---------- ---------- ---------- ---------- ----------
ZC1              0          0          0          0          0
SPC1             0          0          0          0          0
SR5              0          0          0          0          0
SR6              0          0          0          0          0
AC1              0          0          0          0          0
OC2              0          0          0          0          0
OC3              0          0          0          0          0
SR1              0          0          0          0          0
SR2              0          0          0          0          0
SR3              0          0          0          0          0
OC1              0          0          0          0          0
SR4              0          0          0          0          0

[OUTFALLS]
;;Name           Elev       Type       Stage      Gated
;;-------------- ---------- ---------- ---------- -----
SR7              0          FREE                  NO

[CONDUITS]
;;Name           From             To               Length     Roughness  InOffset   OutOffset  InitFlow   MaxFlow
;;-------------- ---------------- ---------------- ---------- ---------- ---------- ---------- ---------- ----------
201              ZC1              SPC1             14400.00   0.0650     0          0          0          0
208              SR5              SR6              14600.00   0.0650     0          0          0          0
210              SR6              SR7              12800.00   0.0650     0          0          0          0
228              AC1              SPC1             18800.00   0.0650     0          0          0          0
230              OC2              OC3              14300.00   0.0650     0          0          0          0
231              OC3              SR1              11300.00   0.0650     0          0          0          0
233              SR1              SR2              16000.00   0.0650     0          0          0          0
235              SR2              SR3              4800.00    0.0650     0          0          0          0
202              SPC1             SR5              10680.00   0.0650     0          0          0          0
272              OC1              OC2              30300.00   0.0650     0          0          0          0
238              SR3              SR4              4600.00    0.0650     0          0          0          0
274              SR4              SR5              3000.00    0.0650     0          0          0          0

[XSECTIONS]
;;Link           Shape        Geom1      Geom2      Geom3      Geom4      Barrels
;;-------------- ------------ ---------- ---------- ---------- ---------- ----------
201              TRAPEZOIDAL  25.00      30.00      1          1          1
208              TRAPEZOIDAL  30.00      100.00     1          1          1
210              TRAPEZOIDAL  30.00      100.00     1          1          1
228              TRAPEZOIDAL  25.00      30.00      1          1          1
230              TRAPEZOIDAL  25.00      40.00      1          1          1
231              TRAPEZOIDAL  25.00      40.00      1          1          1
233              TRAPEZOIDAL  25.00      40.00      1          1          1
235              TRAPEZOIDAL  25.00      40.00      1          1          1
202              TRAPEZOIDAL  25.00      75.00      1          1          1
272              TRAPEZOIDAL  25.00      30.00      1          1          1
238              TRAPEZOIDAL  25.00      40.00      1          1          1
274              TRAPEZOIDAL  25.00      50.00      1          1          1

[LOSSES]
;;Link           Inlet      Outlet     Average    Flap Gate
;;-------------- ---------- ---------- ---------- ----------
201              0          0          0          NO
208              0          0          0          NO
210              0          0          0          NO
228              0          0          0          NO
230              0          0          0          NO
231              0          0          0          NO
233              0          0          0          NO
235              0          0          0          NO
202              0          0          0          NO
272              0          0          0          NO
238              0          0          0          NO
274              0          0          0          NO

[COORDINATES]
;;Node           X-Coord            Y-Coord
;;-------------- ------------------ ------------------
ZC1              79.66              14.41             
SPC1             99.06              30.71             
SR5              121.27             43.13             
SR6              137.07             52.43             
SR7              145.45             72.79             
AC1              61.85              31.13             
OC2              8.14               39.47             
OC3              17.83              52.75             
SR1              32.68              60.81             
SR2              53.45              63.07             
SR3              76.50              63.28             
OC1              0.45               21.74             
SR4              96.77              55.53             

[MAP]
DIMENSIONS 0.45 14.41 145.45 72.79
Units      None

[REPORT]
SUBCATCHMENTS ALL
NODES ALL
LINKS ALL
