;; SWMM5 .inp converted from XPSWMM .xp file
;; Generated by XPSWMM Card Reader
;; Source format: XP_CARD | Original title: WALLSEND CBD FLOOD STUDY - APRIL 1988 CALIBRATION
;; Links parsed from source: 75 | Routable in this .inp: 75

[TITLE]
;;Project Title/Notes
WALLSEND CBD FLOOD STUDY - APRIL 1988 CALIBRATION

[OPTIONS]
FLOW_UNITS           CMS
INFILTRATION         HORTON
FLOW_ROUTING         DYNWAVE
LINK_OFFSETS         DEPTH
MIN_SLOPE            0.0
ALLOW_PONDING        NO
SKIP_STEADY_STATE    NO
ROUTING_STEP         00:00:02
VARIABLE_STEP        0.75
INERTIAL_DAMPING     PARTIAL
NORMAL_FLOW_LIMITED  BOTH
MAX_TRIALS           50
START_DATE           01/01/2001
START_TIME           00:00:00
REPORT_START_DATE    01/01/2001
REPORT_START_TIME    00:00:00
END_DATE             01/02/2001
END_TIME             00:00:00
SWEEP_START          01/01
SWEEP_END            12/31
DRY_DAYS             0
REPORT_STEP          00:15:00
WET_STEP             00:05:00
DRY_STEP             01:00:00

[JUNCTIONS]
;;Name           Elev       MaxDepth   InitDepth  SurDepth   Aponded
;;-------------- ---------- ---------- ---------- ---------- ----------
0.98             15.00      0          0          0          0
0.99             15.00      0          0          0          0
1.01             15.00      0          0          0          0
1.02             15.00      0          0          0          0
1.04             15.00      0          0          0          0
1.05             15.00      0          0          0          0
1.07             15.00      0          0          0          0
1.08             15.00      0          0          0          0
1.09             15.00      0          0          0          0
1.11             15.00      0          0          0          0
1.12             15.00      0          0          0          0
1.13             15.00      0          0          0          0
1.14             15.00      0          0          0          0
1.15             15.00      0          0          0          0
1.16             15.00      0          0          0          0
1.17             15.00      0          0          0          0
1.19             15.00      0          0          0          0
1.20             15.00      0          0          0          0
1.21             15.00      0          0          0          0
1.22             15.00      0          0          0          0
1.23             15.00      0          0          0          0
1.25             15.00      0          0          0          0
1.26             15.00      0          0          0          0
1.27             15.00      0          0          0          0
1.28             15.00      0          0          0          0
1.29             15.00      0          0          0          0
2.10             15.00      0          0          0          0
2.11             15.00      0          0          0          0
2.12             15.00      0          0          0          0
2.13             15.00      0          0          0          0
2.14             15.00      0          0          0          0
2.16             15.00      0          0          0          0
2.17             15.00      0          0          0          0
2.18             15.00      0          0          0          0
2.19             15.00      0          0          0          0
2.20             15.00      0          0          0          0
1.30             15.00      0          0          0          0
1.31             15.00      0          0          0          0
1.32             15.00      0          0          0          0
1.33             15.00      0          0          0          0
1.34             15.00      0          0          0          0
1.042            15.00      0          0          0          0
1.35             15.00      0          0          0          0
1.36             15.00      0          0          0          0
1.37             15.00      0          0          0          0
1.38             15.00      0          0          0          0
1.041            15.00      0          0          0          0
2.08             15.00      0          0          0          0
2.09             15.00      0          0          0          0
2.06             15.00      0          0          0          0
2.07             15.00      0          0          0          0
2.062            15.00      0          0          0          0
2.063            15.00      0          0          0          0
4.00             15.00      0          0          0          0
4.02             15.00      0          0          0          0
4.03             15.00      0          0          0          0
4.04             15.00      0          0          0          0
4.05             15.00      0          0          0          0
4.06             15.00      0          0          0          0
5.00             15.00      0          0          0          0
5.01             15.00      0          0          0          0
6.00             15.00      0          0          0          0
100.2            2.10       0          0          0          0
109.2            1.70       0          0          0          0
114.2            1.49       0          0          0          0
114.3            1.51       0          0          0          0
117.2            1.30       0          0          0          0
117.3            1.30       0          0          0          0
211.2            1.99       0          0          0          0
213.2            1.81       0          0          0          0
218.2            1.48       0          0          0          0
214.2            1.65       0          0          0          0
132.2            -0.93      0          0          0          0
132.3            -0.44      0          0          0          0
206.2            3.09       0          0          0          0

[OUTFALLS]
;;Name           Elev       Type       Stage      Gated
;;-------------- ---------- ---------- ---------- -----
1.00             15.00      FREE                  NO

[STORAGE]
;;Name           Elev       MaxDepth   InitDepth  Shape      Curve/Params
;;-------------- ---------- ---------- ---------- ---------- ----------
3.00             15.00      10.00      0          FUNCTIONAL 1000.00 0          0
4.01             15.00      10.00      0          FUNCTIONAL 1000.00 0          0

[CONDUITS]
;;Name           From             To               Length     Roughness  InOffset   OutOffset  InitFlow   MaxFlow
;;-------------- ---------------- ---------------- ---------- ---------- ---------- ---------- ---------- ----------
98               0.98             0.99             52.00      0.0130     1.84       2.00       0          0
99               0.99             1.00             16.00      0.0130     2.00       2.01       0          0
101              1.01             1.02             17.30      0.0130     1.96       1.91       0          0
107              1.07             1.08             26.50      0.0130     1.68       1.65       0          0
108              1.08             1.09             40.00      0.0130     1.65       1.60       0          0
111              1.11             1.12             20.00      0.0130     1.57       1.52       0          0
112              1.12             1.13             26.50      0.0130     1.52       1.46       0          0
113              1.13             1.14             46.50      0.0130     1.46       1.37       0          0
115              1.15             1.16             56.00      0.0130     1.37       1.25       0          0
116              1.16             1.17             36.00      0.0130     1.25       1.20       0          0
119              1.19             1.20             15.00      0.0130     1.18       1.16       0          0
120              1.20             1.21             46.75      0.0130     1.16       1.10       0          0
121              1.21             1.22             66.50      0.0130     1.10       0.94       0          0
122              1.22             1.23             79.50      0.0130     0.94       0.78       0          0
125              1.25             1.26             113.50     0.0130     0.72       0.43       0          0
126              1.26             1.27             82.00      0.0130     0.43       0.19       0          0
127              1.27             1.28             98.00      0.0130     0.19       0.01       0          0
128              1.28             1.29             15.50      0.0130     0.01       0          0          0
210              2.10             2.11             10.00      0.0130     2.07       1.93       0          0
212              2.12             2.13             45.50      0.0130     1.95       1.81       0          0
216              2.16             2.17             14.50      0.0130     1.45       1.43       0          0
217              2.17             2.18             21.50      0.0130     1.43       1.39       0          0
219              2.19             2.20             114.35     0.0130     1.36       0.89       0          0
102              1.02             1.04             14.40      0.0130     1.91       1.90       0          0
105              1.05             1.07             17.00      0.0130     1.69       1.68       0          0
123              1.23             1.25             14.70      0.0130     0.78       0.72       0          0
220              2.20             1.25             16.75      0.0130     0.89       0.72       0          0
100.1            100.2            1.01             23.80      0.0170     2.10       2.05       0          0
109.1            109.2            1.11             19.50      0.0170     1.70       1.67       0          0
114.1            114.2            114.3            20.00      0.0170     1.49       1.51       0          0
117.1            117.2            117.3            12.40      0.0170     1.30       1.30       0          0
211.1            211.2            2.12             10.00      0.0170     1.99       2.01       0          0
213.1            213.2            2.14             21.50      0.0170     1.81       1.65       0          0
218.1            218.2            2.19             10.00      0.0170     1.48       1.45       0          0
214.1            214.2            2.16             12.60      0.0170     1.65       1.45       0          0
129              1.29             1.30             23.00      0.0130     0          0          0          0
130              1.30             1.31             99.00      0.0130     0          0          0          0
131              1.31             1.32             118.00     0.0130     0          0          0          0
133              1.33             1.34             54.00      0.0130     0          0          0          0
132.1            132.2            132.3            20.50      0.0500     0          0          0          0
1042             1.042            1.05             69.50      0.0130     1.77       1.69       0          0
134              1.34             1.35             80.00      0.0130     0          0          0          0
135              1.35             1.36             80.00      0.0130     0          0          0          0
136              1.36             1.37             80.00      0.0130     0          0          0          0
137              1.37             1.38             73.00      0.0130     0          0          0          0
104              1.04             1.041            40.00      0.0130     1.90       1.81       0          0
1041             1.041            1.042            48.50      0.0130     1.81       1.77       0          0
207              2.07             2.08             14.30      0.0180     2.84       2.62       0          0
2062             2.062            2.063            34.00      0.0130     4.69       4.70       0          0
2063             2.063            2.10             29.00      0.0130     4.70       2.07       0          0
206.1            206.2            2.07             41.24      0.0170     3.09       2.84       0          0
208              2.08             2.09             13.70      0.0170     2.62       2.36       0          0
209              2.09             2.10             13.40      0.0200     2.36       2.07       0          0
400              4.00             4.01             65.00      0.0130     4.03       3.09       0          0
402              4.02             4.03             54.50      0.0130     3.77       3.49       0          0
403              4.03             4.04             12.50      0.0130     3.49       3.50       0          0
404              4.04             4.05             25.00      0.0130     3.50       3.52       0          0
405              4.05             4.06             47.00      0.0130     3.52       3.07       0          0
406              4.06             1.20             50.00      0.0130     3.07       3.09       0          0
500              5.00             5.01             26.50      0.0130     3.55       3.25       0          0
501              5.01             4.06             29.00      0.0130     3.25       3.07       0          0
500A             5.00             6.00             80.50      0.0130     3.55       2.54       0          0

[WEIRS]
;;Name           From             To               Type       CrestHt    Qcoeff     Gated    EndCon   EndCoeff   Surcharge
;;-------------- ---------------- ---------------- ---------- ---------- ---------- -------- -------- ---------- ----------
2061             2.06             2.062            TRANSVERSE 4.47       1.840      NO       0        0          YES
99A              0.99             3.00             V-NOTCH    6.15       1.840      NO       0        0          YES
300              3.00             1.02             TRANSVERSE 5.10       1.840      NO       0        0          YES
300A             3.00             1.08             TRANSVERSE 5.32       1.840      NO       0        0          YES
105A             1.05             4.00             V-NOTCH    4.48       1.840      NO       0        0          YES
109A             1.09             4.01             V-NOTCH    4.08       1.840      NO       0        0          YES
113A             1.13             4.01             V-NOTCH    3.37       1.840      NO       0        0          YES
401              4.01             4.02             TRANSVERSE 3.99       1.840      NO       0        0          YES
403A             4.03             5.00             V-NOTCH    3.79       1.840      NO       0        0          YES
600              6.00             1.22             TRANSVERSE 2.62       1.840      NO       0        0          YES
404A             4.04             5.01             V-NOTCH    3.63       1.840      NO       0        0          YES
114A             1.14             4.05             TRANSVERSE 4.18       1.840      NO       0        0          YES
116A             1.16             4.06             TRANSVERSE 3.79       1.840      NO       0        0          YES

[XSECTIONS]
;;Link           Shape        Geom1      Geom2      Geom3      Geom4      Barrels
;;-------------- ------------ ---------- ---------- ---------- ---------- ----------
98               TRAPEZOIDAL  1.00       10.00      2          2          1
99               TRAPEZOIDAL  1.00       10.00      2          2          1
101              TRAPEZOIDAL  1.00       10.00      2          2          1
107              TRAPEZOIDAL  1.00       10.00      2          2          1
108              TRAPEZOIDAL  1.00       10.00      2          2          1
111              TRAPEZOIDAL  1.00       10.00      2          2          1
112              TRAPEZOIDAL  1.00       10.00      2          2          1
113              TRAPEZOIDAL  1.00       10.00      2          2          1
115              TRAPEZOIDAL  1.00       10.00      2          2          1
116              TRAPEZOIDAL  1.00       10.00      2          2          1
119              TRAPEZOIDAL  1.00       10.00      2          2          1
120              TRAPEZOIDAL  1.00       10.00      2          2          1
121              TRAPEZOIDAL  1.00       10.00      2          2          1
122              TRAPEZOIDAL  1.00       10.00      2          2          1
125              TRAPEZOIDAL  1.00       10.00      2          2          1
126              TRAPEZOIDAL  1.00       10.00      2          2          1
127              TRAPEZOIDAL  1.00       10.00      2          2          1
128              TRAPEZOIDAL  1.00       10.00      2          2          1
210              TRAPEZOIDAL  1.00       10.00      2          2          1
212              TRAPEZOIDAL  1.00       10.00      2          2          1
216              TRAPEZOIDAL  1.00       10.00      2          2          1
217              TRAPEZOIDAL  1.00       10.00      2          2          1
219              TRAPEZOIDAL  1.00       10.00      2          2          1
102              TRAPEZOIDAL  1.00       10.00      2          2          1
105              TRAPEZOIDAL  1.00       10.00      2          2          1
123              TRAPEZOIDAL  1.00       10.00      2          2          1
220              TRAPEZOIDAL  1.00       10.00      2          2          1
100.1            RECT_CLOSED  3.52       7.00       0          0          1
109.1            RECT_CLOSED  1.70       12.25      0          0          1
114.1            RECT_CLOSED  2.50       5.70       0          0          1
117.1            RECT_CLOSED  2.20       3.60       0          0          1
211.1            RECT_CLOSED  1.55       2.21       0          0          1
213.1            RECT_CLOSED  1.50       2.20       0          0          1
218.1            RECT_CLOSED  1.24       2.10       0          0          1
214.1            RECT_CLOSED  1.52       2.10       0          0          1
129              TRAPEZOIDAL  1.00       10.00      2          2          1
130              TRAPEZOIDAL  1.00       10.00      2          2          1
131              TRAPEZOIDAL  1.00       10.00      2          2          1
133              TRAPEZOIDAL  1.00       10.00      2          2          1
132.1            RECT_CLOSED  4.25       9.06       0          0          1
1042             TRAPEZOIDAL  1.00       10.00      2          2          1
134              TRAPEZOIDAL  1.00       10.00      2          2          1
135              TRAPEZOIDAL  1.00       10.00      2          2          1
136              TRAPEZOIDAL  1.00       10.00      2          2          1
137              TRAPEZOIDAL  1.00       10.00      2          2          1
104              TRAPEZOIDAL  1.00       10.00      2          2          1
1041             TRAPEZOIDAL  1.00       10.00      2          2          1
207              RECT_CLOSED  1.52       5.18       0          0          1
2062             TRAPEZOIDAL  1.00       10.00      2          2          1
2063             TRAPEZOIDAL  1.00       10.00      2          2          1
206.1            RECT_CLOSED  1.22       1.91       0          0          1
208              RECT_CLOSED  1.20       3.05       0          0          1
209              RECT_CLOSED  1.48       1.46       0          0          2
400              TRAPEZOIDAL  1.00       10.00      2          2          1
402              TRAPEZOIDAL  1.00       10.00      2          2          1
403              TRAPEZOIDAL  1.00       10.00      2          2          1
404              TRAPEZOIDAL  1.00       10.00      2          2          1
405              TRAPEZOIDAL  1.00       10.00      2          2          1
406              TRAPEZOIDAL  1.00       10.00      2          2          1
500              TRAPEZOIDAL  1.00       10.00      2          2          1
501              TRAPEZOIDAL  1.00       10.00      2          2          1
500A             TRAPEZOIDAL  1.00       10.00      2          2          1
2061             RECT_OPEN    1.00       10.00      0          0
99A              TRIANGULAR   1.00       30.00      0          0
300              RECT_OPEN    1.00       25.00      0          0
300A             RECT_OPEN    1.00       20.00      0          0
105A             TRIANGULAR   1.00       15.00      0          0
109A             TRIANGULAR   1.00       15.00      0          0
113A             TRIANGULAR   1.00       35.00      0          0
401              RECT_OPEN    1.00       17.50      0          0
403A             TRIANGULAR   1.00       2.50       0          0
600              RECT_OPEN    1.00       30.00      0          0
404A             TRIANGULAR   1.00       10.00      0          0
114A             RECT_OPEN    1.00       6.00       0          0
116A             RECT_OPEN    1.00       10.00      0          0

[LOSSES]
;;Link           Inlet      Outlet     Average    Flap Gate
;;-------------- ---------- ---------- ---------- ----------
98               0          0          0          NO
99               0          0          0          NO
101              0          0          0          NO
107              0          0          0          NO
108              0          0          0          NO
111              0          0          0          NO
112              0          0          0          NO
113              0          0          0          NO
115              0          0          0          NO
116              0          0          0          NO
119              0          0          0          NO
120              0          0          0          NO
121              0          0          0          NO
122              0          0          0          NO
125              0          0          0          NO
126              0          0          0          NO
127              0          0          0          NO
128              0          0          0          NO
210              0          0          0          NO
212              0          0          0          NO
216              0          0          0          NO
217              0          0          0          NO
219              0          0          0          NO
102              0          0          0          NO
105              0          0          0          NO
123              0          0          0          NO
220              0          0          0          NO
100.1            0          0          0          NO
109.1            0          0          0          NO
114.1            0          0          0          NO
117.1            0          0          0          NO
211.1            0          0          0          NO
213.1            0          0          0          NO
218.1            0          0          0          NO
214.1            0          0          0          NO
129              0          0          0          NO
130              0          0          0          NO
131              0          0          0          NO
133              0          0          0          NO
132.1            0          0          0          NO
1042             0          0          0          NO
134              0          0          0          NO
135              0          0          0          NO
136              0          0          0          NO
137              0          0          0          NO
104              0          0          0          NO
1041             0          0          0          NO
207              0          0          0          NO
2062             0          0          0          NO
2063             0          0          0          NO
206.1            0          0          0          NO
208              0          0          0          NO
209              0          0          0          NO
400              0          0          0          NO
402              0          0          0          NO
403              0          0          0          NO
404              0          0          0          NO
405              0          0          0          NO
406              0          0          0          NO
500              0          0          0          NO
501              0          0          0          NO
500A             0          0          0          NO

[INFLOWS]
;;Node           Constituent  Time Series      Type     Mfactor  Sfactor  Baseline Pattern
;;-------------- ------------ ---------------- -------- -------- -------- -------- --------
;; SYNTHETIC TEST INFLOWS — the source .xp carried no constant inflows
;; and RUNF hydrology is not converted; 0.03 CMS is applied at each
;; headwater node so the network runs wet for QA. Replace with real
;; hydrology or inflow hydrographs before using results.
0.98             FLOW         ""               FLOW     1.0      1.0      0.03
1.15             FLOW         ""               FLOW     1.0      1.0      0.03
1.19             FLOW         ""               FLOW     1.0      1.0      0.03
1.33             FLOW         ""               FLOW     1.0      1.0      0.03
2.06             FLOW         ""               FLOW     1.0      1.0      0.03
100.2            FLOW         ""               FLOW     1.0      1.0      0.03
109.2            FLOW         ""               FLOW     1.0      1.0      0.03
114.2            FLOW         ""               FLOW     1.0      1.0      0.03
117.2            FLOW         ""               FLOW     1.0      1.0      0.03
211.2            FLOW         ""               FLOW     1.0      1.0      0.03
213.2            FLOW         ""               FLOW     1.0      1.0      0.03
218.2            FLOW         ""               FLOW     1.0      1.0      0.03
214.2            FLOW         ""               FLOW     1.0      1.0      0.03
132.2            FLOW         ""               FLOW     1.0      1.0      0.03
206.2            FLOW         ""               FLOW     1.0      1.0      0.03

[COORDINATES]
;;Node           X-Coord            Y-Coord
;;-------------- ------------------ ------------------
0.98             67.64              67.64             
0.99             67.64              87.64             
1.00             67.64              107.64            
1.01             67.64              127.64            
1.02             67.64              147.64            
1.04             67.64              167.64            
1.05             67.64              227.64            
1.07             67.64              247.64            
1.08             67.64              267.64            
1.09             67.64              287.64            
1.11             67.64              307.64            
1.12             67.64              327.64            
1.13             67.64              347.64            
1.14             67.64              367.64            
1.15             67.64              387.64            
1.16             67.64              407.64            
1.17             67.64              427.64            
1.19             67.64              447.64            
1.20             67.64              467.64            
1.21             67.64              487.64            
1.22             67.64              507.64            
1.23             67.64              527.64            
1.25             67.64              547.64            
1.26             67.64              567.64            
1.27             67.64              587.64            
1.28             67.64              607.64            
1.29             67.64              627.64            
2.10             167.64             367.64            
2.11             167.64             387.64            
2.12             167.64             407.64            
2.13             167.64             427.64            
2.14             167.64             447.64            
2.16             167.64             467.64            
2.17             167.64             487.64            
2.18             167.64             507.64            
2.19             167.64             527.64            
2.20             167.64             547.64            
1.30             67.64              647.64            
1.31             67.64              667.64            
1.32             67.64              687.64            
1.33             67.64              707.64            
1.34             67.64              727.64            
1.042            67.64              207.64            
1.35             67.64              747.64            
1.36             67.64              767.64            
1.37             67.64              787.64            
1.38             67.64              807.64            
1.041            67.64              187.64            
2.08             167.64             327.64            
2.09             167.64             347.64            
2.06             167.64             287.64            
2.07             167.64             307.64            
2.062            197.64             287.64            
2.063            197.64             367.64            
3.00             37.64              87.64             
4.00             87.64              227.64            
4.01             87.64              317.64            
4.02             107.64             317.64            
4.03             107.64             337.64            
4.04             107.64             367.64            
4.05             107.64             417.64            
4.06             107.64             467.64            
5.00             127.64             337.64            
5.01             127.64             467.64            
6.00             147.64             337.64            

[MAP]
DIMENSIONS 37.64 67.64 197.64 807.64
Units      None

[REPORT]
SUBCATCHMENTS ALL
NODES ALL
LINKS ALL
