;; SWMM5 .inp converted from XPSWMM .xp file
;; Generated by XPSWMM Card Reader
;; Source format: XP_CARD | Original title: AMAZON CREEK BASIN STORM DRAINAGE MODEL - FUTURE LAND USE
;; NOTE: 11 link(s) dropped (missing endpoint): WCEA030E, WCEA030A, WCMN010C, WCEA10A2, WCEA10A1, WCMN10F2, WCMN10F1, HIGHFLOW, WCEA005B, WCMN010H, CMN010A

[TITLE]
;;Project Title/Notes
AMAZON CREEK BASIN STORM DRAINAGE MODEL - FUTURE LAND USE

[OPTIONS]
FLOW_UNITS           CFS
INFILTRATION         HORTON
FLOW_ROUTING         DYNWAVE
LINK_OFFSETS         DEPTH
MIN_SLOPE            0.0
ALLOW_PONDING        NO
SKIP_STEADY_STATE    NO
ROUTING_STEP         00:00:15
VARIABLE_STEP        0.75
INERTIAL_DAMPING     PARTIAL
NORMAL_FLOW_LIMITED  BOTH
MAX_TRIALS           50
HEAD_TOLERANCE       0.0033
START_DATE           01/01/2001
START_TIME           00:00:00
REPORT_START_DATE    01/01/2001
REPORT_START_TIME    00:00:00
END_DATE             01/02/2001
END_TIME             00:00:00
SWEEP_START          01/01
SWEEP_END            12/31
DRY_DAYS             0
REPORT_STEP          00:15:00
WET_STEP             00:05:00
DRY_STEP             01:00:00

[JUNCTIONS]
;;Name           Elev       MaxDepth   InitDepth  SurDepth   Aponded
;;-------------- ---------- ---------- ---------- ---------- ----------
71120            392.50     0          0          0          0
71008            476.70     0          0          0          0
71009            476.70     0          0          0          0
71048            468.10     0          0          0          0
71046            464.19     0          0          0          0
71045            463.00     0          0          0          0
71010            460.90     0          0          0          0
71011            458.00     0          0          0          0
71044            446.80     0          0          0          0
71012            460.40     0          0          0          0
71013            460.40     0          0          0          0
71043            447.50     0          0          0          0
71014            455.70     0          0          0          0
71015            454.70     0          0          0          0
71016            440.00     0          0          0          0
71017            444.33     0          0          0          0
71042            435.63     0          0          0          0
71041            422.00     0          0          0          0
51997            446.30     0          0          0          0
71018            401.55     0          0          0          0
71019            401.50     0          0          0          0
71036            400.00     0          0          0          0
71021            464.00     0          0          0          0
71022            453.10     0          0          0          0
71023            448.60     0          0          0          0
71024            437.20     0          0          0          0
71025            438.60     0          0          0          0
71026            432.20     0          0          0          0
71027            432.40     0          0          0          0
71028            421.60     0          0          0          0
71029            419.60     0          0          0          0
71050            427.10     0          0          0          0
71030            425.80     0          0          0          0
71031            425.80     0          0          0          0
71040            406.63     0          0          0          0
71034            404.63     0          0          0          0
71033            409.00     0          0          0          0
71035            400.10     0          0          0          0
71049            393.30     0          0          0          0
71037            392.80     0          0          0          0
71038            392.79     0          0          0          0
73500            407.40     0          0          0          0
73503            400.00     0          0          0          0
73502            399.50     0          0          0          0
73501            402.38     0          0          0          0
54495            408.20     0          0          0          0
54494            404.00     0          0          0          0
54462            404.00     0          0          0          0
WCEA060Ird       468.70     0          0          0          0
Node_60          466.30     0          0          0          0
Node_14221423    458.10     0          0          0          0
Node_14231424    456.00     0          0          0          0
WCEA060Frd       456.80     0          0          0          0
Node_14241425    456.30     0          0          0          0
Node_14251426    450.10     0          0          0          0
WCEA060D#2       450.10     0          0          0          0
WCEA060D#3       450.00     0          0          0          0
Node_14271428    436.80     0          0          0          0
WCEA060Brd       448.70     0          0          0          0
Node_14291430    446.60     0          0          0          0
Node_14301428    436.80     0          0          0          0
Node_50          436.80     0          0          0          0
Node_14281431    435.10     0          0          0          0
WCEA050Crd       448.00     0          0          0          0
Node_14321433    446.90     0          0          0          0
Node_14331431    435.10     0          0          0          0
Node_14311434    427.60     0          0          0          0
WCEA030Dfp       426.70     0          0          0          0
Node_14351436    418.00     0          0          0          0
WC030C-fp        418.00     0          0          0          0
Node_14361437    405.00     0          0          0          0
WCEA030Brd       439.10     0          0          0          0
Node_14381439    435.80     0          0          0          0
WCMN010G#2       392.20     0          0          0          0
WCMN010Grd       390.60     0          0          0          0
WCWE130Drd       457.00     0          0          0          0
Node_14431444    456.30     0          0          0          0
Node_130         454.00     0          0          0          0
Node_14441445    443.10     0          0          0          0
Node_14451446    442.30     0          0          0          0
Node_14461447    432.20     0          0          0          0
WCWE120D#2       432.20     0          0          0          0
WCWE120Drd       431.60     0          0          0          0
Node_120         431.60     0          0          0          0
Node_14481449    425.10     0          0          0          0
WCWE120Brd       425.10     0          0          0          0
Node_14491450    426.30     0          0          0          0
Node_14501451    413.60     0          0          0          0
WCWE110C#2       413.70     0          0          0          0
WCWE110Crd       413.70     0          0          0          0
Node_110         411.60     0          0          0          0
Node_14521453    407.10     0          0          0          0
Node_14531454    404.50     0          0          0          0
WCWE100Frd       404.60     0          0          0          0
Node_14541455    403.40     0          0          0          0
Node_100         402.70     0          0          0          0
Node_14551456    396.00     0          0          0          0
Node_14561457    394.00     0          0          0          0
WCWE100C#2       400.60     0          0          0          0
WCWE100Crd       400.60     0          0          0          0
Node_14591457    394.00     0          0          0          0
Node_14571460    390.40     0          0          0          0
WCMN010E#2       390.00     0          0          0          0
WCMN010Erd       390.00     0          0          0          0
WC010Dfp         390.10     0          0          0          0
Node_14421461    383.30     0          0          0          0
WCMN010Brd       381.40     0          0          0          0
Node_14621463    381.39     0          0          0          0
WCEA005Ard       392.10     0          0          0          0
Node_14661465    391.20     0          0          0          0
WCMN020Brd       399.10     0          0          0          0
Node_14681469    396.40     0          0          0          0
WCMN020Ard       396.40     0          0          0          0
Node_14691470    398.50     0          0          0          0

[OUTFALLS]
;;Name           Elev       Type       Stage      Gated
;;-------------- ---------- ---------- ---------- -----
Node_14211422    468.10     FREE                  NO

[STORAGE]
;;Name           Elev       MaxDepth   InitDepth  Shape      Curve/Params
;;-------------- ---------- ---------- ---------- ---------- ----------
51998            446.30     10.00      0          FUNCTIONAL 2500.00 0          0
71020            463.80     10.00      0          FUNCTIONAL 400.00 0          0
71032            409.10     10.00      0          FUNCTIONAL 2500.00 0          0

[CONDUITS]
;;Name           From             To               Length     Roughness  InOffset   OutOffset  InitFlow   MaxFlow
;;-------------- ---------------- ---------------- ---------- ---------- ---------- ---------- ---------- ----------
WCEA060I         WCEA060Ird       Node_14211422    24.00      0.0320     468.70     468.10     0          0
WCEA060H         Node_60          Node_14221423    400.00     0.0130     466.30     458.10     0          0
WCEA060G         Node_60          Node_14231424    100.00     0.0130     458.10     456.00     0          0
WCEA060F         WCEA060Frd       Node_14241425    41.00      0.0330     456.80     456.30     0          0
WCEA060E         Node_60          Node_14251426    228.00     0.0600     452.30     450.10     0          0
WCEA060D#1       WCEA060D#2       WCEA060D#3       23.00      0.0130     450.10     450.00     0          0
WCEA060C         Node_60          Node_14271428    600.00     0.0600     450.00     436.80     0          0
WCEA060B         WCEA060Brd       Node_14291430    82.00      0.0210     448.70     446.60     0          0
WCEA060A         Node_60          Node_14301428    647.00     0.0130     445.60     436.80     0          0
WCEA050D         Node_50          Node_14281431    250.00     0.0800     436.80     435.10     0          0
WCEA050C         WCEA050Crd       Node_14321433    51.00      0.0310     448.00     446.90     0          0
WCEA050B         Node_50          Node_14331431    364.00     0.0600     442.60     435.10     0          0
1050.1           Node_50          Node_14311434    414.00     0.0600     435.10     427.60     0          0
WCEA030D         WCEA030Dfp       Node_14351436    2000.00    0.0130     426.70     418.00     0          0
WC030C           WC030C-fp        Node_14361437    1200.00    0.0130     418.00     405.00     0          0
WCEA030B         WCEA030Brd       Node_14381439    164.00     0.0160     439.10     435.80     0          0
WCMN010G#1       WCMN010G#2       WCMN010Grd       64.00      0.0380     392.20     390.60     0          0
WCWE130D         WCWE130Drd       Node_14431444    31.00      0.0400     457.00     456.30     0          0
WCWE130C         Node_130         Node_14441445    500.00     0.0130     454.00     443.10     0          0
WCWE130B         Node_130         Node_14451446    30.00      0.0400     443.10     442.30     0          0
WCWE130A         Node_130         Node_14461447    700.00     0.0130     439.80     432.20     0          0
WCWE120D#1       WCWE120D#2       WCWE120Drd       20.00      0.0240     432.20     431.60     0          0
WCWE120C         Node_120         Node_14481449    320.00     0.0130     431.60     425.10     0          0
WCWE120B         WCWE120Brd       Node_14491450    32.00      0.0310     425.10     426.30     0          0
WCWE120A         Node_120         Node_14501451    1300.00    0.0130     424.40     413.60     0          0
WCWE110C#1       WCWE110C#2       WCWE110Crd       19.00      0.0210     413.70     413.70     0          0
WCWE110B         Node_110         Node_14521453    800.00     0.0130     411.60     407.10     0          0
WCWE110A         Node_110         Node_14531454    450.00     0.0130     407.10     404.50     0          0
WCWE100F         WCWE100Frd       Node_14541455    32.00      0.0340     404.60     403.40     0          0
WCWE100E         Node_100         Node_14551456    1200.00    0.0130     402.70     396.00     0          0
WCWE100D         Node_100         Node_14561457    417.00     0.0130     396.00     394.00     0          0
WCWE100C#1       WCWE100C#2       WCWE100Crd       47.00      0.0350     400.60     400.60     0          0
WCWE100B         Node_100         Node_14591457    960.00     0.0130     400.50     394.00     0          0
WCWE100A         Node_100         Node_14571460    676.00     0.0130     394.00     390.40     0          0
WCMN010E#1       WCMN010E#2       WCMN010Erd       24.00      0.0350     390.00     390.00     0          0
WC010D           WC010Dfp         Node_14421461    3000.00    0.0450     390.10     383.30     0          0
WCMN010B         WCMN010Brd       Node_14621463    34.00      0.0400     381.40     381.39     0          0
WCEA005A         WCEA005Ard       Node_14661465    50.00      0.0300     392.10     391.20     0          0
WCMN020B         WCMN020Brd       Node_14681469    450.00     0.0150     399.10     396.40     0          0
WCMN020A         WCMN020Ard       Node_14691470    125.00     0.0190     396.40     398.50     0          0

[XSECTIONS]
;;Link           Shape        Geom1      Geom2      Geom3      Geom4      Barrels
;;-------------- ------------ ---------- ---------- ---------- ---------- ----------
WCEA060I         CIRCULAR     3.00       0          0          0          1
WCEA060H         TRAPEZOIDAL  1.00       10.00      2          2          1
WCEA060G         TRAPEZOIDAL  1.00       10.00      2          2          1
WCEA060F         CIRCULAR     3.00       0          0          0          1
WCEA060E         TRAPEZOIDAL  1.00       11.20      2          2          1
WCEA060D#1       CIRCULAR     1.00       0          0          0          1
WCEA060C         TRAPEZOIDAL  1.00       6.00       2          2          1
WCEA060B         CIRCULAR     3.00       0          0          0          1
WCEA060A         TRAPEZOIDAL  1.00       10.00      2          2          1
WCEA050D         TRAPEZOIDAL  1.00       3.60       2          2          1
WCEA050C         CIRCULAR     3.00       0          0          0          1
WCEA050B         TRAPEZOIDAL  1.00       5.00       2          2          1
1050.1           TRAPEZOIDAL  1.00       14.00      2          2          1
WCEA030D         TRAPEZOIDAL  1.00       10.00      2          2          1
WC030C           TRAPEZOIDAL  1.00       10.00      2          2          1
WCEA030B         CIRCULAR     2.00       0          0          0          1
WCMN010G#1       RECT_CLOSED  6.00       8.00       0          0          1
WCWE130D         CIRCULAR     4.00       0          0          0          1
WCWE130C         TRAPEZOIDAL  1.00       10.00      2          2          1
WCWE130B         CIRCULAR     4.00       0          0          0          1
WCWE130A         TRAPEZOIDAL  1.00       10.00      2          2          1
WCWE120D#1       CIRCULAR     1.60       0          0          0          1
WCWE120C         TRAPEZOIDAL  1.00       10.00      2          2          1
WCWE120B         CIRCULAR     3.50       0          0          0          1
WCWE120A         TRAPEZOIDAL  1.00       10.00      2          2          1
WCWE110C#1       CIRCULAR     1.00       0          0          0          1
WCWE110B         TRAPEZOIDAL  1.00       10.00      2          2          1
WCWE110A         TRAPEZOIDAL  1.00       10.00      2          2          1
WCWE100F         CIRCULAR     4.00       0          0          0          1
WCWE100E         TRAPEZOIDAL  1.00       10.00      2          2          1
WCWE100D         TRAPEZOIDAL  1.00       10.00      2          2          1
WCWE100C#1       CIRCULAR     3.50       0          0          0          1
WCWE100B         TRAPEZOIDAL  1.00       10.00      2          2          1
WCWE100A         TRAPEZOIDAL  1.00       10.00      2          2          1
WCMN010E#1       TRAPEZOIDAL  1.00       10.00      2          2          1
WC010D           TRAPEZOIDAL  1.00       22.00      2          2          1
WCMN010B         TRAPEZOIDAL  8.30       10.00      2          2          1
WCEA005A         CIRCULAR     4.00       0          0          0          1
WCMN020B         CIRCULAR     4.00       0          0          0          1
WCMN020A         CIRCULAR     4.00       0          0          0          1

[LOSSES]
;;Link           Inlet      Outlet     Average    Flap Gate
;;-------------- ---------- ---------- ---------- ----------
WCEA060I         0          0          0          NO
WCEA060H         0          0          0          NO
WCEA060G         0          0          0          NO
WCEA060F         0          0          0          NO
WCEA060E         0          0          0          NO
WCEA060D#1       0          0          0          NO
WCEA060C         0          0          0          NO
WCEA060B         0          0          0          NO
WCEA060A         0          0          0          NO
WCEA050D         0          0          0          NO
WCEA050C         0          0          0          NO
WCEA050B         0          0          0          NO
1050.1           0          0          0          NO
WCEA030D         0          0          0          NO
WC030C           0          0          0          NO
WCEA030B         0          0          0          NO
WCMN010G#1       0          0          0          NO
WCWE130D         0          0          0          NO
WCWE130C         0          0          0          NO
WCWE130B         0          0          0          NO
WCWE130A         0          0          0          NO
WCWE120D#1       0          0          0          NO
WCWE120C         0          0          0          NO
WCWE120B         0          0          0          NO
WCWE120A         0          0          0          NO
WCWE110C#1       0          0          0          NO
WCWE110B         0          0          0          NO
WCWE110A         0          0          0          NO
WCWE100F         0          0          0          NO
WCWE100E         0          0          0          NO
WCWE100D         0          0          0          NO
WCWE100C#1       0          0          0          NO
WCWE100B         0          0          0          NO
WCWE100A         0          0          0          NO
WCMN010E#1       0          0          0          NO
WC010D           0          0          0          NO
WCMN010B         0          0          0          NO
WCEA005A         0          0          0          NO
WCMN020B         0          0          0          NO
WCMN020A         0          0          0          NO

[INFLOWS]
;;Node           Constituent  Time Series      Type     Mfactor  Sfactor  Baseline Pattern
;;-------------- ------------ ---------------- -------- -------- -------- -------- --------
71044            FLOW         ""               FLOW     1.0      1.0      0.25
71014            FLOW         ""               FLOW     1.0      1.0      0.25
71016            FLOW         ""               FLOW     1.0      1.0      0.25
71041            FLOW         ""               FLOW     1.0      1.0      0.25
51998            FLOW         ""               FLOW     1.0      1.0      0.25
71018            FLOW         ""               FLOW     1.0      1.0      0.25
71024            FLOW         ""               FLOW     1.0      1.0      0.25
71028            FLOW         ""               FLOW     1.0      1.0      0.25
71030            FLOW         ""               FLOW     1.0      1.0      0.50
71032            FLOW         ""               FLOW     1.0      1.0      0.25
71035            FLOW         ""               FLOW     1.0      1.0      0.25

[COORDINATES]
;;Node           X-Coord            Y-Coord
;;-------------- ------------------ ------------------
71120            34.88              36.95             
71008            118.34             43.54             
71009            117.49             43.31             
71048            115.97             43.52             
71046            114.63             43.43             
71045            113.72             43.42             
71010            112.43             43.43             
71011            111.57             43.50             
71044            109.78             43.41             
71012            110.87             47.82             
71013            110.42             47.07             
71043            106.20             42.66             
71014            107.84             38.40             
71015            107.53             39.56             
71016            104.34             42.80             
71017            103.40             42.79             
71042            90.87              43.24             
71041            85.26              43.92             
51998            89.17              56.48             
51997            87.97              55.05             
71018            66.98              48.97             
71019            65.17              49.31             
71036            64.75              38.94             
71020            82.41              4.47              
71021            82.68              5.66              
71022            82.52              8.70              
71023            82.47              10.10             
71024            81.79              13.61             
71025            81.12              14.65             
71026            79.53              16.26             
71027            79.48              17.75             
71028            79.51              22.43             
71029            79.59              23.63             
71050            79.67              28.78             
71030            79.32              32.03             
71031            78.98              33.37             
71040            75.36              36.53             
71034            69.29              38.15             
71032            69.06              32.08             
71033            69.03              33.28             
71035            65.88              38.82             
71049            43.87              40.04             
71037            39.98              38.38             
71038            38.15              38.24             
73500            77.35              46.61             
73503            64.97              41.44             
73502            66.73              41.20             
73501            70.27              41.62             
54495            65.04              22.60             
54494            65.00              27.28             
54462            64.73              30.81             

[MAP]
DIMENSIONS 34.88 4.47 118.34 56.48
Units      None

[REPORT]
SUBCATCHMENTS ALL
NODES ALL
LINKS ALL
