;; SWMM5 .inp converted from XPSWMM .xp file
;; Generated by XPSWMM Card Reader
;; Source format: XP_CARD | Original title: (none)
;; Links parsed from source: 5 | Routable in this .inp: 5

[TITLE]
;;Project Title/Notes
Converted from XPSWMM .xp file

[OPTIONS]
FLOW_UNITS           CFS
INFILTRATION         HORTON
FLOW_ROUTING         DYNWAVE
LINK_OFFSETS         DEPTH
MIN_SLOPE            0.0
ALLOW_PONDING        NO
SKIP_STEADY_STATE    NO
ROUTING_STEP         00:00:15
VARIABLE_STEP        0.75
INERTIAL_DAMPING     PARTIAL
NORMAL_FLOW_LIMITED  BOTH
START_DATE           01/01/2001
START_TIME           00:00:00
REPORT_START_DATE    01/01/2001
REPORT_START_TIME    00:00:00
END_DATE             01/02/2001
END_TIME             00:00:00
SWEEP_START          01/01
SWEEP_END            12/31
DRY_DAYS             0
REPORT_STEP          00:15:00
WET_STEP             00:05:00
DRY_STEP             01:00:00

[JUNCTIONS]
;;Name           Elev       MaxDepth   InitDepth  SurDepth   Aponded
;;-------------- ---------- ---------- ---------- ---------- ----------
202              25.37      0          0          0          0
203              25.48      0          0          0          0
205              29.54      0          0          0          0
207              22.35      0          0          0          0
209              20.88      0          0          0          0

[OUTFALLS]
;;Name           Elev       Type       Stage      Gated
;;-------------- ---------- ---------- ---------- -----
211              18.20      FREE                  NO

[CONDUITS]
;;Name           From             To               Length     Roughness  InOffset   OutOffset  InitFlow   MaxFlow
;;-------------- ---------------- ---------------- ---------- ---------- ---------- ---------- ---------- ----------
204              202              203              135.00     0.0130     21.03      20.41      0          0
206              203              205              295.00     0.0130     20.41      19.23      0          0
208              205              207              350.00     0.0130     19.23      17.79      0          0
210              207              209              180.00     0.0130     15.98      15.22      0          0
212              209              211              220.00     0.0130     14.79      14.25      0          0

[XSECTIONS]
;;Link           Shape        Geom1      Geom2      Geom3      Geom4      Barrels
;;-------------- ------------ ---------- ---------- ---------- ---------- ----------
204              CIRCULAR     2.50       0          0          0          1
206              CIRCULAR     2.50       0          0          0          1
208              CIRCULAR     2.50       0          0          0          1
210              CIRCULAR     2.50       0          0          0          1
212              CIRCULAR     3.00       0          0          0          1

[LOSSES]
;;Link           Inlet      Outlet     Average    Flap Gate
;;-------------- ---------- ---------- ---------- ----------
204              0          0          0          NO
206              0          0          0          NO
208              0          0          0          NO
210              0          0          0          NO
212              0          0          0          NO

[INFLOWS]
;;Node           Constituent  Time Series      Type     Mfactor  Sfactor  Baseline Pattern
;;-------------- ------------ ---------------- -------- -------- -------- -------- --------
;; SYNTHETIC TEST INFLOWS — the source .xp carried no constant inflows
;; and RUNF hydrology is not converted; 1.00 CFS is applied at each
;; headwater node so the network runs wet for QA. Replace with real
;; hydrology or inflow hydrographs before using results.
202              FLOW         ""               FLOW     1.0      1.0      1.00

[COORDINATES]
;;Node           X-Coord            Y-Coord
;;-------------- ------------------ ------------------
202              17.53              30.63             
203              35.04              56.94             
205              57.77              87.18             
207              77.65              110.35            
209              96.58              141.76            
211              116.47             170.04            

[MAP]
DIMENSIONS 17.53 30.63 116.47 170.04
Units      None

[REPORT]
SUBCATCHMENTS ALL
NODES ALL
LINKS ALL
