;; SWMM5 .inp converted from XPSWMM .xp file
;; Generated by XPSWMM Card Reader
;; Source format: XP_CARD | Original title: (none)
;; Links parsed from source: 9 | Routable in this .inp: 9

[TITLE]
;;Project Title/Notes
Converted from XPSWMM .xp file

[OPTIONS]
FLOW_UNITS           CMS
INFILTRATION         HORTON
FLOW_ROUTING         DYNWAVE
LINK_OFFSETS         DEPTH
MIN_SLOPE            0.0
ALLOW_PONDING        NO
SKIP_STEADY_STATE    NO
INERTIAL_DAMPING     PARTIAL
NORMAL_FLOW_LIMITED  BOTH
START_DATE           01/01/2001
START_TIME           00:00:00
REPORT_START_DATE    01/01/2001
REPORT_START_TIME    00:00:00
END_DATE             01/02/2001
END_TIME             00:00:00
SWEEP_START          01/01
SWEEP_END            12/31
DRY_DAYS             0
REPORT_STEP          00:15:00
WET_STEP             00:05:00
DRY_STEP             01:00:00

[JUNCTIONS]
;;Name           Elev       MaxDepth   InitDepth  SurDepth   Aponded
;;-------------- ---------- ---------- ---------- ---------- ----------
baltimore        300.00     0          0          0          0
6                0          0          0          0          0
8                0          0          0          0          0
10               0          0          0          0          0
23               0          0          0          0          0
hole             0          0          0          0          0
16               0          0          0          0          0

[OUTFALLS]
;;Name           Elev       Type       Stage      Gated
;;-------------- ---------- ---------- ---------- -----
outfall          0          FREE                  NO

[STORAGE]
;;Name           Elev       MaxDepth   InitDepth  Shape      Curve/Params
;;-------------- ---------- ---------- ---------- ---------- ----------
cso              0          10.00      0          FUNCTIONAL 100.00 0          0
wetwell          0          10.00      0          FUNCTIONAL 100.00 0          0

[CONDUITS]
;;Name           From             To               Length     Roughness  InOffset   OutOffset  InitFlow   MaxFlow
;;-------------- ---------------- ---------------- ---------- ---------- ---------- ---------- ---------- ----------
3                baltimore        cso              100.00     0.0130     0          0          0          0
inter1           8                6                100.00     0.0130     0          0          0          0
inter2           6                10               100.00     0.0130     0          0          0          0
regulator        cso              hole             10.00      0.0140     0          0          0          0
channel          hole             16               100.00     0.0130     0          0          0          0
218.1            16               wetwell          100.00     0.0130     0          0          0          0
19               23               6                100.00     0.0130     0          0          0          0

[WEIRS]
;;Name           From             To               Type       CrestHt    Qcoeff     Gated    EndCon   EndCoeff   Surcharge
;;-------------- ---------------- ---------------- ---------- ---------- ---------- -------- -------- ---------- ----------
205.1            cso              outfall          TRANSVERSE 234.00     1.840      NO       0        0          YES

[PUMPS]
;;Name           From             To               PumpCurve  Status   Startup    Shutoff
;;-------------- ---------------- ---------------- ---------- -------- ---------- ----------
pumps            wetwell          23               PC_pumps   ON       1.00       0         

[CURVES]
;;Name           Type       X-Value    Y-Value
;;-------------- ---------- ---------- ----------
;; Synthesized generic pump curves — replace with actual pump data
PC_pumps         Pump1      0          5
PC_pumps                    10         10

[XSECTIONS]
;;Link           Shape        Geom1      Geom2      Geom3      Geom4      Barrels
;;-------------- ------------ ---------- ---------- ---------- ---------- ----------
3                CIRCULAR     1.00       0          0          0          1
inter1           CIRCULAR     1.00       0          0          0          1
inter2           CIRCULAR     1.00       0          0          0          1
regulator        TRAPEZOIDAL  0.50       10.00      2          2          1
channel          CIRCULAR     1.00       0          0          0          1
218.1            CIRCULAR     1.00       0          0          0          1
19               CIRCULAR     1.00       0          0          0          1
205.1            RECT_OPEN    1.00       2.00       0          0

[LOSSES]
;;Link           Inlet      Outlet     Average    Flap Gate
;;-------------- ---------- ---------- ---------- ----------
3                0          0          0          NO
inter1           0          0          0          NO
inter2           0          0          0          NO
regulator        0          0          0          NO
channel          0          0          0          NO
218.1            0          0          0          NO
19               0          0          0          NO

[INFLOWS]
;;Node           Constituent  Time Series      Type     Mfactor  Sfactor  Baseline Pattern
;;-------------- ------------ ---------------- -------- -------- -------- -------- --------
;; SYNTHETIC TEST INFLOWS — the source .xp carried no constant inflows
;; and RUNF hydrology is not converted; 0.03 CMS is applied at each
;; headwater node so the network runs wet for QA. Replace with real
;; hydrology or inflow hydrographs before using results.
baltimore        FLOW         ""               FLOW     1.0      1.0      0.03
8                FLOW         ""               FLOW     1.0      1.0      0.03

[COORDINATES]
;;Node           X-Coord            Y-Coord
;;-------------- ------------------ ------------------
baltimore        76.39              18.09             
cso              80.04              91.59             
outfall          81.61              159.75            
6                20.19              96.59             
8                13.89              26.12             
10               22.23              168.03            
wetwell          50.46              93.41             
23               32.07              94.08             
hole             70.08              91.74             
16               61.90              93.16             

[MAP]
DIMENSIONS 13.89 18.09 81.61 168.03
Units      None

[REPORT]
SUBCATCHMENTS ALL
NODES ALL
LINKS ALL
