;; SWMM5 .inp converted from XPSWMM .xp file
;; Generated by XPSWMM Card Reader
;; Source format: XP_CARD | Original title: Woy Woy Major SPS Catchment
;; Links parsed from source: 357 | Routable in this .inp: 357

[TITLE]
;;Project Title/Notes
Woy Woy Major SPS Catchment

[OPTIONS]
FLOW_UNITS           CMS
INFILTRATION         HORTON
FLOW_ROUTING         DYNWAVE
LINK_OFFSETS         DEPTH
MIN_SLOPE            0.0
ALLOW_PONDING        NO
SKIP_STEADY_STATE    NO
ROUTING_STEP         00:00:15
VARIABLE_STEP        0.75
INERTIAL_DAMPING     PARTIAL
NORMAL_FLOW_LIMITED  BOTH
MAX_TRIALS           50
HEAD_TOLERANCE       .001
START_DATE           01/01/2001
START_TIME           00:00:00
REPORT_START_DATE    01/01/2001
REPORT_START_TIME    00:00:00
END_DATE             01/02/2001
END_TIME             00:00:00
SWEEP_START          01/01
SWEEP_END            12/31
DRY_DAYS             0
REPORT_STEP          00:15:00
WET_STEP             00:05:00
DRY_STEP             01:00:00

[JUNCTIONS]
;;Name           Elev       MaxDepth   InitDepth  SurDepth   Aponded
;;-------------- ---------- ---------- ---------- ---------- ----------
ZA1              101.00     0          0          0          0
VC16             146.93     0          0          0          0
VC15             145.21     0          0          0          0
VC14             117.58     0          0          0          0
VC13             115.52     0          0          0          0
VC12             115.00     0          0          0          0
VC11             111.84     0          0          0          0
VC8              102.33     0          0          0          0
VC6              101.80     0          0          0          0
VC5              101.43     0          0          0          0
VC4              101.58     0          0          0          0
VC3              101.41     0          0          0          0
VC2              101.19     0          0          0          0
VC1              101.69     0          0          0          0
VA2              101.62     0          0          0          0
WG9              121.46     0          0          0          0
WG6              119.44     0          0          0          0
WG5              117.74     0          0          0          0
WG4              115.11     0          0          0          0
WG3              109.88     0          0          0          0
WG1              101.85     0          0          0          0
WF1              101.11     0          0          0          0
WA39A            107.78     0          0          0          0
WA39             108.17     0          0          0          0
WA38             107.21     0          0          0          0
WA37             106.83     0          0          0          0
WA36             106.72     0          0          0          0
WA33             107.90     0          0          0          0
WA32             106.91     0          0          0          0
WA31             107.02     0          0          0          0
WA30             106.76     0          0          0          0
WA29             107.07     0          0          0          0
WA27             106.55     0          0          0          0
WA26             106.92     0          0          0          0
WA24             106.67     0          0          0          0
WA23             106.37     0          0          0          0
WA22             105.51     0          0          0          0
WA20             104.60     0          0          0          0
WA19             105.20     0          0          0          0
WA18             105.05     0          0          0          0
WA15             104.11     0          0          0          0
WA14             104.07     0          0          0          0
WA13             103.20     0          0          0          0
WA12             102.86     0          0          0          0
WA11             102.86     0          0          0          0
WA10             102.74     0          0          0          0
WA9              102.68     0          0          0          0
WA8              102.82     0          0          0          0
WA7              105.30     0          0          0          0
WA6              102.47     0          0          0          0
WA5              102.37     0          0          0          0
WA4              102.19     0          0          0          0
WA3              102.49     0          0          0          0
WA2              101.77     0          0          0          0
WA1              103.76     0          0          0          0
NX8              102.49     0          0          0          0
NX7              102.19     0          0          0          0
NX6              102.34     0          0          0          0
NX5              102.14     0          0          0          0
NX4              103.93     0          0          0          0
NX3              101.49     0          0          0          0
NX2              101.72     0          0          0          0
NP2              101.27     0          0          0          0
NP1              100.95     0          0          0          0
Junction         120.00     0          0          0          0
NP3              101.65     0          0          0          0
NP4              101.50     0          0          0          0
NP5              101.32     0          0          0          0
NP6              101.51     0          0          0          0
NP9              103.61     0          0          0          0
NP12             101.05     0          0          0          0
NP11             102.91     0          0          0          0
NP17             101.09     0          0          0          0
NP13             100.84     0          0          0          0
NP19             105.29     0          0          0          0
NP18             102.21     0          0          0          0
NP23             103.76     0          0          0          0
NP21             104.83     0          0          0          0
NP20             105.00     0          0          0          0
NP27A            104.79     0          0          0          0
NP27             104.64     0          0          0          0
NP26             104.59     0          0          0          0
NP25             104.04     0          0          0          0
NP24             103.78     0          0          0          0
NH3              102.15     0          0          0          0
NH2              101.44     0          0          0          0
NH1              101.12     0          0          0          0
NH11             104.92     0          0          0          0
NH10             102.23     0          0          0          0
NH7              102.20     0          0          0          0
NH6              101.03     0          0          0          0
NE1              100.98     0          0          0          0
VA1              101.62     0          0          0          0
VB1              101.52     0          0          0          0
NHA11            105.02     0          0          0          0
JT7              104.65     0          0          0          0
JT4              104.23     0          0          0          0
JT3A             104.21     0          0          0          0
JT2              102.52     0          0          0          0
JT1              102.47     0          0          0          0
JT11             104.28     0          0          0          0
JT10             104.38     0          0          0          0
JT9              104.58     0          0          0          0
JT8              104.56     0          0          0          0
KB2              104.04     0          0          0          0
KB1A             104.18     0          0          0          0
KB1B             104.16     0          0          0          0
KB4              104.30     0          0          0          0
KB3              103.97     0          0          0          0
KB2A             103.90     0          0          0          0
KB9A             105.24     0          0          0          0
KB9              105.08     0          0          0          0
KB7              104.43     0          0          0          0
KB6              104.00     0          0          0          0
JT16             105.71     0          0          0          0
JT15             105.55     0          0          0          0
JT14             105.13     0          0          0          0
JT13             105.03     0          0          0          0
JT12             104.81     0          0          0          0
KL1              104.09     0          0          0          0
KI1              103.86     0          0          0          0
KI3              103.88     0          0          0          0
KI2              103.89     0          0          0          0
KI5              103.92     0          0          0          0
KI4              103.95     0          0          0          0
KI12             104.80     0          0          0          0
KI9              104.66     0          0          0          0
KI15             105.12     0          0          0          0
KI14             105.11     0          0          0          0
KI16             104.97     0          0          0          0
KB13             104.62     0          0          0          0
KB12             104.55     0          0          0          0
KB11             104.97     0          0          0          0
KB10             105.30     0          0          0          0
KB19             105.65     0          0          0          0
KB18             104.68     0          0          0          0
KB17             104.31     0          0          0          0
KB16             104.16     0          0          0          0
KB15             104.05     0          0          0          0
JU4              104.55     0          0          0          0
JU3              104.26     0          0          0          0
JU2              104.32     0          0          0          0
JU1              104.33     0          0          0          0
JU7              104.50     0          0          0          0
JU6              104.10     0          0          0          0
JU5              104.25     0          0          0          0
CJ1              101.39     0          0          0          0
CJ3              102.17     0          0          0          0
CJ2              101.44     0          0          0          0
CJ7              102.46     0          0          0          0
CJ5              102.35     0          0          0          0
CJ4A             101.97     0          0          0          0
CJ12             101.57     0          0          0          0
CJ11A            101.60     0          0          0          0
CJ10             101.95     0          0          0          0
CJ15             102.19     0          0          0          0
CJ13             101.77     0          0          0          0
CJ21             103.64     0          0          0          0
CJ20             103.35     0          0          0          0
CJ18A            103.11     0          0          0          0
CJ22             103.67     0          0          0          0
CL2              101.31     0          0          0          0
CL1              101.44     0          0          0          0
CS1              101.26     0          0          0          0
CA2              101.27     0          0          0          0
CA1              101.33     0          0          0          0
CA5              101.03     0          0          0          0
CA4              101.21     0          0          0          0
CA3              101.21     0          0          0          0
CA6              101.09     0          0          0          0
CF2              100.95     0          0          0          0
CF1              100.95     0          0          0          0
CF9              101.27     0          0          0          0
CF8              101.12     0          0          0          0
CF7              101.37     0          0          0          0
CF6              101.38     0          0          0          0
CF5              100.95     0          0          0          0
CF4              100.99     0          0          0          0
AT1              100.91     0          0          0          0
AT2              101.31     0          0          0          0
CX1              101.97     0          0          0          0
FU1              104.66     0          0          0          0
FU2              104.76     0          0          0          0
FU1A             104.68     0          0          0          0
FU5              104.93     0          0          0          0
FU4              104.94     0          0          0          0
FU3              104.60     0          0          0          0
FU11             104.91     0          0          0          0
FU10             105.01     0          0          0          0
FU8              104.62     0          0          0          0
FU6              104.95     0          0          0          0
CX2              102.01     0          0          0          0
CX4              102.05     0          0          0          0
CX7              103.12     0          0          0          0
CX6              102.84     0          0          0          0
CX5              102.15     0          0          0          0
CX10             104.29     0          0          0          0
CX9              102.50     0          0          0          0
CX8              102.82     0          0          0          0
CY3              101.85     0          0          0          0
CY1              102.08     0          0          0          0
GK1              104.57     0          0          0          0
GK1A             104.48     0          0          0          0
FW2              104.57     0          0          0          0
FW1              104.60     0          0          0          0
FV1              104.75     0          0          0          0
FW5              104.69     0          0          0          0
FW4              104.68     0          0          0          0
FW3              104.56     0          0          0          0
FV4              104.31     0          0          0          0
FV3              104.29     0          0          0          0
FV7              104.83     0          0          0          0
FV5              104.51     0          0          0          0
FV9              104.14     0          0          0          0
FV8              104.69     0          0          0          0
EJ1              100.93     0          0          0          0
EJ5              100.94     0          0          0          0
EJ2              100.92     0          0          0          0
EJ10             104.34     0          0          0          0
EJ9              102.98     0          0          0          0
EJ8              102.60     0          0          0          0
EJ7              101.43     0          0          0          0
EJ6              101.03     0          0          0          0
EY2              101.47     0          0          0          0
EY1              101.04     0          0          0          0
EY5              103.13     0          0          0          0
FA4              101.18     0          0          0          0
FA2              101.18     0          0          0          0
FA1              100.90     0          0          0          0
FA8              103.84     0          0          0          0
FA7              103.92     0          0          0          0
FA6              103.96     0          0          0          0
HJ4              104.27     0          0          0          0
HJ2              104.29     0          0          0          0
HJ1              104.44     0          0          0          0
GX1              104.26     0          0          0          0
GW2              104.62     0          0          0          0
GW1              104.86     0          0          0          0
GX2              104.39     0          0          0          0
GX5              104.78     0          0          0          0
GX3A             104.37     0          0          0          0
GX10             104.92     0          0          0          0
GX8              105.26     0          0          0          0
GX7              105.08     0          0          0          0
GX6              104.89     0          0          0          0
MR1              103.78     0          0          0          0
MR1A             103.59     0          0          0          0
HU2              103.65     0          0          0          0
HU1              103.62     0          0          0          0
HT1              104.29     0          0          0          0
JH1              102.75     0          0          0          0
HU6              103.21     0          0          0          0
HU5              103.04     0          0          0          0
HU4              103.30     0          0          0          0
HU3              103.56     0          0          0          0
JH1A             103.09     0          0          0          0
JH5              103.09     0          0          0          0
JH2              102.61     0          0          0          0
HV5              103.85     0          0          0          0
HV4              103.59     0          0          0          0
HV3              103.45     0          0          0          0
HV1              103.76     0          0          0          0
HV10             104.83     0          0          0          0
HV8              104.76     0          0          0          0
HV6              103.75     0          0          0          0
HV13             105.21     0          0          0          0
HV12             105.00     0          0          0          0
HX6              103.34     0          0          0          0
HX5              103.91     0          0          0          0
HX3              104.18     0          0          0          0
HX1              103.99     0          0          0          0
IG2A             103.86     0          0          0          0
IG2              103.99     0          0          0          0
IG1              103.82     0          0          0          0
IG6              102.51     0          0          0          0
IG4              103.09     0          0          0          0
IG3              103.33     0          0          0          0
IG8              102.31     0          0          0          0
IG7              102.52     0          0          0          0
IG12             103.34     0          0          0          0
IG11             102.93     0          0          0          0
IG10             102.47     0          0          0          0
IG16             103.15     0          0          0          0
IG15             103.40     0          0          0          0
IG14             103.16     0          0          0          0
IG13             103.12     0          0          0          0
HT4              103.45     0          0          0          0
HT3              104.32     0          0          0          0
HT2              104.30     0          0          0          0
LA1              102.11     0          0          0          0
LA2              102.11     0          0          0          0
LA6              101.77     0          0          0          0
LA5              101.81     0          0          0          0
LA3              101.90     0          0          0          0
LD1              100.96     0          0          0          0
LA8              101.14     0          0          0          0
LD4              101.46     0          0          0          0
LD6              102.09     0          0          0          0
LD5              101.84     0          0          0          0
LD8              110.26     0          0          0          0
LD7              108.97     0          0          0          0
MO1              115.15     0          0          0          0
LD10             114.58     0          0          0          0
KZ3              103.00     0          0          0          0
KZ1              103.31     0          0          0          0
KZ4              103.39     0          0          0          0
KZ7              104.12     0          0          0          0
KZ6              104.67     0          0          0          0
KZ5              104.22     0          0          0          0
KZ10             104.01     0          0          0          0
KZ9              104.57     0          0          0          0
KZ8              103.94     0          0          0          0
KZ13             104.54     0          0          0          0
KZ12             104.28     0          0          0          0
KZ11             104.05     0          0          0          0
KZ15             105.20     0          0          0          0
LT3              103.77     0          0          0          0
LT2              104.09     0          0          0          0
OR1              104.02     0          0          0          0
OR5              101.83     0          0          0          0
OR4              101.17     0          0          0          0
OR3              101.46     0          0          0          0
OR8              107.84     0          0          0          0
OR6              106.43     0          0          0          0
OU3              110.33     0          0          0          0
OU1              111.02     0          0          0          0
OR9              111.25     0          0          0          0
OU7              113.42     0          0          0          0
OU6              113.71     0          0          0          0
OU5              111.59     0          0          0          0
OU8              114.47     0          0          0          0
OC5              103.44     0          0          0          0
OC4              103.95     0          0          0          0
OC1              103.61     0          0          0          0
AG1              101.48     0          0          0          0
FB2              101.06     0          0          0          0
FB1              101.05     0          0          0          0
outlet           120.00     0          0          0          0
HW_1001804       101.68     0          0          0          0
HW_1003806       101.52     0          0          0          0
HW_005807        101.32     0          0          0          0
HW_1008810       101.34     0          0          0          0
HW_009812        101.06     0          0          0          0
HW_1013815       102.08     0          0          0          0
HW_1014816       101.48     0          0          0          0
HW_1017819       102.74     0          0          0          0
HW_1018820       102.53     0          0          0          0
HW_1021823       96.77      0          0          0          0
HW_RM-WW5        0          0          0          0          0
HW_1025827       99.35      0          0          0          0
HW_1026828       98.83      0          0          0          0
HW_1029831       101.58     0          0          0          0
HW_1030833       101.39     0          0          0          0
HW_1032835       101.18     0          0          0          0
HW_1034837       99.75      0          0          0          0
HW_1036838       99.45      0          0          0          0
HW_1039841       97.02      0          0          0          0
HW_1040842       96.85      0          0          0          0
HW_1043844       99.64      0          0          0          0
HW_1045847       99.80      0          0          0          0
HW_1046849       99.43      0          0          0          0
HW_1048850       99.28      0          0          0          0
HW_1051853       101.18     0          0          0          0
HW_1052855       101.09     0          0          0          0
HW_1054856       100.87     0          0          0          0
HW_1057859       101.17     0          0          0          0
HW_1058861       100.43     0          0          0          0
HW_1060863       100.29     0          0          0          0
HW_1062865       99.94      0          0          0          0
HW_1066868       101.16     0          0          0          0
HW_1067870       100.72     0          0          0          0
HW_1069871       100.03     0          0          0          0
HW_1072874       100.90     0          0          0          0
HW_1073875       100.51     0          0          0          0
HW_1076878       102.14     0          0          0          0
HW_1077880       101.62     0          0          0          0
HW_1079882       101.34     0          0          0          0
HW_1081883       101.08     0          0          0          0
HW_RM-WW7        0          0          0          0          0
HW_1085887       99.91      0          0          0          0
HW_1086889       99.75      0          0          0          0
HW_1090892       98.71      0          0          0          0
HW_1091894       98.57      0          0          0          0
HW_1093896       98.09      0          0          0          0
HW_1097899       100.46     0          0          0          0
HW_1098901       100.24     0          0          0          0
HW_1100903       99.90      0          0          0          0
HW_1102905       99.14      0          0          0          0
HW_1104906       98.85      0          0          0          0
HW_1107909       101.10     0          0          0          0
HW_1108911       101.09     0          0          0          0
HW_1110912       100.55     0          0          0          0
HW_RM-WW9        0          0          0          0          0
HW_RM-WW8        0          0          0          0          0
HW_1115917       99.69      0          0          0          0
HW_1116919       99.58      0          0          0          0
HW_1118921       99.35      0          0          0          0
HW_1120922       98.80      0          0          0          0
HW_1123925       101.42     0          0          0          0
HW_1124927       100.67     0          0          0          0
HW_1126928       100.22     0          0          0          0
HW_1129931       102.84     0          0          0          0
HW_1130932       102.37     0          0          0          0
HW_1133935       100.86     0          0          0          0
HW_1134937       100.59     0          0          0          0
HW_1136939       100.13     0          0          0          0
HW_1138940       99.97      0          0          0          0
HW_1141943       99.49      0          0          0          0
HW_1142945       99.47      0          0          0          0
HW_1144946       99.39      0          0          0          0
HW_1147949       99.82      0          0          0          0
HW_1148951       99.60      0          0          0          0
HW_1150952       99.56      0          0          0          0
HW_1154956       100.01     0          0          0          0
HW_1155957       99.86      0          0          0          0
HW_1158960       100.40     0          0          0          0
HW_1159962       100.27     0          0          0          0
HW_1161963       100.21     0          0          0          0
HW_1164966       100.82     0          0          0          0
HW_1165968       100.69     0          0          0          0
HW_1167970       100.56     0          0          0          0
HW_1169971       100.48     0          0          0          0
HW_1172974       99.04      0          0          0          0
HW_1173976       98.62      0          0          0          0
HW_1175977       98.31      0          0          0          0
HW_1178980       97.06      0          0          0          0
HW_1181982       97.10      0          0          0          0
HW_1185987       98.04      0          0          0          0
HW_1186989       97.85      0          0          0          0
HW_1188990       97.28      0          0          0          0
HW_1191993       98.68      0          0          0          0
HW_1192994       98.34      0          0          0          0
HW_1195996       99.28      0          0          0          0
HW_1197999       100.52     0          0          0          0
HW_11981000      99.41      0          0          0          0
HW_12011003      108.74     0          0          0          0
HW_12021004      106.09     0          0          0          0
HW_12051007      113.67     0          0          0          0
HW_12061008      113.34     0          0          0          0
HW_12091011      98.10      0          0          0          0
HW_12101012      97.27      0          0          0          0
HW_12131014      98.33      0          0          0          0
HW_12151017      98.97      0          0          0          0
HW_12161019      98.83      0          0          0          0
HW_12181020      98.61      0          0          0          0
HW_12211023      99.59      0          0          0          0
HW_12221025      99.49      0          0          0          0
HW_12241026      99.08      0          0          0          0
HW_12271029      100.37     0          0          0          0
HW_12281031      100.14     0          0          0          0
HW_12301032      99.95      0          0          0          0
HW_12331034      101.05     0          0          0          0
HW_12351037      100.58     0          0          0          0
HW_12361038      100.44     0          0          0          0
HW_12391041      99.92      0          0          0          0
HW_12431045      100.49     0          0          0          0
HW_12441047      100.38     0          0          0          0
HW_12461048      100.22     0          0          0          0
HW_12491051      106.93     0          0          0          0
HW_12501052      104.29     0          0          0          0
HW_12531055      108.80     0          0          0          0
HW_12541057      108.56     0          0          0          0
HW_12561058      108.45     0          0          0          0
HW_12591061      112.29     0          0          0          0
HW_12601063      112.06     0          0          0          0
HW_12621064      110.38     0          0          0          0
HW_12651066      113.48     0          0          0          0
HW_12681071      100.13     0          0          0          0
HW_12701073      99.84      0          0          0          0
HW_RM-WW14A      0          0          0          0          0
HW_2751076       97.08      0          0          0          0
HW_12771079      97.55      0          0          0          0
HW_12781080      97.38      0          0          0          0
HW_12671081      100.40     0          0          0          0

[OUTFALLS]
;;Name           Elev       Type       Stage      Gated
;;-------------- ---------- ---------- ---------- -----
JT1A             102.73     FREE                  NO

[STORAGE]
;;Name           Elev       MaxDepth   InitDepth  Shape      Curve/Params
;;-------------- ---------- ---------- ---------- ---------- ----------
WB3              101.00     10.00      1.80       FUNCTIONAL 5.70 0          0
WB2              101.35     10.00      1.60       FUNCTIONAL 5.70 0          0
WB1              101.00     10.00      1.60       FUNCTIONAL 5.70 0          0
WW13C            101.29     10.00      1.80       FUNCTIONAL 5.70 0          0
WW13B            101.23     10.00      1.60       FUNCTIONAL 2.50 0          0
WW13A            102.15     10.00      1.60       FUNCTIONAL 1.30 0          0
WW3              101.47     10.00      2.63       FUNCTIONAL 5.70 0          0
WW3A             101.39     10.00      1.60       FUNCTIONAL 2.50 0          0
WW2              101.02     10.00      1.70       FUNCTIONAL 2.50 0          0
WW1              101.52     10.00      1.45       FUNCTIONAL 2.50 0          0
WW4              102.05     10.00      1.70       FUNCTIONAL 2.50 0          0
WW6              104.74     10.00      2.70       FUNCTIONAL 2.50 0          0
WW5              101.14     10.00      1.60       FUNCTIONAL 2.50 0          0
WW7              104.71     10.00      1.60       FUNCTIONAL 2.50 0          0
WW9              103.66     10.00      1.23       FUNCTIONAL 2.50 0          0
WW8              104.29     10.00      2.31       FUNCTIONAL 5.70 0          0
WW10             102.06     10.00      2.61       FUNCTIONAL 2.50 0          0
WW14B            104.66     10.00      1.18       FUNCTIONAL 2.50 0          0
WW14A            102.15     10.00      2.08       FUNCTIONAL 2.50 0          0

[CONDUITS]
;;Name           From             To               Length     Roughness  InOffset   OutOffset  InitFlow   MaxFlow
;;-------------- ---------------- ---------------- ---------- ---------- ---------- ---------- ---------- ----------
224              ZA1              WB3              20.00      0.0130     96.75      96.72      0          0
233              VC16             VC15             23.80      0.0130     144.90     143.33     0          0
444              VC15             VC14             91.00      0.0130     143.33     116.38     0          0
446              VC14             VC13             16.20      0.0130     116.38     114.39     0          0
459              VC13             VC12             13.00      0.0130     114.39     113.97     0          0
461              VC12             VC11             8.20       0.0130     113.97     109.59     0          0
463              VC11             VC8              42.00      0.0130     109.59     100.00     0          0
465              VC8              VC6              64.10      0.0130     100.00     99.67      0          0
467              VC6              VC5              39.70      0.0130     99.67      99.50      0          0
469              VC5              VC4              49.30      0.0130     99.50      99.35      0          0
471              VC4              VC3              36.30      0.0130     99.35      99.13      0          0
473              VC3              VC2              36.50      0.0130     99.13      98.99      0          0
475              VC2              VC1              22.60      0.0130     98.99      98.96      0          0
477              VC1              VA2              32.00      0.0130     98.96      98.89      0          0
547              WG9              WG6              40.60      0.0130     120.41     117.94     0          0
549              WG6              WG5              15.70      0.0130     117.94     116.17     0          0
552              WG5              WG4              49.60      0.0130     116.17     113.79     0          0
554              WG4              WG3              15.50      0.0130     113.79     109.11     0          0
556              WG3              WG1              14.40      0.0130     109.11     99.00      0          0
560              WG1              WF1              256.30     0.0130     99.00      97.59      0          0
561              WF1              WB1              5.20       0.0140     97.59      97.57      0          0
569              WA39A            WA39             63.40      0.0140     107.08     106.87     0          0
581              WA39             WA38             26.20      0.0140     106.87     106.56     0          0
583              WA38             WA37             16.50      0.0140     106.56     106.13     0          0
585              WA37             WA36             24.70      0.0140     106.13     105.87     0          0
587              WA36             WA33             86.50      0.0140     105.87     105.59     0          0
589              WA33             WA32             45.90      0.0140     105.59     105.41     0          0
591              WA32             WA31             15.20      0.0140     105.41     105.32     0          0
593              WA31             WA30             24.00      0.0140     105.32     104.36     0          0
595              WA30             WA29             33.10      0.0140     104.36     104.07     0          0
597              WA29             WA27             49.30      0.0140     104.07     104.05     0          0
599              WA27             WA26             26.80      0.0140     104.05     103.92     0          0
601              WA26             WA24             51.40      0.0140     103.92     103.67     0          0
603              WA24             WA23             33.70      0.0140     103.67     103.37     0          0
605              WA23             WA22             27.50      0.0140     103.37     103.31     0          0
607              WA22             WA20             56.30      0.0140     103.31     103.10     0          0
609              WA20             WA19             23.20      0.0140     103.10     102.90     0          0
611              WA19             WA18             23.40      0.0140     102.90     102.84     0          0
613              WA18             WA15             87.50      0.0140     102.84     102.71     0          0
615              WA15             WA14             40.90      0.0140     102.71     102.47     0          0
617              WA14             WA13             59.50      0.0140     102.47     102.30     0          0
619              WA13             WA12             17.00      0.0140     102.30     102.26     0          0
621              WA12             WA11             25.20      0.0140     102.26     102.26     0          0
623              WA11             WA10             31.40      0.0140     102.26     102.14     0          0
625              WA10             WA9              10.00      0.0140     102.14     102.08     0          0
627              WA9              WA8              45.00      0.0140     101.63     101.33     0          0
629              WA8              WA7              110.00     0.0140     101.33     101.20     0          0
631              WA7              WA6              12.50      0.0140     101.20     101.18     0          0
633              WA6              WA5              19.00      0.0140     101.18     101.08     0          0
635              WA5              WA4              31.00      0.0140     101.08     101.04     0          0
637              WA4              WA3              52.40      0.0140     101.04     100.89     0          0
639              WA3              WA2              43.50      0.0140     100.89     100.77     0          0
641              VC15             WA1              14.50      0.0140     100.77     100.76     0          0
643              VC14             NX8              47.90      0.0140     100.76     100.60     0          0
645              NX8              NX7              8.30       0.0140     100.60     100.53     0          0
647              NX7              NX6              71.60      0.0140     100.53     100.38     0          0
649              NX6              NX5              34.00      0.0140     100.38     100.26     0          0
651              NX5              NX4              32.40      0.0140     100.26     100.22     0          0
653              NX4              NX3              126.50     0.0140     100.22     99.59      0          0
655              NX3              NX2              104.90     0.0140     99.59      98.78      0          0
657              NX2              NP2              117.80     0.0140     98.78      97.60      0          0
659              NP2              NP1              12.30      0.0140     97.52      97.37      0          0
661              NP1              WW13C            5.00       0.0140     97.37      97.31      0          0
678              NP9              NP6              243.70     0.0140     98.98      98.19      0          0
676              NP6              NP5              9.10       0.0140     98.19      98.15      0          0
674              NP5              NP4              19.60      0.0140     98.15      98.06      0          0
672              NP4              NP3              8.50       0.0140     98.06      97.95      0          0
670              NP3              NP2              49.80      0.0140     97.95      97.52      0          0
685              NP12             NP11             28.80      0.0140     99.34      99.23      0          0
686              NP11             NP9              28.10      0.0140     99.23      98.98      0          0
689              NP17             NP13             110.20     0.0140     99.99      99.49      0          0
690              NP13             NP12             43.20      0.0140     99.49      99.34      0          0
693              NP19             NP18             48.00      0.0140     100.32     100.14     0          0
694              NP18             NP17             22.50      0.0140     100.14     99.99      0          0
697              NP23             NP21             128.80     0.0140     101.45     100.86     0          0
698              NP21             NP20             11.00      0.0140     100.86     100.74     0          0
700              NP20             NP19             92.60      0.0140     100.74     100.32     0          0
703              NP27A            NP27             13.70      0.0140     104.06     103.37     0          0
704              NP27             NP26             81.50      0.0140     103.37     102.89     0          0
706              NP26             NP25             111.20     0.0140     102.89     102.47     0          0
708              NP25             NP24             77.60      0.0140     102.47     102.14     0          0
710              NP24             NP23             88.50      0.0140     102.14     101.45     0          0
713              NH3              NH2              28.40      0.0140     98.30      97.66      0          0
714              NH2              NH1              11.70      0.0140     97.66      97.59      0          0
716              NH1              WW13B            3.60       0.0140     97.59      97.50      0          0
722              NH11             NH10             44.30      0.0140     103.30     100.00     0          0
723              NH10             NH7              155.50     0.0140     100.00     99.43      0          0
725              NH7              NH6              38.60      0.0140     99.43      99.13      0          0
727              NH6              NH3              108.00     0.0140     99.13      98.30      0          0
730              NE1              WW13A            13.80      0.0140     98.23      98.13      0          0
737              VA1              WB2              5.10       0.0140     98.62      98.58      0          0
479              VA2              VA1              12.20      0.0140     98.84      98.62      0          0
740              VB1              VA2              20.80      0.0140     99.14      98.87      0          0
743              NHA11            NH11             56.20      0.0140     104.29     103.30     0          0
746              JT7              JT4              174.40     0.0140     99.96      99.54      0          0
747              JT4              JT3A             9.70       0.0140     99.54      99.08      0          0
749              WG5              JT2              172.00     0.0140     99.08      98.63      0          0
751              WG4              JT1A             29.00      0.0140     98.63      98.55      0          0
753              WG3              JT1              26.40      0.0140     98.55      98.01      0          0
755              JT1              Junction         18.80      0.0140     98.01      97.90      0          0
764              JT11             JT10             110.20     0.0140     101.54     101.25     0          0
765              JT10             JT9              92.40      0.0140     101.25     100.39     0          0
767              JT9              JT8              109.60     0.0140     100.39     100.23     0          0
769              JT8              JT7              106.60     0.0140     100.23     99.96      0          0
772              KB2              KB1A             37.30      0.0140     99.27      99.23      0          0
773              KB1A             KB1B             33.90      0.0140     99.23      99.18      0          0
775              KB1B             JT3A             15.10      0.0140     99.18      99.10      0          0
778              KB4              KB3              93.00      0.0140     99.76      99.59      0          0
779              KB3              KB2A             86.00      0.0140     99.59      99.33      0          0
781              WA38             KB2              30.80      0.0140     99.33      99.27      0          0
784              KB9A             KB9              31.00      0.0140     101.08     100.93     0          0
785              KB9              KB7              128.80     0.0140     100.93     100.69     0          0
787              KB7              KB6              91.80      0.0140     100.69     100.25     0          0
789              WA32             KB4              205.00     0.0140     100.25     99.76      0          0
792              JT16             JT15             23.10      0.0140     104.86     103.77     0          0
793              JT15             JT14             90.40      0.0140     103.77     103.27     0          0
795              JT14             JT13             106.30     0.0140     103.27     103.08     0          0
797              JT13             JT12             93.00      0.0140     101.99     101.73     0          0
799              WA26             JT11             110.40     0.0140     101.73     101.54     0          0
802              KL1              KI1              79.90      0.0140     100.37     99.99      0          0
803              WA23             KB2              81.80      0.0140     99.91      99.49      0          0
806              KI3              KI2              84.10      0.0140     100.27     99.99      0          0
807              WA20             KI1              9.00       0.0140     99.99      99.91      0          0
810              KI5              KI4              89.20      0.0140     100.66     100.37     0          0
811              WA18             KI3              23.00      0.0140     100.37     100.27     0          0
814              KI12             KI9              212.70     0.0140     102.38     101.60     0          0
815              WA14             KI5              275.20     0.0140     101.60     100.66     0          0
818              KI15             KI14             42.30      0.0140     103.02     102.91     0          0
819              WA12             KI12             129.30     0.0140     102.91     102.38     0          0
822              WA11             KI15             51.00      0.0140     103.21     103.02     0          0
829              WA7              KB12             7.90       0.0140     101.43     101.41     0          0
830              WA6              KB11             48.80      0.0140     101.41     101.35     0          0
832              WA5              KB10             87.00      0.0140     101.35     101.18     0          0
834              KB10             KB9A             97.00      0.0140     101.18     101.08     0          0
837              WA3              KB18             73.50      0.0140     104.24     103.14     0          0
838              WA2              KB17             82.80      0.0140     103.14     102.97     0          0
840              WA1              KB16             34.20      0.0140     102.97     102.49     0          0
842              NX8              KB15             13.40      0.0140     102.49     102.25     0          0
844              KB15             KB13             145.20     0.0140     102.25     101.43     0          0
847              NX6              JU3              33.50      0.0140     100.83     100.81     0          0
848              NX5              JU2              24.10      0.0140     100.81     100.76     0          0
850              NX4              JU1              44.60      0.0140     100.76     100.56     0          0
852              JU1              JT9              85.60      0.0140     100.56     100.46     0          0
855              NX2              JU6              33.80      0.0140     102.18     102.09     0          0
856              NP2              JU5              57.70      0.0140     102.09     101.88     0          0
858              JU5              JU4              72.50      0.0140     101.88     100.83     0          0
864              Junction         WW3              5.90       0.0140     98.34      98.32      0          0
868              NP3              CJ2              54.30      0.0140     98.49      98.40      0          0
869              CJ2              CJ1              19.20      0.0140     98.40      98.34      0          0
872              NP5              CJ5              46.50      0.0140     99.37      99.05      0          0
873              NP6              CJ4A             16.50      0.0140     99.05      98.89      0          0
875              CJ4A             CJ3              88.10      0.0140     98.89      98.49      0          0
878              CJ12             CJ11A            24.20      0.0140     100.55     100.15     0          0
879              CJ11A            CJ10             14.30      0.0140     100.15     99.58      0          0
881              CJ10             CJ7              62.00      0.0140     99.58      99.37      0          0
884              NP11             CJ13             82.10      0.0140     100.99     100.71     0          0
885              CJ13             CJ12             38.80      0.0140     100.71     100.55     0          0
888              NP13             CJ20             47.40      0.0140     102.40     102.28     0          0
889              CJ20             CJ18A            173.10     0.0140     102.28     101.68     0          0
891              NP19             CJ15             191.40     0.0140     101.68     100.99     0          0
894              CJ22             CJ21             30.80      0.0140     102.56     102.40     0          0
896              NP21             CL1              22.80      0.0140     100.13     100.02     0          0
897              NP20             CS1              41.80      0.0140     100.02     99.75      0          0
899              CS1              CJ1              47.30      0.0140     98.56      98.37      0          0
906              NP25             CA1              38.70      0.0140     98.50      98.22      0          0
907              CA1              WW3A             8.00       0.0140     98.22      98.19      0          0
910              CA5              CA4              102.50     0.0140     99.77      98.99      0          0
911              NH2              CA3              67.00      0.0140     98.99      98.69      0          0
913              CA3              CA2              68.20      0.0140     98.69      98.50      0          0
916              CA6              CA5              85.00      0.0140     100.05     99.77      0          0
918              CF2              CF1              9.60       0.0140     98.77      98.52      0          0
919              CF1              CA1              45.00      0.0140     98.52      98.37      0          0
922              CF9              CF8              42.00      0.0140     100.27     100.14     0          0
923              CF8              CF7              64.00      0.0140     100.14     99.96      0          0
925              CF7              CF6              9.50       0.0140     99.96      99.83      0          0
927              NE1              CF5              23.60      0.0140     99.83      99.76      0          0
929              CF5              CF4              12.50      0.0140     99.76      99.32      0          0
931              CF4              CF2              103.30     0.0140     99.32      98.77      0          0
934              AT1              WW2              4.20       0.0140     96.10      96.07      0          0
938              AT2              AT1              31.50      0.0140     96.28      96.10      0          0
942              CX1              WW4              5.10       0.0140     98.53      98.47      0          0
946              FU1              WW6              7.70       0.0140     100.15     100.14     0          0
949              JT2              FU1A             43.40      0.0140     100.38     100.20     0          0
950              FU1A             FU1              10.60      0.0140     100.20     100.15     0          0
954              FU5              FU4              78.60      0.0140     101.91     101.52     0          0
955              FU4              FU3              79.30      0.0140     101.52     100.99     0          0
957              FU3              FU2              28.70      0.0140     100.99     100.38     0          0
961              FU11             FU10             44.00      0.0140     103.53     102.61     0          0
962              JT10             FU8              44.80      0.0140     102.61     102.51     0          0
964              JT9              FU6              114.90     0.0140     102.51     102.11     0          0
966              FU6              FU5              12.80      0.0140     102.11     101.91     0          0
969              CX2              CX1              14.50      0.0140     98.65      98.53      0          0
971              KB2              CX2              67.80      0.0140     98.91      98.65      0          0
973              KB1B             CX6              29.40      0.0140     99.73      99.61      0          0
974              CX6              CX5              73.30      0.0140     99.61      99.22      0          0
976              KB4              CX4              54.10      0.0140     99.22      98.91      0          0
979              KB2A             CX9              77.00      0.0140     100.59     100.29     0          0
980              CX9              CX8              66.30      0.0140     100.29     99.86      0          0
982              KB9A             CX7              39.20      0.0140     99.86      99.73      0          0
986              CY3              CY1              79.80      0.0140     99.28      99.02      0          0
987              KB6              CX4              14.50      0.0140     99.02      98.91      0          0
990              JT16             GK1A             48.60      0.0140     100.71     100.52     0          0
991              JT15             FU2              26.80      0.0140     100.52     100.39     0          0
994              FW2              FW1              8.10       0.0140     101.22     101.21     0          0
995              FW1              FV1              61.00      0.0140     101.21     100.79     0          0
997              JT12             FU1A             80.10      0.0140     100.72     100.35     0          0
1001804          HW_1001804       FW4              67.90      0.0140     101.68     101.52     0          0
1003806          HW_1003806       FW3              52.50      0.0140     101.52     101.32     0          0
005807           HW_005807        FW2              55.50      0.0140     101.32     101.22     0          0
1008810          HW_1008810       FV3              71.40      0.0140     101.34     101.06     0          0
009812           HW_009812        FV1              60.20      0.0140     101.06     100.72     0          0
1013815          HW_1013815       FV5              87.60      0.0140     102.08     101.48     0          0
1014816          HW_1014816       FV4              13.50      0.0140     101.48     101.34     0          0
1017819          HW_1017819       FV8              16.10      0.0140     102.74     102.53     0          0
1018820          HW_1018820       FV7              70.00      0.0140     102.53     102.08     0          0
1021823          HW_1021823       WW5              4.30       0.0140     96.77      96.73      0          0
1025827          HW_1025827       EJ2              136.10     0.0140     99.35      98.83      0          0
1026828          HW_1026828       EJ1              68.50      0.0140     98.83      96.77      0          0
1029831          HW_1029831       EJ9              34.40      0.0140     101.58     101.39     0          0
1030833          HW_1030833       EJ8              27.00      0.0140     101.39     101.18     0          0
1032835          HW_1032835       EJ7              76.40      0.0140     101.18     100.64     0          0
1034837          HW_1034837       EJ6              80.00      0.0140     99.75      99.45      0          0
1036838          HW_1036838       EJ5              18.30      0.0140     99.45      99.35      0          0
1039841          HW_1039841       EY1              42.90      0.0140     97.02      96.85      0          0
1040842          HW_1040842       EJ1              25.80      0.0140     96.85      96.75      0          0
1043844          HW_1043844       EY2              62.30      0.0140     99.64      99.23      0          0
1045847          HW_1045847       FA2              99.70      0.0140     99.80      99.43      0          0
1046849          HW_1046849       FA1              17.30      0.0140     99.43      99.28      0          0
1048850          HW_1048850       EY2              47.10      0.0140     99.28      98.82      0          0
1051853          HW_1051853       FA7              10.00      0.0140     101.18     101.09     0          0
1052855          HW_1052855       FA6              45.20      0.0140     101.09     100.87     0          0
1054856          HW_1054856       FA4              48.30      0.0140     100.87     100.20     0          0
1057859          HW_1057859       HJ2              131.40     0.0140     101.17     100.43     0          0
1058861          HW_1058861       HJ1              13.50      0.0140     100.43     100.29     0          0
1060863          HW_1060863       GX1              34.90      0.0140     100.29     99.95      0          0
1062865          HW_1062865       WW7              7.70       0.0140     99.94      99.90      0          0
1066868          HW_1066868       GW1              70.10      0.0140     101.16     100.72     0          0
1067870          HW_1067870       GX2              68.00      0.0140     100.72     100.35     0          0
1069871          HW_1069871       GX1              19.60      0.0140     100.03     99.94      0          0
1072874          HW_1072874       GX3A             102.30     0.0140     100.90     100.57     0          0
1073875          HW_1073875       GX2              100.80     0.0140     100.51     100.03     0          0
1076878          HW_1076878       GX8              117.00     0.0140     102.14     101.62     0          0
1077880          HW_1077880       GX7              88.90      0.0140     101.62     101.34     0          0
1079882          HW_1079882       GX6              67.80      0.0140     101.34     101.08     0          0
1081883          HW_1081883       GX5              54.10      0.0140     101.08     100.90     0          0
1085887          HW_1085887       MR1A             26.30      0.0140     99.91      99.75      0          0
1086889          HW_1086889       WW9              5.30       0.0140     99.75      99.69      0          0
1090892          HW_1090892       HU1              8.10       0.0140     98.71      98.71      0          0
1091894          HW_1091894       HT1              51.90      0.0140     98.57      98.12      0          0
1093896          HW_1093896       WW8              10.00      0.0140     98.09      98.08      0          0
1097899          HW_1097899       HU6              52.60      0.0140     100.46     100.25     0          0
1098901          HW_1098901       HU5              50.70      0.0140     100.24     99.90      0          0
1100903          HW_1100903       HU4              52.50      0.0140     99.90      99.64      0          0
1102905          HW_1102905       HU3              57.50      0.0140     99.14      98.85      0          0
1104906          HW_1104906       HU2              52.30      0.0140     98.85      98.81      0          0
1107909          HW_1107909       JH5              10.00      0.0140     101.10     101.09     0          0
1108911          HW_1108911       JH2              195.40     0.0140     101.09     100.55     0          0
1110912          HW_1110912       JH1              41.10      0.0140     100.55     100.46     0          0
1115917          HW_1115917       HV4              51.00      0.0140     99.69      99.58      0          0
1116919          HW_1116919       HV3              49.70      0.0140     99.58      99.35      0          0
1118921          HW_1118921       HV1              161.30     0.0140     99.35      98.80      0          0
1120922          HW_1120922       HU1              16.60      0.0140     98.80      98.77      0          0
1123925          HW_1123925       HV8              144.20     0.0140     101.42     100.67     0          0
1124927          HW_1124927       HV6              126.60     0.0140     100.67     100.22     0          0
1126928          HW_1126928       HV5              53.90      0.0140     100.22     99.69      0          0
1129931          HW_1129931       HV12             61.00      0.0140     102.84     102.37     0          0
1130932          HW_1130932       HV10             121.40     0.0140     102.37     101.42     0          0
1133935          HW_1133935       HX5              61.20      0.0140     100.86     100.59     0          0
1134937          HW_1134937       HX3              116.20     0.0140     100.59     100.13     0          0
1136939          HW_1136939       HX1              41.50      0.0140     100.13     99.97      0          0
1138940          HW_1138940       HV5              70.50      0.0140     99.97      99.71      0          0
1141943          HW_1141943       IG2              13.40      0.0140     99.49      99.47      0          0
1142945          HW_1142945       IG1              38.80      0.0140     99.47      99.39      0          0
1144946          HW_1144946       HU4              61.10      0.0140     99.39      99.22      0          0
1147949          HW_1147949       IG4              102.00     0.0140     99.82      99.60      0          0
1148951          HW_1148951       IG3              11.70      0.0140     99.60      99.56      0          0
1150952          HW_1150952       IG2A             35.30      0.0140     99.56      99.49      0          0
1154956          HW_1154956       IG7              71.00      0.0140     100.01     99.86      0          0
1155957          HW_1155957       IG6              9.50       0.0140     99.86      99.82      0          0
1158960          HW_1158960       IG11             51.80      0.0140     100.40     100.27     0          0
1159962          HW_1159962       IG10             14.20      0.0140     100.27     100.21     0          0
1161963          HW_1161963       IG8              81.20      0.0140     100.21     100.01     0          0
1164966          HW_1164966       IG15             51.60      0.0140     100.82     100.69     0          0
1165968          HW_1165968       IG14             52.20      0.0140     100.69     100.56     0          0
1167970          HW_1167970       IG13             47.60      0.0140     100.56     100.48     0          0
1169971          HW_1169971       IG12             45.40      0.0140     100.48     100.40     0          0
1172974          HW_1172974       HT3              83.80      0.0140     99.04      98.62      0          0
1173976          HW_1173976       HT2              54.30      0.0140     98.62      98.51      0          0
1175977          HW_1175977       HT1              13.00      0.0140     98.31      98.28      0          0
1178980          HW_1178980       WW10             5.20       0.0140     97.06      97.05      0          0
1181982          HW_1181982       LA1              3.00       0.0140     97.10      97.06      0          0
1185987          HW_1185987       LA5              49.60      0.0140     98.04      97.85      0          0
1186989          HW_1186989       LA3              144.50     0.0140     97.85      97.28      0          0
1188990          HW_1188990       LA2              22.30      0.0140     97.28      97.10      0          0
1191993          HW_1191993       LA8              18.60      0.0140     98.68      98.36      0          0
1192994          HW_1192994       LA6              67.60      0.0140     98.34      98.04      0          0
1195996          HW_1195996       LD1              154.70     0.0140     99.28      98.68      0          0
1197999          HW_1197999       LD5              12.00      0.0140     100.52     99.41      0          0
11981000         HW_11981000      LD4              26.90      0.0140     99.41      99.28      0          0
12011003         HW_12011003      LD7              30.90      0.0140     108.74     107.37     0          0
12021004         HW_12021004      LD6              10.70      0.0140     106.09     100.52     0          0
12051007         HW_12051007      LD10             21.90      0.0140     113.67     113.64     0          0
12061008         HW_12061008      LD8              78.20      0.0140     113.34     108.74     0          0
12091011         HW_12091011      KZ1              71.50      0.0140     98.10      97.73      0          0
12101012         HW_12101012      LA2              42.80      0.0140     97.27      97.10      0          0
12131014         HW_12131014      KZ3              58.70      0.0140     98.33      98.10      0          0
12151017         HW_12151017      KZ6              55.00      0.0140     98.97      98.83      0          0
12161019         HW_12161019      KZ5              75.00      0.0140     98.83      98.61      0          0
12181020         HW_12181020      KZ4              82.80      0.0140     98.61      98.33      0          0
12211023         HW_12211023      KZ9              59.70      0.0140     99.59      99.49      0          0
12221025         HW_12221025      KZ8              75.00      0.0140     99.49      99.08      0          0
12241026         HW_12241026      KZ7              55.30      0.0140     99.08      98.97      0          0
12271029         HW_12271029      KZ12             54.00      0.0140     100.37     100.14     0          0
12281031         HW_12281031      KZ11             52.50      0.0140     100.14     99.95      0          0
12301032         HW_12301032      KZ10             62.80      0.0140     99.95      99.59      0          0
12331034         HW_12331034      KZ13             132.20     0.0140     101.05     100.37     0          0
12351037         HW_12351037      LT2              28.40      0.0140     100.58     100.44     0          0
12361038         HW_12361038      KZ10             158.20     0.0140     100.44     99.63      0          0
12391041         HW_12391041      WW14B            4.50       0.0140     99.92      99.88      0          0
12431045         HW_12431045      OR4              18.50      0.0140     100.49     100.38     0          0
12441047         HW_12441047      OR3              31.00      0.0140     100.38     100.22     0          0
12461048         HW_12461048      OR1              64.00      0.0140     100.22     99.92      0          0
12491051         HW_12491051      OR6              115.40     0.0140     106.93     104.29     0          0
12501052         HW_12501052      OR5              45.70      0.0140     104.29     100.49     0          0
12531055         HW_12531055      OU1              50.60      0.0140     108.80     108.56     0          0
12541057         HW_12541057      OR9              10.30      0.0140     108.56     108.50     0          0
12561058         HW_12561058      OR8              34.90      0.0140     108.45     106.93     0          0
12591061         HW_12591061      OU6              2.80       0.0140     112.29     112.06     0          0
12601063         HW_12601063      OU5              73.00      0.0140     112.06     110.38     0          0
12621064         HW_12621064      OU3              84.30      0.0140     110.38     108.80     0          0
12651066         HW_12651066      OU7              85.40      0.0140     113.48     112.29     0          0
12681071         HW_12681071      OC1              71.50      0.0140     100.13     99.84      0          0
12701073         HW_12701073      WW14A            5.00       0.0140     99.84      99.76      0          0
2751076          HW_2751076       WW1              4.10       0.0140     97.08      96.96      0          0
12771079         HW_12771079      FB1              50.20      0.0140     97.55      97.38      0          0
12781080         HW_12781080      EY2              82.30      0.0140     97.38      97.05      0          0
12671081         HW_12671081      OC4              10.00      0.0140     100.40     100.13     0          0
665              Junction         outlet           10.00      0.0140     95.00      94.90      0          0

[PUMPS]
;;Name           From             To               PumpCurve  Status   Startup    Shutoff
;;-------------- ---------------- ---------------- ---------- -------- ---------- ----------
RM-WB3           WB3              VC16             PC_RM-WB3  ON       96.25      95.25     
RM-WB2           WB2              WG9              PC_RM-WB2  ON       98.25      97.25     
RMWB1            WB1              WA39A            PC_RMWB1   ON       97.30      96.30     
RM-WW13C         VC5              Junction         PC_RM-WW13C ON       97.30      96.10     
RM-WW13B         WW13B            NP27A            PC_RM-WW13B ON       97.46      97.07     
RM-WW13A         WW13A            NHA11            PC_RM-WW13A ON       98.03      97.86     
RM-WW3           WW13C            JT16             PC_RM-WW3  ON       97.80      96.10     
RM-WW3A          WW3A             CL2              PC_RM-WW3A ON       97.60      95.40     
RM-WW2           VA1              CA6              PC_RM-WW2  ON       95.50      94.20     
RM-WW1           WW1              CF9              PC_RM-WW1  ON       96.51      95.75     
RM-WW6           WW6              JU7              PC_RM-WW6  ON       99.60      97.40     
RM-WW4           WW4              FU11             PC_RM-WW4  ON       98.00      97.70     
RM-WW5           HW_RM-WW5        CJ22             PC_RM-WW5  ON       96.10      95.10     
RM-WW7           HW_RM-WW7        KB19             PC_RM-WW7  ON       99.16      98.06     
RM-WW9           HW_RM-WW9        JH1A             PC_RM-WW9  ON       99.73      99.20     
RM-WW8           HW_RM-WW8        KB15             PC_RM-WW8  ON       98.11      96.50     
RM-WW10          WW10             IG16             PC_RM-WW10 ON       97.11      95.19     
RM-WW14B         WW14B            MO1              PC_RM-WW14B ON       99.79      99.15     
RM-WW14A         HW_RM-WW14A      OU8              PC_RM-WW14A ON       99.58      98.00     

[CURVES]
;;Name           Type       X-Value    Y-Value
;;-------------- ---------- ---------- ----------
;; Synthesized generic pump curves — replace with actual pump data
PC_RM-WB3        Pump1      0          5
PC_RM-WB3                   10         10
PC_RM-WB2        Pump1      0          5
PC_RM-WB2                   10         10
PC_RMWB1         Pump1      0          5
PC_RMWB1                    10         10
PC_RM-WW13C      Pump1      0          5
PC_RM-WW13C                 10         10
PC_RM-WW13B      Pump1      0          5
PC_RM-WW13B                 10         10
PC_RM-WW13A      Pump1      0          5
PC_RM-WW13A                 10         10
PC_RM-WW3        Pump1      0          5
PC_RM-WW3                   10         10
PC_RM-WW3A       Pump1      0          5
PC_RM-WW3A                  10         10
PC_RM-WW2        Pump1      0          5
PC_RM-WW2                   10         10
PC_RM-WW1        Pump1      0          5
PC_RM-WW1                   10         10
PC_RM-WW6        Pump1      0          5
PC_RM-WW6                   10         10
PC_RM-WW4        Pump1      0          5
PC_RM-WW4                   10         10
PC_RM-WW5        Pump1      0          5
PC_RM-WW5                   10         10
PC_RM-WW7        Pump1      0          5
PC_RM-WW7                   10         10
PC_RM-WW9        Pump1      0          5
PC_RM-WW9                   10         10
PC_RM-WW8        Pump1      0          5
PC_RM-WW8                   10         10
PC_RM-WW10       Pump1      0          5
PC_RM-WW10                  10         10
PC_RM-WW14B      Pump1      0          5
PC_RM-WW14B                 10         10
PC_RM-WW14A      Pump1      0          5
PC_RM-WW14A                 10         10

[XSECTIONS]
;;Link           Shape        Geom1      Geom2      Geom3      Geom4      Barrels
;;-------------- ------------ ---------- ---------- ---------- ---------- ----------
224              CIRCULAR     0.23       0          0          0          1
233              CIRCULAR     0.23       0          0          0          1
444              CIRCULAR     0.23       0          0          0          1
446              CIRCULAR     0.23       0          0          0          1
459              CIRCULAR     0.23       0          0          0          1
461              CIRCULAR     0.23       0          0          0          1
463              CIRCULAR     0.23       0          0          0          1
465              CIRCULAR     0.23       0          0          0          1
467              CIRCULAR     0.23       0          0          0          1
469              CIRCULAR     0.23       0          0          0          1
471              CIRCULAR     0.23       0          0          0          1
473              CIRCULAR     0.23       0          0          0          1
475              CIRCULAR     0.23       0          0          0          1
477              CIRCULAR     0.23       0          0          0          1
547              CIRCULAR     0.23       0          0          0          1
549              CIRCULAR     0.23       0          0          0          1
552              CIRCULAR     0.23       0          0          0          1
554              CIRCULAR     0.23       0          0          0          1
556              CIRCULAR     0.23       0          0          0          1
560              CIRCULAR     0.30       0          0          0          1
561              CIRCULAR     0.30       0          0          0          1
569              CIRCULAR     0.30       0          0          0          1
581              CIRCULAR     0.30       0          0          0          1
583              CIRCULAR     0.30       0          0          0          1
585              CIRCULAR     0.30       0          0          0          1
587              CIRCULAR     0.30       0          0          0          1
589              CIRCULAR     0.30       0          0          0          1
591              CIRCULAR     0.30       0          0          0          1
593              CIRCULAR     0.30       0          0          0          1
595              CIRCULAR     0.30       0          0          0          1
597              CIRCULAR     0.30       0          0          0          1
599              CIRCULAR     0.30       0          0          0          1
601              CIRCULAR     0.30       0          0          0          1
603              CIRCULAR     0.30       0          0          0          1
605              CIRCULAR     0.30       0          0          0          1
607              CIRCULAR     0.30       0          0          0          1
609              CIRCULAR     0.30       0          0          0          1
611              CIRCULAR     0.30       0          0          0          1
613              CIRCULAR     0.30       0          0          0          1
615              CIRCULAR     0.30       0          0          0          1
617              CIRCULAR     0.30       0          0          0          1
619              CIRCULAR     0.30       0          0          0          1
621              CIRCULAR     0.30       0          0          0          1
623              CIRCULAR     0.30       0          0          0          1
625              CIRCULAR     0.30       0          0          0          1
627              CIRCULAR     0.30       0          0          0          1
629              CIRCULAR     0.30       0          0          0          1
631              CIRCULAR     0.30       0          0          0          1
633              CIRCULAR     0.30       0          0          0          1
635              CIRCULAR     0.30       0          0          0          1
637              CIRCULAR     0.30       0          0          0          1
639              CIRCULAR     0.30       0          0          0          1
641              CIRCULAR     0.30       0          0          0          1
643              CIRCULAR     0.30       0          0          0          1
645              CIRCULAR     0.30       0          0          0          1
647              CIRCULAR     0.30       0          0          0          1
649              CIRCULAR     0.30       0          0          0          1
651              CIRCULAR     0.30       0          0          0          1
653              CIRCULAR     0.30       0          0          0          1
655              CIRCULAR     0.30       0          0          0          1
657              CIRCULAR     0.30       0          0          0          1
659              CIRCULAR     0.38       0          0          0          1
661              CIRCULAR     0.38       0          0          0          1
678              CIRCULAR     0.23       0          0          0          1
676              CIRCULAR     0.23       0          0          0          1
674              CIRCULAR     0.23       0          0          0          1
672              CIRCULAR     0.23       0          0          0          1
670              CIRCULAR     0.23       0          0          0          1
685              CIRCULAR     0.23       0          0          0          1
686              CIRCULAR     0.23       0          0          0          1
689              CIRCULAR     0.23       0          0          0          1
690              CIRCULAR     0.23       0          0          0          1
693              CIRCULAR     0.23       0          0          0          1
694              CIRCULAR     0.23       0          0          0          1
697              CIRCULAR     0.23       0          0          0          1
698              CIRCULAR     0.23       0          0          0          1
700              CIRCULAR     0.23       0          0          0          1
703              CIRCULAR     0.23       0          0          0          1
704              CIRCULAR     0.23       0          0          0          1
706              CIRCULAR     0.23       0          0          0          1
708              CIRCULAR     0.23       0          0          0          1
710              CIRCULAR     0.23       0          0          0          1
713              CIRCULAR     0.23       0          0          0          1
714              CIRCULAR     0.23       0          0          0          1
716              CIRCULAR     0.23       0          0          0          1
722              CIRCULAR     0.23       0          0          0          1
723              CIRCULAR     0.23       0          0          0          1
725              CIRCULAR     0.23       0          0          0          1
727              CIRCULAR     0.23       0          0          0          1
730              CIRCULAR     0.15       0          0          0          1
737              CIRCULAR     0.30       0          0          0          1
479              CIRCULAR     0.30       0          0          0          1
740              CIRCULAR     0.15       0          0          0          1
743              CIRCULAR     0.15       0          0          0          1
746              CIRCULAR     0.45       0          0          0          1
747              CIRCULAR     0.45       0          0          0          1
749              CIRCULAR     0.60       0          0          0          1
751              CIRCULAR     0.60       0          0          0          1
753              CIRCULAR     0.60       0          0          0          1
755              CIRCULAR     0.60       0          0          0          1
764              CIRCULAR     0.45       0          0          0          1
765              CIRCULAR     0.45       0          0          0          1
767              CIRCULAR     0.45       0          0          0          1
769              CIRCULAR     0.45       0          0          0          1
772              CIRCULAR     0.45       0          0          0          1
773              CIRCULAR     0.45       0          0          0          1
775              CIRCULAR     0.45       0          0          0          1
778              CIRCULAR     0.45       0          0          0          1
779              CIRCULAR     0.45       0          0          0          1
781              CIRCULAR     0.45       0          0          0          1
784              CIRCULAR     0.45       0          0          0          1
785              CIRCULAR     0.45       0          0          0          1
787              CIRCULAR     0.45       0          0          0          1
789              CIRCULAR     0.45       0          0          0          1
792              CIRCULAR     0.45       0          0          0          1
793              CIRCULAR     0.45       0          0          0          1
795              CIRCULAR     0.45       0          0          0          1
797              CIRCULAR     0.45       0          0          0          1
799              CIRCULAR     0.45       0          0          0          1
802              CIRCULAR     0.23       0          0          0          1
803              CIRCULAR     0.23       0          0          0          1
806              CIRCULAR     0.23       0          0          0          1
807              CIRCULAR     0.23       0          0          0          1
810              CIRCULAR     0.23       0          0          0          1
811              CIRCULAR     0.23       0          0          0          1
814              CIRCULAR     0.23       0          0          0          1
815              CIRCULAR     0.23       0          0          0          1
818              CIRCULAR     0.23       0          0          0          1
819              CIRCULAR     0.23       0          0          0          1
822              CIRCULAR     0.23       0          0          0          1
829              CIRCULAR     0.45       0          0          0          1
830              CIRCULAR     0.45       0          0          0          1
832              CIRCULAR     0.45       0          0          0          1
834              CIRCULAR     0.45       0          0          0          1
837              CIRCULAR     0.30       0          0          0          1
838              CIRCULAR     0.30       0          0          0          1
840              CIRCULAR     0.30       0          0          0          1
842              CIRCULAR     0.30       0          0          0          1
844              CIRCULAR     0.45       0          0          0          1
847              CIRCULAR     0.40       0          0          0          1
848              CIRCULAR     0.40       0          0          0          1
850              CIRCULAR     0.40       0          0          0          1
852              CIRCULAR     0.40       0          0          0          1
855              CIRCULAR     0.40       0          0          0          1
856              CIRCULAR     0.40       0          0          0          1
858              CIRCULAR     0.40       0          0          0          1
864              CIRCULAR     0.30       0          0          0          1
868              CIRCULAR     0.30       0          0          0          1
869              CIRCULAR     0.30       0          0          0          1
872              CIRCULAR     0.23       0          0          0          1
873              CIRCULAR     0.23       0          0          0          1
875              CIRCULAR     0.23       0          0          0          1
878              CIRCULAR     0.23       0          0          0          1
879              CIRCULAR     0.23       0          0          0          1
881              CIRCULAR     0.23       0          0          0          1
884              CIRCULAR     0.23       0          0          0          1
885              CIRCULAR     0.23       0          0          0          1
888              CIRCULAR     0.23       0          0          0          1
889              CIRCULAR     0.23       0          0          0          1
891              CIRCULAR     0.23       0          0          0          1
894              CIRCULAR     0.23       0          0          0          1
896              CIRCULAR     0.30       0          0          0          1
897              CIRCULAR     0.30       0          0          0          1
899              CIRCULAR     0.30       0          0          0          1
906              CIRCULAR     0.23       0          0          0          1
907              CIRCULAR     0.23       0          0          0          1
910              CIRCULAR     0.23       0          0          0          1
911              CIRCULAR     0.23       0          0          0          1
913              CIRCULAR     0.23       0          0          0          1
916              CIRCULAR     0.23       0          0          0          1
918              CIRCULAR     0.23       0          0          0          1
919              CIRCULAR     0.23       0          0          0          1
922              CIRCULAR     0.23       0          0          0          1
923              CIRCULAR     0.23       0          0          0          1
925              CIRCULAR     0.23       0          0          0          1
927              CIRCULAR     0.23       0          0          0          1
929              CIRCULAR     0.23       0          0          0          1
931              CIRCULAR     0.23       0          0          0          1
934              CIRCULAR     0.23       0          0          0          1
938              CIRCULAR     0.23       0          0          0          1
942              CIRCULAR     0.23       0          0          0          1
946              CIRCULAR     0.38       0          0          0          1
949              CIRCULAR     0.30       0          0          0          1
950              CIRCULAR     0.40       0          0          0          1
954              CIRCULAR     0.30       0          0          0          1
955              CIRCULAR     0.30       0          0          0          1
957              CIRCULAR     0.30       0          0          0          1
961              CIRCULAR     0.30       0          0          0          1
962              CIRCULAR     0.30       0          0          0          1
964              CIRCULAR     0.30       0          0          0          1
966              CIRCULAR     0.30       0          0          0          1
969              CIRCULAR     0.23       0          0          0          1
971              CIRCULAR     0.23       0          0          0          1
973              CIRCULAR     0.23       0          0          0          1
974              CIRCULAR     0.23       0          0          0          1
976              CIRCULAR     0.23       0          0          0          1
979              CIRCULAR     0.15       0          0          0          1
980              CIRCULAR     0.23       0          0          0          1
982              CIRCULAR     0.23       0          0          0          1
986              CIRCULAR     0.23       0          0          0          1
987              CIRCULAR     0.23       0          0          0          1
990              CIRCULAR     0.23       0          0          0          1
991              CIRCULAR     0.23       0          0          0          1
994              CIRCULAR     0.23       0          0          0          1
995              CIRCULAR     0.23       0          0          0          1
997              CIRCULAR     0.23       0          0          0          1
1001804          CIRCULAR     0.23       0          0          0          1
1003806          CIRCULAR     0.23       0          0          0          1
005807           CIRCULAR     0.23       0          0          0          1
1008810          CIRCULAR     0.23       0          0          0          1
009812           CIRCULAR     0.23       0          0          0          1
1013815          CIRCULAR     0.23       0          0          0          1
1014816          CIRCULAR     0.23       0          0          0          1
1017819          CIRCULAR     0.23       0          0          0          1
1018820          CIRCULAR     0.23       0          0          0          1
1021823          CIRCULAR     0.23       0          0          0          1
1025827          CIRCULAR     0.23       0          0          0          1
1026828          CIRCULAR     0.23       0          0          0          1
1029831          CIRCULAR     0.23       0          0          0          1
1030833          CIRCULAR     0.23       0          0          0          1
1032835          CIRCULAR     0.23       0          0          0          1
1034837          CIRCULAR     0.23       0          0          0          1
1036838          CIRCULAR     0.23       0          0          0          1
1039841          CIRCULAR     0.23       0          0          0          1
1040842          CIRCULAR     0.23       0          0          0          1
1043844          CIRCULAR     0.23       0          0          0          1
1045847          CIRCULAR     0.23       0          0          0          1
1046849          CIRCULAR     0.23       0          0          0          1
1048850          CIRCULAR     0.23       0          0          0          1
1051853          CIRCULAR     0.23       0          0          0          1
1052855          CIRCULAR     0.23       0          0          0          1
1054856          CIRCULAR     0.23       0          0          0          1
1057859          CIRCULAR     0.23       0          0          0          1
1058861          CIRCULAR     0.23       0          0          0          1
1060863          CIRCULAR     0.23       0          0          0          1
1062865          CIRCULAR     0.23       0          0          0          1
1066868          CIRCULAR     0.23       0          0          0          1
1067870          CIRCULAR     0.23       0          0          0          1
1069871          CIRCULAR     0.23       0          0          0          1
1072874          CIRCULAR     0.23       0          0          0          1
1073875          CIRCULAR     0.23       0          0          0          1
1076878          CIRCULAR     0.23       0          0          0          1
1077880          CIRCULAR     0.23       0          0          0          1
1079882          CIRCULAR     0.23       0          0          0          1
1081883          CIRCULAR     0.23       0          0          0          1
1085887          CIRCULAR     0.23       0          0          0          1
1086889          CIRCULAR     0.23       0          0          0          1
1090892          CIRCULAR     0.40       0          0          0          1
1091894          CIRCULAR     0.40       0          0          0          1
1093896          CIRCULAR     0.40       0          0          0          1
1097899          CIRCULAR     0.23       0          0          0          1
1098901          CIRCULAR     0.23       0          0          0          1
1100903          CIRCULAR     0.23       0          0          0          1
1102905          CIRCULAR     0.40       0          0          0          1
1104906          CIRCULAR     0.40       0          0          0          1
1107909          CIRCULAR     0.23       0          0          0          1
1108911          CIRCULAR     0.23       0          0          0          1
1110912          CIRCULAR     0.23       0          0          0          1
1115917          CIRCULAR     0.23       0          0          0          1
1116919          CIRCULAR     0.23       0          0          0          1
1118921          CIRCULAR     0.23       0          0          0          1
1120922          CIRCULAR     0.23       0          0          0          1
1123925          CIRCULAR     0.23       0          0          0          1
1124927          CIRCULAR     0.23       0          0          0          1
1126928          CIRCULAR     0.23       0          0          0          1
1129931          CIRCULAR     0.23       0          0          0          1
1130932          CIRCULAR     0.23       0          0          0          1
1133935          CIRCULAR     0.23       0          0          0          1
1134937          CIRCULAR     0.23       0          0          0          1
1136939          CIRCULAR     0.23       0          0          0          1
1138940          CIRCULAR     0.23       0          0          0          1
1141943          CIRCULAR     0.40       0          0          0          1
1142945          CIRCULAR     0.23       0          0          0          1
1144946          CIRCULAR     0.40       0          0          0          1
1147949          CIRCULAR     0.40       0          0          0          1
1148951          CIRCULAR     0.40       0          0          0          1
1150952          CIRCULAR     0.40       0          0          0          1
1154956          CIRCULAR     0.40       0          0          0          1
1155957          CIRCULAR     0.40       0          0          0          1
1158960          CIRCULAR     0.40       0          0          0          1
1159962          CIRCULAR     0.40       0          0          0          1
1161963          CIRCULAR     0.40       0          0          0          1
1164966          CIRCULAR     0.40       0          0          0          1
1165968          CIRCULAR     0.40       0          0          0          1
1167970          CIRCULAR     0.40       0          0          0          1
1169971          CIRCULAR     0.40       0          0          0          1
1172974          CIRCULAR     0.23       0          0          0          1
1173976          CIRCULAR     0.23       0          0          0          1
1175977          CIRCULAR     0.23       0          0          0          1
1178980          CIRCULAR     0.30       0          0          0          1
1181982          CIRCULAR     0.30       0          0          0          1
1185987          CIRCULAR     0.23       0          0          0          1
1186989          CIRCULAR     0.23       0          0          0          1
1188990          CIRCULAR     0.23       0          0          0          1
1191993          CIRCULAR     0.23       0          0          0          1
1192994          CIRCULAR     0.23       0          0          0          1
1195996          CIRCULAR     0.23       0          0          0          1
1197999          CIRCULAR     0.23       0          0          0          1
11981000         CIRCULAR     0.23       0          0          0          1
12011003         CIRCULAR     0.23       0          0          0          1
12021004         CIRCULAR     0.23       0          0          0          1
12051007         CIRCULAR     0.23       0          0          0          1
12061008         CIRCULAR     0.23       0          0          0          1
12091011         CIRCULAR     0.23       0          0          0          1
12101012         CIRCULAR     0.23       0          0          0          1
12131014         CIRCULAR     0.23       0          0          0          1
12151017         CIRCULAR     0.23       0          0          0          1
12161019         CIRCULAR     0.23       0          0          0          1
12181020         CIRCULAR     0.23       0          0          0          1
12211023         CIRCULAR     0.23       0          0          0          1
12221025         CIRCULAR     0.23       0          0          0          1
12241026         CIRCULAR     0.23       0          0          0          1
12271029         CIRCULAR     0.23       0          0          0          1
12281031         CIRCULAR     0.23       0          0          0          1
12301032         CIRCULAR     0.23       0          0          0          1
12331034         CIRCULAR     0.23       0          0          0          1
12351037         CIRCULAR     0.23       0          0          0          1
12361038         CIRCULAR     0.23       0          0          0          1
12391041         CIRCULAR     0.23       0          0          0          1
12431045         CIRCULAR     0.23       0          0          0          1
12441047         CIRCULAR     0.23       0          0          0          1
12461048         CIRCULAR     0.23       0          0          0          1
12491051         CIRCULAR     0.23       0          0          0          1
12501052         CIRCULAR     0.23       0          0          0          1
12531055         CIRCULAR     0.23       0          0          0          1
12541057         CIRCULAR     0.23       0          0          0          1
12561058         CIRCULAR     0.23       0          0          0          1
12591061         CIRCULAR     0.23       0          0          0          1
12601063         CIRCULAR     0.23       0          0          0          1
12621064         CIRCULAR     0.23       0          0          0          1
12651066         CIRCULAR     0.23       0          0          0          1
12681071         CIRCULAR     0.23       0          0          0          1
12701073         CIRCULAR     0.23       0          0          0          1
2751076          CIRCULAR     0.15       0          0          0          1
12771079         CIRCULAR     0.23       0          0          0          1
12781080         CIRCULAR     0.23       0          0          0          1
12671081         CIRCULAR     0.10       0          0          0          1
665              CIRCULAR     0.60       0          0          0          1

[LOSSES]
;;Link           Inlet      Outlet     Average    Flap Gate
;;-------------- ---------- ---------- ---------- ----------
224              0          0          0          NO
233              0          0          0          NO
444              0          0          0          NO
446              0          0          0          NO
459              0          0          0          NO
461              0          0          0          NO
463              0          0          0          NO
465              0          0          0          NO
467              0          0          0          NO
469              0          0          0          NO
471              0          0          0          NO
473              0          0          0          NO
475              0          0          0          NO
477              0          0          0          NO
547              0          0          0          NO
549              0          0          0          NO
552              0          0          0          NO
554              0          0          0          NO
556              0          0          0          NO
560              0          0          0          NO
561              0          0          0          NO
569              0          0          0          NO
581              0          0          0          NO
583              0          0          0          NO
585              0          0          0          NO
587              0          0          0          NO
589              0          0          0          NO
591              0          0          0          NO
593              0          0          0          NO
595              0          0          0          NO
597              0          0          0          NO
599              0          0          0          NO
601              0          0          0          NO
603              0          0          0          NO
605              0          0          0          NO
607              0          0          0          NO
609              0          0          0          NO
611              0          0          0          NO
613              0          0          0          NO
615              0          0          0          NO
617              0          0          0          NO
619              0          0          0          NO
621              0          0          0          NO
623              0          0          0          NO
625              0          0          0          NO
627              0          0          0          NO
629              0          0          0          NO
631              0          0          0          NO
633              0          0          0          NO
635              0          0          0          NO
637              0          0          0          NO
639              0          0          0          NO
641              0          0          0          NO
643              0          0          0          NO
645              0          0          0          NO
647              0          0          0          NO
649              0          0          0          NO
651              0          0          0          NO
653              0          0          0          NO
655              0          0          0          NO
657              0          0          0          NO
659              0          0          0          NO
661              0          0          0          NO
678              0          0          0          NO
676              0          0          0          NO
674              0          0          0          NO
672              0          0          0          NO
670              0          0          0          NO
685              0          0          0          NO
686              0          0          0          NO
689              0          0          0          NO
690              0          0          0          NO
693              0          0          0          NO
694              0          0          0          NO
697              0          0          0          NO
698              0          0          0          NO
700              0          0          0          NO
703              0          0          0          NO
704              0          0          0          NO
706              0          0          0          NO
708              0          0          0          NO
710              0          0          0          NO
713              0          0          0          NO
714              0          0          0          NO
716              0          0          0          NO
722              0          0          0          NO
723              0          0          0          NO
725              0          0          0          NO
727              0          0          0          NO
730              0          0          0          NO
737              0          0          0          NO
479              0          0          0          NO
740              0          0          0          NO
743              0          0          0          NO
746              0          0          0          NO
747              0          0          0          NO
749              0          0          0          NO
751              0          0          0          NO
753              0          0          0          NO
755              0          0          0          NO
764              0          0          0          NO
765              0          0          0          NO
767              0          0          0          NO
769              0          0          0          NO
772              0          0          0          NO
773              0          0          0          NO
775              0          0          0          NO
778              0          0          0          NO
779              0          0          0          NO
781              0          0          0          NO
784              0          0          0          NO
785              0          0          0          NO
787              0          0          0          NO
789              0          0          0          NO
792              0          0          0          NO
793              0          0          0          NO
795              0          0          0          NO
797              0          0          0          NO
799              0          0          0          NO
802              0          0          0          NO
803              0          0          0          NO
806              0          0          0          NO
807              0          0          0          NO
810              0          0          0          NO
811              0          0          0          NO
814              0          0          0          NO
815              0          0          0          NO
818              0          0          0          NO
819              0          0          0          NO
822              0          0          0          NO
829              0          0          0          NO
830              0          0          0          NO
832              0          0          0          NO
834              0          0          0          NO
837              0          0          0          NO
838              0          0          0          NO
840              0          0          0          NO
842              0          0          0          NO
844              0          0          0          NO
847              0          0          0          NO
848              0          0          0          NO
850              0          0          0          NO
852              0          0          0          NO
855              0          0          0          NO
856              0          0          0          NO
858              0          0          0          NO
864              0          0          0          NO
868              0          0          0          NO
869              0          0          0          NO
872              0          0          0          NO
873              0          0          0          NO
875              0          0          0          NO
878              0          0          0          NO
879              0          0          0          NO
881              0          0          0          NO
884              0          0          0          NO
885              0          0          0          NO
888              0          0          0          NO
889              0          0          0          NO
891              0          0          0          NO
894              0          0          0          NO
896              0          0          0          NO
897              0          0          0          NO
899              0          0          0          NO
906              0          0          0          NO
907              0          0          0          NO
910              0          0          0          NO
911              0          0          0          NO
913              0          0          0          NO
916              0          0          0          NO
918              0          0          0          NO
919              0          0          0          NO
922              0          0          0          NO
923              0          0          0          NO
925              0          0          0          NO
927              0          0          0          NO
929              0          0          0          NO
931              0          0          0          NO
934              0          0          0          NO
938              0          0          0          NO
942              0          0          0          NO
946              0          0          0          NO
949              0          0          0          NO
950              0          0          0          NO
954              0          0          0          NO
955              0          0          0          NO
957              0          0          0          NO
961              0          0          0          NO
962              0          0          0          NO
964              0          0          0          NO
966              0          0          0          NO
969              0          0          0          NO
971              0          0          0          NO
973              0          0          0          NO
974              0          0          0          NO
976              0          0          0          NO
979              0          0          0          NO
980              0          0          0          NO
982              0          0          0          NO
986              0          0          0          NO
987              0          0          0          NO
990              0          0          0          NO
991              0          0          0          NO
994              0          0          0          NO
995              0          0          0          NO
997              0          0          0          NO
1001804          0          0          0          NO
1003806          0          0          0          NO
005807           0          0          0          NO
1008810          0          0          0          NO
009812           0          0          0          NO
1013815          0          0          0          NO
1014816          0          0          0          NO
1017819          0          0          0          NO
1018820          0          0          0          NO
1021823          0          0          0          NO
1025827          0          0          0          NO
1026828          0          0          0          NO
1029831          0          0          0          NO
1030833          0          0          0          NO
1032835          0          0          0          NO
1034837          0          0          0          NO
1036838          0          0          0          NO
1039841          0          0          0          NO
1040842          0          0          0          NO
1043844          0          0          0          NO
1045847          0          0          0          NO
1046849          0          0          0          NO
1048850          0          0          0          NO
1051853          0          0          0          NO
1052855          0          0          0          NO
1054856          0          0          0          NO
1057859          0          0          0          NO
1058861          0          0          0          NO
1060863          0          0          0          NO
1062865          0          0          0          NO
1066868          0          0          0          NO
1067870          0          0          0          NO
1069871          0          0          0          NO
1072874          0          0          0          NO
1073875          0          0          0          NO
1076878          0          0          0          NO
1077880          0          0          0          NO
1079882          0          0          0          NO
1081883          0          0          0          NO
1085887          0          0          0          NO
1086889          0          0          0          NO
1090892          0          0          0          NO
1091894          0          0          0          NO
1093896          0          0          0          NO
1097899          0          0          0          NO
1098901          0          0          0          NO
1100903          0          0          0          NO
1102905          0          0          0          NO
1104906          0          0          0          NO
1107909          0          0          0          NO
1108911          0          0          0          NO
1110912          0          0          0          NO
1115917          0          0          0          NO
1116919          0          0          0          NO
1118921          0          0          0          NO
1120922          0          0          0          NO
1123925          0          0          0          NO
1124927          0          0          0          NO
1126928          0          0          0          NO
1129931          0          0          0          NO
1130932          0          0          0          NO
1133935          0          0          0          NO
1134937          0          0          0          NO
1136939          0          0          0          NO
1138940          0          0          0          NO
1141943          0          0          0          NO
1142945          0          0          0          NO
1144946          0          0          0          NO
1147949          0          0          0          NO
1148951          0          0          0          NO
1150952          0          0          0          NO
1154956          0          0          0          NO
1155957          0          0          0          NO
1158960          0          0          0          NO
1159962          0          0          0          NO
1161963          0          0          0          NO
1164966          0          0          0          NO
1165968          0          0          0          NO
1167970          0          0          0          NO
1169971          0          0          0          NO
1172974          0          0          0          NO
1173976          0          0          0          NO
1175977          0          0          0          NO
1178980          0          0          0          NO
1181982          0          0          0          NO
1185987          0          0          0          NO
1186989          0          0          0          NO
1188990          0          0          0          NO
1191993          0          0          0          NO
1192994          0          0          0          NO
1195996          0          0          0          NO
1197999          0          0          0          NO
11981000         0          0          0          NO
12011003         0          0          0          NO
12021004         0          0          0          NO
12051007         0          0          0          NO
12061008         0          0          0          NO
12091011         0          0          0          NO
12101012         0          0          0          NO
12131014         0          0          0          NO
12151017         0          0          0          NO
12161019         0          0          0          NO
12181020         0          0          0          NO
12211023         0          0          0          NO
12221025         0          0          0          NO
12241026         0          0          0          NO
12271029         0          0          0          NO
12281031         0          0          0          NO
12301032         0          0          0          NO
12331034         0          0          0          NO
12351037         0          0          0          NO
12361038         0          0          0          NO
12391041         0          0          0          NO
12431045         0          0          0          NO
12441047         0          0          0          NO
12461048         0          0          0          NO
12491051         0          0          0          NO
12501052         0          0          0          NO
12531055         0          0          0          NO
12541057         0          0          0          NO
12561058         0          0          0          NO
12591061         0          0          0          NO
12601063         0          0          0          NO
12621064         0          0          0          NO
12651066         0          0          0          NO
12681071         0          0          0          NO
12701073         0          0          0          NO
2751076          0          0          0          NO
12771079         0          0          0          NO
12781080         0          0          0          NO
12671081         0          0          0          NO
665              0          0          0          NO

[INFLOWS]
;;Node           Constituent  Time Series      Type     Mfactor  Sfactor  Baseline Pattern
;;-------------- ------------ ---------------- -------- -------- -------- -------- --------
;; SYNTHETIC TEST INFLOWS — the source .xp carried no constant inflows
;; and RUNF hydrology is not converted; 0.03 CMS is applied at each
;; headwater node so the network runs wet for QA. Replace with real
;; hydrology or inflow hydrographs before using results.
ZA1              FLOW         ""               FLOW     1.0      1.0      0.03
NE1              FLOW         ""               FLOW     1.0      1.0      0.03
VB1              FLOW         ""               FLOW     1.0      1.0      0.03
KL1              FLOW         ""               FLOW     1.0      1.0      0.03
AT2              FLOW         ""               FLOW     1.0      1.0      0.03
CY3              FLOW         ""               FLOW     1.0      1.0      0.03
HW_1001804       FLOW         ""               FLOW     1.0      1.0      0.03
HW_1003806       FLOW         ""               FLOW     1.0      1.0      0.03
HW_005807        FLOW         ""               FLOW     1.0      1.0      0.03
HW_1008810       FLOW         ""               FLOW     1.0      1.0      0.03
HW_009812        FLOW         ""               FLOW     1.0      1.0      0.03
HW_1013815       FLOW         ""               FLOW     1.0      1.0      0.03
HW_1014816       FLOW         ""               FLOW     1.0      1.0      0.03
HW_1017819       FLOW         ""               FLOW     1.0      1.0      0.03
HW_1018820       FLOW         ""               FLOW     1.0      1.0      0.03
HW_1021823       FLOW         ""               FLOW     1.0      1.0      0.03
HW_RM-WW5        FLOW         ""               FLOW     1.0      1.0      0.03
HW_1025827       FLOW         ""               FLOW     1.0      1.0      0.03
HW_1026828       FLOW         ""               FLOW     1.0      1.0      0.03
HW_1029831       FLOW         ""               FLOW     1.0      1.0      0.03
HW_1030833       FLOW         ""               FLOW     1.0      1.0      0.03
HW_1032835       FLOW         ""               FLOW     1.0      1.0      0.03
HW_1034837       FLOW         ""               FLOW     1.0      1.0      0.03
HW_1036838       FLOW         ""               FLOW     1.0      1.0      0.03
HW_1039841       FLOW         ""               FLOW     1.0      1.0      0.03
HW_1040842       FLOW         ""               FLOW     1.0      1.0      0.03
HW_1043844       FLOW         ""               FLOW     1.0      1.0      0.03
HW_1045847       FLOW         ""               FLOW     1.0      1.0      0.03
HW_1046849       FLOW         ""               FLOW     1.0      1.0      0.03
HW_1048850       FLOW         ""               FLOW     1.0      1.0      0.03
HW_1051853       FLOW         ""               FLOW     1.0      1.0      0.03
HW_1052855       FLOW         ""               FLOW     1.0      1.0      0.03
HW_1054856       FLOW         ""               FLOW     1.0      1.0      0.03
HW_1057859       FLOW         ""               FLOW     1.0      1.0      0.03
HW_1058861       FLOW         ""               FLOW     1.0      1.0      0.03
HW_1060863       FLOW         ""               FLOW     1.0      1.0      0.03
HW_1062865       FLOW         ""               FLOW     1.0      1.0      0.03
HW_1066868       FLOW         ""               FLOW     1.0      1.0      0.03
HW_1067870       FLOW         ""               FLOW     1.0      1.0      0.03
HW_1069871       FLOW         ""               FLOW     1.0      1.0      0.03
HW_1072874       FLOW         ""               FLOW     1.0      1.0      0.03
HW_1073875       FLOW         ""               FLOW     1.0      1.0      0.03
HW_1076878       FLOW         ""               FLOW     1.0      1.0      0.03
HW_1077880       FLOW         ""               FLOW     1.0      1.0      0.03
HW_1079882       FLOW         ""               FLOW     1.0      1.0      0.03
HW_1081883       FLOW         ""               FLOW     1.0      1.0      0.03
HW_RM-WW7        FLOW         ""               FLOW     1.0      1.0      0.03
HW_1085887       FLOW         ""               FLOW     1.0      1.0      0.03
HW_1086889       FLOW         ""               FLOW     1.0      1.0      0.03
HW_1090892       FLOW         ""               FLOW     1.0      1.0      0.03
HW_1091894       FLOW         ""               FLOW     1.0      1.0      0.03
HW_1093896       FLOW         ""               FLOW     1.0      1.0      0.03
HW_1097899       FLOW         ""               FLOW     1.0      1.0      0.03
HW_1098901       FLOW         ""               FLOW     1.0      1.0      0.03
HW_1100903       FLOW         ""               FLOW     1.0      1.0      0.03
HW_1102905       FLOW         ""               FLOW     1.0      1.0      0.03
HW_1104906       FLOW         ""               FLOW     1.0      1.0      0.03
HW_1107909       FLOW         ""               FLOW     1.0      1.0      0.03
HW_1108911       FLOW         ""               FLOW     1.0      1.0      0.03
HW_1110912       FLOW         ""               FLOW     1.0      1.0      0.03
HW_RM-WW9        FLOW         ""               FLOW     1.0      1.0      0.03
HW_RM-WW8        FLOW         ""               FLOW     1.0      1.0      0.03
HW_1115917       FLOW         ""               FLOW     1.0      1.0      0.03
HW_1116919       FLOW         ""               FLOW     1.0      1.0      0.03
HW_1118921       FLOW         ""               FLOW     1.0      1.0      0.03
HW_1120922       FLOW         ""               FLOW     1.0      1.0      0.03
HW_1123925       FLOW         ""               FLOW     1.0      1.0      0.03
HW_1124927       FLOW         ""               FLOW     1.0      1.0      0.03
HW_1126928       FLOW         ""               FLOW     1.0      1.0      0.03
HW_1129931       FLOW         ""               FLOW     1.0      1.0      0.03
HW_1130932       FLOW         ""               FLOW     1.0      1.0      0.03
HW_1133935       FLOW         ""               FLOW     1.0      1.0      0.03
HW_1134937       FLOW         ""               FLOW     1.0      1.0      0.03
HW_1136939       FLOW         ""               FLOW     1.0      1.0      0.03
HW_1138940       FLOW         ""               FLOW     1.0      1.0      0.03
HW_1141943       FLOW         ""               FLOW     1.0      1.0      0.03
HW_1142945       FLOW         ""               FLOW     1.0      1.0      0.03
HW_1144946       FLOW         ""               FLOW     1.0      1.0      0.03
HW_1147949       FLOW         ""               FLOW     1.0      1.0      0.03
HW_1148951       FLOW         ""               FLOW     1.0      1.0      0.03
HW_1150952       FLOW         ""               FLOW     1.0      1.0      0.03
HW_1154956       FLOW         ""               FLOW     1.0      1.0      0.03
HW_1155957       FLOW         ""               FLOW     1.0      1.0      0.03
HW_1158960       FLOW         ""               FLOW     1.0      1.0      0.03
HW_1159962       FLOW         ""               FLOW     1.0      1.0      0.03
HW_1161963       FLOW         ""               FLOW     1.0      1.0      0.03
HW_1164966       FLOW         ""               FLOW     1.0      1.0      0.03
HW_1165968       FLOW         ""               FLOW     1.0      1.0      0.03
HW_1167970       FLOW         ""               FLOW     1.0      1.0      0.03
HW_1169971       FLOW         ""               FLOW     1.0      1.0      0.03
HW_1172974       FLOW         ""               FLOW     1.0      1.0      0.03
HW_1173976       FLOW         ""               FLOW     1.0      1.0      0.03
HW_1175977       FLOW         ""               FLOW     1.0      1.0      0.03
HW_1178980       FLOW         ""               FLOW     1.0      1.0      0.03
HW_1181982       FLOW         ""               FLOW     1.0      1.0      0.03
HW_1185987       FLOW         ""               FLOW     1.0      1.0      0.03
HW_1186989       FLOW         ""               FLOW     1.0      1.0      0.03
HW_1188990       FLOW         ""               FLOW     1.0      1.0      0.03
HW_1191993       FLOW         ""               FLOW     1.0      1.0      0.03
HW_1192994       FLOW         ""               FLOW     1.0      1.0      0.03
HW_1195996       FLOW         ""               FLOW     1.0      1.0      0.03
HW_1197999       FLOW         ""               FLOW     1.0      1.0      0.03
HW_11981000      FLOW         ""               FLOW     1.0      1.0      0.03
HW_12011003      FLOW         ""               FLOW     1.0      1.0      0.03
HW_12021004      FLOW         ""               FLOW     1.0      1.0      0.03
HW_12051007      FLOW         ""               FLOW     1.0      1.0      0.03
HW_12061008      FLOW         ""               FLOW     1.0      1.0      0.03
HW_12091011      FLOW         ""               FLOW     1.0      1.0      0.03
HW_12101012      FLOW         ""               FLOW     1.0      1.0      0.03
HW_12131014      FLOW         ""               FLOW     1.0      1.0      0.03
HW_12151017      FLOW         ""               FLOW     1.0      1.0      0.03
HW_12161019      FLOW         ""               FLOW     1.0      1.0      0.03
HW_12181020      FLOW         ""               FLOW     1.0      1.0      0.03
HW_12211023      FLOW         ""               FLOW     1.0      1.0      0.03
HW_12221025      FLOW         ""               FLOW     1.0      1.0      0.03
HW_12241026      FLOW         ""               FLOW     1.0      1.0      0.03
HW_12271029      FLOW         ""               FLOW     1.0      1.0      0.03
HW_12281031      FLOW         ""               FLOW     1.0      1.0      0.03
HW_12301032      FLOW         ""               FLOW     1.0      1.0      0.03
HW_12331034      FLOW         ""               FLOW     1.0      1.0      0.03
HW_12351037      FLOW         ""               FLOW     1.0      1.0      0.03
HW_12361038      FLOW         ""               FLOW     1.0      1.0      0.03
HW_12391041      FLOW         ""               FLOW     1.0      1.0      0.03
HW_12431045      FLOW         ""               FLOW     1.0      1.0      0.03
HW_12441047      FLOW         ""               FLOW     1.0      1.0      0.03
HW_12461048      FLOW         ""               FLOW     1.0      1.0      0.03
HW_12491051      FLOW         ""               FLOW     1.0      1.0      0.03
HW_12501052      FLOW         ""               FLOW     1.0      1.0      0.03
HW_12531055      FLOW         ""               FLOW     1.0      1.0      0.03
HW_12541057      FLOW         ""               FLOW     1.0      1.0      0.03
HW_12561058      FLOW         ""               FLOW     1.0      1.0      0.03
HW_12591061      FLOW         ""               FLOW     1.0      1.0      0.03
HW_12601063      FLOW         ""               FLOW     1.0      1.0      0.03
HW_12621064      FLOW         ""               FLOW     1.0      1.0      0.03
HW_12651066      FLOW         ""               FLOW     1.0      1.0      0.03
HW_12681071      FLOW         ""               FLOW     1.0      1.0      0.03
HW_12701073      FLOW         ""               FLOW     1.0      1.0      0.03
HW_RM-WW14A      FLOW         ""               FLOW     1.0      1.0      0.03
HW_2751076       FLOW         ""               FLOW     1.0      1.0      0.03
HW_12771079      FLOW         ""               FLOW     1.0      1.0      0.03
HW_12781080      FLOW         ""               FLOW     1.0      1.0      0.03
HW_12671081      FLOW         ""               FLOW     1.0      1.0      0.03

[COORDINATES]
;;Node           X-Coord            Y-Coord
;;-------------- ------------------ ------------------
ZA1              -351.08            -502.19           
WB3              -253.46            -501.64           
VC16             -102.29            -501.26           
VC15             -19.11             -505.86           
VC14             57.15              -502.62           
VC13             56.90              -555.36           
VC12             65.74              -609.59           
VC11             136.26             -605.66           
VC8              212.15             -604.00           
VC6              285.68             -605.21           
VC5              372.72             -607.18           
VC4              432.94             -643.41           
VC3              479.65             -641.97           
VC2              542.61             -678.13           
VC1              592.87             -685.78           
VA2              634.53             -724.76           
WB2              739.16             -621.94           
WG9              847.94             -696.33           
WG6              878.37             -769.98           
WG5              896.18             -840.70           
WG4              903.16             -927.79           
WG3              874.34             -1009.83          
WG1              829.72             -1077.74          
WF1              923.88             -1409.62          
WB1              937.05             -1345.85          
WA39A            1115.82            -966.35           
WA39             1133.68            -1087.14          
WA38             1147.29            -1179.34          
WA37             1153.55            -1278.62          
WA36             1166.06            -1366.73          
WA33             1178.34            -1468.78          
WA32             1176.56            -1597.41          
WA31             1185.06            -1719.22          
WA30             1189.03            -1835.26          
WA29             1201.32            -1930.98          
WA27             1212.46            -2022.80          
WA26             1230.55            -2112.09          
WA24             1248.45            -2203.80          
WA23             1263.88            -2288.24          
WA22             1266.81            -2358.02          
WA20             1265.89            -2431.67          
WA19             1254.43            -2503.69          
WA18             1259.36            -2573.29          
WA15             1263.84            -2638.64          
WA14             1267.40            -2708.43          
WA13             1267.17            -2783.06          
WA12             1276.99            -2871.58          
WA11             1374.31            -2881.28          
WA10             1460.55            -2845.59          
WA9              1519.15            -2800.68          
WA8              1537.23            -2719.77          
WA7              1551.94            -2628.09          
WA6              1563.31            -2550.89          
WA5              1563.31            -2478.15          
WA4              1564.13            -2415.41          
WA3              1533.90            -2333.16          
WA2              1532.07            -2261.52          
WA1              1585.33            -2211.24          
NX8              1581.51            -2122.39          
NX7              1516.92            -2099.19          
NX6              1516.53            -1994.32          
NX5              1521.66            -1860.07          
NX4              1597.17            -1847.99          
NX3              1597.89            -1645.23          
NX2              1611.51            -1499.40          
NP2              1620.62            -1306.69          
NP1              1479.83            -1346.28          
WW13C            1480.02            -1452.76          
Junction         1997.99            -1512.22          
NP3              1615.98            -1216.69          
NP4              1607.19            -1131.27          
NP5              1607.49            -1061.26          
NP6              1598.48            -976.45           
NP9              1585.09            -856.33           
NP12             1463.93            -907.10           
NP11             1525.45            -877.01           
NP17             1440.97            -705.63           
NP13             1452.05            -804.01           
NP19             1516.27            -628.24           
NP18             1444.53            -642.57           
NP23             1486.18            -285.17           
NP21             1483.45            -377.26           
NP20             1487.10            -463.52           
NP27A            1477.12            156.59            
NP27             1486.18            53.30             
NP26             1517.89            -29.34            
NP25             1545.07            -123.24           
NP24             1540.54            -209.63           
NH3              1274.36            296.62            
NH2              1235.85            210.23            
NH1              1253.97            71.25             
WW13B            1355.90            114.45            
NH11             1105.25            697.77            
NH10             1096.41            564.43            
NH7              1195.23            545.99            
NH6              1261.93            476.35            
NE1              1085.08            1092.26           
WW13A            1100.31            898.57            
VA1              668.78             -667.52           
VB1              664.57             -852.79           
NHA11            1144.84            793.59            
JT7              1765.74            -383.97           
JT4              1790.12            -691.18           
JT3A             1797.76            -799.75           
JT2              1829.69            -964.35           
JT1A             1864.21            -1152.06          
JT1              1899.97            -1328.50          
JT11             1668.85            448.73            
JT10             1692.92            282.49            
JT9              1702.01            108.73            
JT8              1738.39            -148.55           
KB2              2135.60            -645.96           
KB1A             1968.11            -690.23           
KB1B             1846.12            -746.20           
KB4              2222.07            -176.85           
KB3              2184.68            -380.89           
KB2A             2146.27            -549.98           
KB9A             2425.13            886.13            
KB9              2398.96            612.73            
KB7              2332.20            266.56            
KB6              2266.56            42.42             
JT16             1488.95            1164.94           
JT15             1533.81            1028.91           
JT14             1574.11            882.12            
JT13             1610.50            719.74            
JT12             1638.45            580.54            
KL1              2479.52            -436.66           
KI1              2407.30            -723.05           
KI3              2863.61            -795.62           
KI2              2651.31            -789.59           
KI5              3242.70            -798.75           
KI4              3044.13            -797.40           
KI12             3246.22            -160.43           
KI9              3235.37            -522.49           
KI15             3215.06            595.97            
KI14             3216.57            222.88            
KI16             3416.06            876.00            
KB13             2419.30            1809.64           
KB12             2561.44            1669.13           
KB11             2510.78            1377.82           
KB10             2453.66            1069.75           
KB19             2514.57            3096.22           
KB18             2760.62            2953.09           
KB17             3027.93            2763.16           
KB16             2847.36            2451.96           
KB15             3026.03            2001.09           
JU4              2035.81            550.20            
JU3              1941.04            404.88            
JU2              2033.16            372.82            
JU1              1851.90            236.66            
JU7              2056.13            1202.47           
JU6              1995.09            966.26            
JU5              2036.82            744.74            
WW3              -1393.70           4245.58           
CJ1              -1547.39           4076.97           
CJ3              -1242.24           3397.55           
CJ2              -1385.45           3700.98           
CJ7              -703.64            3169.68           
CJ5              -820.56            3384.35           
CJ4A             -1003.55           3628.42           
CJ12             -358.15            4366.24           
CJ11A            -523.94            3986.97           
CJ10             -616.83            3617.11           
CJ15             -106.31            5350.58           
CJ13             -303.34            4969.48           
CJ21             616.31             5924.95           
CJ20             418.64             5781.59           
CJ18A            181.16             5614.58           
CJ22             430.37             6357.40           
CL2              -2106.23           4715.70           
CL1              -1961.01           4480.35           
CS1              -1785.98           4275.86           
WW3A             -2300.15           5795.68           
CA2              -2592.26           6047.85           
CA1              -2624.95           5692.37           
CA5              -2543.28           7152.59           
CA4              -2573.27           6779.08           
CA3              -2570.51           6389.73           
CA6              -2464.22           7634.77           
CF2              -2518.56           5193.81           
CF1              -2712.34           5381.80           
CF9              -1321.72           5431.90           
CF8              -1513.01           5445.50           
CF7              -1715.23           5527.06           
CF6              -1840.94           5354.87           
CF5              -2040.35           5299.20           
CF4              -2286.35           5237.82           
AT1              -2549.12           9282.02           
WW2              -2172.48           9327.25           
AT2              -2636.41           8813.44           
WW1              -1299.85           5919.32           
CX1              -362.44            3516.01           
WW4              -178.11            3657.58           
FU1              1107.81            2468.46           
WW6              909.79             2151.25           
FU2              454.49             1878.83           
FU1A             1215.18            2194.61           
FU5              945.93             2639.25           
FU4              796.52             2417.82           
FU3              642.81             2199.21           
FU11             1135.59            3557.10           
FU10             1026.30            3302.24           
FU8              862.36             3075.70           
FU6              712.08             2837.84           
CX2              -101.81            3467.80           
CX4              7.49               3767.98           
CX7              622.32             3099.65           
CX6              417.38             3263.90           
CX5              260.25             3513.11           
CX10             -170.12            1989.54           
CX9              0.66               2221.75           
CX8              239.76             2431.32           
CY3              -19.83             4368.35           
CY1              178.28             3898.25           
GK1              82.64              1339.47           
GK1A             260.25             1633.99           
FW2              1670.76            2138.07           
FW1              1547.80            2024.79           
FV1              1363.35            2109.75           
FW5              1944.02            1718.95           
FW4              2094.31            2002.14           
FW3              1855.21            2075.77           
FV4              1677.60            2761.09           
FV3              1479.48            2415.60           
FV7              2071.97            2585.51           
FV5              1873.86            2687.46           
FV9              2393.05            2704.46           
FV8              2242.75            2851.72           
EJ1              345.64             9233.07           
WW5              168.36             9216.11           
EJ5              849.50             9286.47           
EJ2              563.12             9094.26           
EJ10             2044.77            9523.90           
EJ9              1778.84            9506.94           
EJ8              1499.28            9416.49           
EJ7              1219.71            9540.86           
EJ6              1015.15            9376.92           
EY2              340.11             8319.76           
EY1              306.02             8794.63           
EY5              360.56             7731.82           
FA4              1035.61            8331.06           
FA2              796.96             8461.09           
FA1              558.31             8342.37           
FA8              1270.21            7604.44           
FA7              1042.43            7760.08           
FA6              1042.43            8054.05           
HJ4              1102.93            6155.77           
HJ2              1557.41            6183.69           
HJ1              1548.99            5911.55           
GX1              1894.06            5918.53           
WW7              1894.06            5583.59           
GW2              2889.36            6016.90           
GW1              2544.29            5968.06           
GX2              2207.64            5933.17           
GX5              2199.22            4844.62           
GX3A             2199.22            5451.69           
GX10             3341.68            4413.03           
GX8              3097.61            4943.35           
GX7              2760.96            4908.46           
GX6              2474.80            4852.64           
MR1              2156.64            8155.66           
MR1A             2392.30            8183.57           
WW9              2661.62            8253.35           
HU2              3898.23            6718.21           
HU1              3898.23            6411.19           
HT1              3898.23            6055.31           
WW8              4159.14            6083.23           
JH1              3107.10            7339.24           
HU6              3107.10            7032.22           
HU5              3384.84            7039.19           
HU4              3645.74            7067.11           
HU3              3898.23            7095.02           
JH1A             2980.85            8267.30           
JH5              3174.43            8309.17           
JH2              3140.76            7841.65           
HV5              4946.22            6837.91           
HV4              4626.57            6789.09           
HV3              4626.57            6440.38           
HV1              4281.68            6412.49           
HV10             5633.58            6391.56           
HV8              5271.87            6391.56           
HV6              4969.05            6405.51           
HV13             6071.00            6900.68           
HV12             5742.94            6865.81           
HX6              5154.11            8483.83           
HX5              5162.52            7981.68           
HX3              5170.93            7388.88           
HX1              4876.51            7374.93           
IG2A             3818.92            8183.94           
IG2              3566.56            7946.81           
IG1              3574.98            7549.28           
IG6              4214.28            8964.74           
IG4              4231.10            8476.54           
IG3              4104.93            8197.57           
IG8              4841.03            8992.63           
IG7              4428.85            8971.71           
IG12             4866.27            10206.15          
IG11             4874.68            9948.10           
IG10             4866.27            9480.83           
IG16             5455.10            11264.37          
IG15             5093.39            11173.70          
IG14             5110.21            10713.40          
IG13             5152.27            10232.18          
HT4              4714.85            4739.15           
HT3              4302.67            5094.83           
HT2              3932.55            5576.05           
LA1              5863.86            11765.53          
WW10             5889.10            11444.72          
LA2              6233.98            11786.46          
LA6              7215.89            12196.50          
LA5              6929.88            12050.04          
LA3              6559.76            11882.66          
LD1              7610.16            12628.90          
LA8              7467.15            12426.65          
LD4              7685.86            13089.20          
LD6              7828.86            13710.00          
LD5              7618.57            13689.07          
LD8              8022.34            14393.47          
LD7              7786.80            14253.98          
MO1              8610.19            14553.88          
LD10             8315.77            14567.82          
KZ3              6144.59            10681.84          
KZ1              6144.59            11267.68          
KZ4              6405.36            10709.74          
KZ7              7094.95            10758.56          
KZ6              6834.18            10744.61          
KZ5              6607.06            10709.74          
KZ10             7624.90            11365.32          
KZ9              7364.13            11365.32          
KZ8              7086.54            11309.52          
KZ13             7918.41            10277.34          
KZ12             7632.41            10270.37          
KZ11             7624.00            10653.95          
KZ15             7926.83            9810.07           
LT3              8448.36            11733.98          
LT2              8145.53            11545.68          
OR1              9165.64            15204.45          
WW14B            9149.87            14875.78          
OR5              8432.40            15533.22          
OR4              8752.05            15540.19          
OR3              8996.00            15498.35          
OR8              8869.82            14849.74          
OR6              8457.64            15100.82          
OU3              9938.13            14549.85          
OU1              9685.77            14508.01          
OR9              9324.06            14501.03          
OU7              10720.82           15086.87          
OU6              10493.70           14912.51          
OU5              10249.76           14717.23          
OU8              10973.18           15379.79          
OC5              10953.80           16098.13          
OC4              11424.87           16251.56          
OC1              11719.28           16258.54          
WW14A            11752.93           15923.77          
AG1              -1019.25           6200.17           
FB2              -417.28            8344.70           
FB1              -37.62             8307.66           
outlet           1997.04            -1665.71          

[MAP]
DIMENSIONS -2712.34 -2881.28 11752.93 16258.54
Units      None

[REPORT]
SUBCATCHMENTS ALL
NODES ALL
LINKS ALL
