;; SWMM5 .inp converted from XPSWMM .xp file
;; Generated by XPSWMM Card Reader
;; Source format: XP_CARD | Original title: ALICE CREEK
;; Links parsed from source: 23 | Routable in this .inp: 23

[TITLE]
;;Project Title/Notes
ALICE CREEK

[OPTIONS]
FLOW_UNITS           CFS
INFILTRATION         HORTON
FLOW_ROUTING         DYNWAVE
LINK_OFFSETS         DEPTH
MIN_SLOPE            0.0
ALLOW_PONDING        NO
SKIP_STEADY_STATE    NO
ROUTING_STEP         00:00:04
VARIABLE_STEP        0.75
INERTIAL_DAMPING     NONE
NORMAL_FLOW_LIMITED  BOTH
MAX_TRIALS           30
START_DATE           01/01/2001
START_TIME           00:00:00
REPORT_START_DATE    01/01/2001
REPORT_START_TIME    00:00:00
END_DATE             01/02/2001
END_TIME             00:00:00
SWEEP_START          01/01
SWEEP_END            12/31
DRY_DAYS             0
REPORT_STEP          00:15:00
WET_STEP             00:05:00
DRY_STEP             01:00:00

[JUNCTIONS]
;;Name           Elev       MaxDepth   InitDepth  SurDepth   Aponded
;;-------------- ---------- ---------- ---------- ---------- ----------
899              515.00     0          0          0          0
901              515.00     0          0          0          0
961              514.00     0          0          0          0
963              510.00     0          0          0          0
966              503.00     0          0          0          0
905              499.00     0          0          0          0
906              492.40     0          0          0          0
907              499.74     0          0          0          0
931              500.00     0          0          0          0
960              479.00     0          0          0          0
912              479.00     0          0          0          0
910              486.60     0          0          0          0
922              490.50     0          0          0          0
959              479.02     0          0          0          0
932              497.80     0          0          0          0
956              479.00     0          0          0          0
909              497.08     0          0          0          0
911              501.00     0          0          0          0
933              497.80     0          0          0          0
958              479.00     0          0          0          0
924              483.86     0          0          0          0
957              480.00     0          0          0          0
HW_Link_1        0          0          0          0          0
TW_Link_1        0          0          0          0          0

[OUTFALLS]
;;Name           Elev       Type       Stage      Gated
;;-------------- ---------- ---------- ---------- -----
913              490.00     FREE                  NO

[CONDUITS]
;;Name           From             To               Length     Roughness  InOffset   OutOffset  InitFlow   MaxFlow
;;-------------- ---------------- ---------------- ---------- ---------- ---------- ---------- ---------- ----------
490              899              901              160.00     0.0130     500.24     499.00     0          0
501              901              961              180.00     0.0130     499.00     495.00     0          0
504              961              963              200.00     0.0130     495.00     491.00     0          0
506              963              966              280.00     0.0130     491.00     485.70     0          0
508              966              905              104.48     0.0130     485.70     485.10     0          0
105              905              906              175.00     0.0130     485.10     483.53     0          0
106              907              906              178.00     0.0130     495.70     486.00     0          0
302              931              960              1433.00    0.0120     485.04     475.00     0          0
410              960              912              678.26     0.0120     475.00     470.34     0          0
108              906              910              522.50     0.0130     483.53     478.73     0          0
203              922              959              725.00     0.0120     484.45     475.02     0          0
409              959              912              356.92     0.0120     475.02     470.34     0          0
303              932              956              720.50     0.0130     481.72     475.02     0          0
407              956              912              503.23     0.0120     475.02     470.34     0          0
109              909              910              198.00     0.0130     493.10     480.90     0          0
111              911              910              229.00     0.0130     497.00     481.00     0          0
304              933              958              751.50     0.0120     481.90     475.02     0          0
411              958              912              393.28     0.0120     475.02     470.34     0          0
112              910              912              732.50     0.0130     478.73     470.34     0          0
205              924              957              150.00     0.0120     473.80     472.21     0          0
408              957              912              158.49     0.0120     472.21     470.34     0          0
113              912              913              140.00     0.0130     470.34     468.38     0          0

[WEIRS]
;;Name           From             To               Type       CrestHt    Qcoeff     Gated    EndCon   EndCoeff   Surcharge
;;-------------- ---------------- ---------------- ---------- ---------- ---------- -------- -------- ---------- ----------
Link_1           HW_Link_1        TW_Link_1        TRANSVERSE 16.87      1.840      NO       0        0          YES

[XSECTIONS]
;;Link           Shape        Geom1      Geom2      Geom3      Geom4      Barrels
;;-------------- ------------ ---------- ---------- ---------- ---------- ----------
490              TRAPEZOIDAL  13.60      10.00      2          2          1
501              TRAPEZOIDAL  16.00      10.00      2          2          1
504              TRAPEZOIDAL  16.60      10.00      2          2          1
506              TRAPEZOIDAL  16.00      10.00      2          2          1
508              RECT_CLOSED  6.00       9.43       0          0          1
105              RECT_CLOSED  6.00       9.43       0          0          1
106              CIRCULAR     1.25       0          0          0          1
302              CIRCULAR     3.00       0          0          0          1
410              CIRCULAR     3.00       0          0          0          1
108              RECT_CLOSED  6.00       9.43       0          0          1
203              CIRCULAR     3.00       0          0          0          1
409              CIRCULAR     3.00       0          0          0          1
303              CIRCULAR     1.50       0          0          0          1
407              CIRCULAR     1.50       0          0          0          1
109              CIRCULAR     1.25       0          0          0          1
111              CIRCULAR     1.25       0          0          0          1
304              CIRCULAR     3.00       0          0          0          1
411              CIRCULAR     3.00       0          0          0          1
112              RECT_CLOSED  6.00       9.43       0          0          1
205              CIRCULAR     3.00       0          0          0          1
408              CIRCULAR     3.00       0          0          0          1
113              RECT_CLOSED  6.00       14.14      0          0          1
Link_1           RECT_OPEN    1.00       100.00     0          0

[LOSSES]
;;Link           Inlet      Outlet     Average    Flap Gate
;;-------------- ---------- ---------- ---------- ----------
490              0          0          0          NO
501              0          0          0          NO
504              0          0          0          NO
506              0          0          0          NO
508              0          0          0          NO
105              0          0          0          NO
106              0          0          0          NO
302              0          0          0          NO
410              0          0          0          NO
108              0          0          0          NO
203              0          0          0          NO
409              0          0          0          NO
303              0          0          0          NO
407              0          0          0          NO
109              0          0          0          NO
111              0          0          0          NO
304              0          0          0          NO
411              0          0          0          NO
112              0          0          0          NO
205              0          0          0          NO
408              0          0          0          NO
113              0          0          0          NO

[INFLOWS]
;;Node           Constituent  Time Series      Type     Mfactor  Sfactor  Baseline Pattern
;;-------------- ------------ ---------------- -------- -------- -------- -------- --------
;; SYNTHETIC TEST INFLOWS — the source .xp carried no constant inflows
;; and RUNF hydrology is not converted; 1.00 CFS is applied at each
;; headwater node so the network runs wet for QA. Replace with real
;; hydrology or inflow hydrographs before using results.
899              FLOW         ""               FLOW     1.0      1.0      1.00
907              FLOW         ""               FLOW     1.0      1.0      1.00
931              FLOW         ""               FLOW     1.0      1.0      1.00
922              FLOW         ""               FLOW     1.0      1.0      1.00
932              FLOW         ""               FLOW     1.0      1.0      1.00
909              FLOW         ""               FLOW     1.0      1.0      1.00
911              FLOW         ""               FLOW     1.0      1.0      1.00
933              FLOW         ""               FLOW     1.0      1.0      1.00
924              FLOW         ""               FLOW     1.0      1.0      1.00
HW_Link_1        FLOW         ""               FLOW     1.0      1.0      1.00

[COORDINATES]
;;Node           X-Coord            Y-Coord
;;-------------- ------------------ ------------------
899              336.80             -8.94             
901              356.80             -8.94             
961              376.80             -8.94             
963              396.80             -8.94             
966              416.80             -8.94             
905              436.80             -8.94             
906              456.80             -8.94             
907              456.80             11.06             
931              458.76             -21.30            
960              477.78             -15.12            
912              496.80             -8.94             
910              476.80             -8.94             
922              496.80             31.06             
959              496.80             11.06             
932              458.38             -25.12            
956              477.78             -15.12            
909              464.97             2.07              
911              476.80             11.06             
933              496.80             -48.94            
958              496.80             -28.94            
924              473.29             -41.30            
957              485.05             -25.12            
913              516.80             -8.94             

[MAP]
DIMENSIONS 336.80 -48.94 516.80 31.06
Units      None

[REPORT]
SUBCATCHMENTS ALL
NODES ALL
LINKS ALL
