;; SWMM5 .inp converted from XPSWMM .xp file
;; Generated by XPSWMM Card Reader
;; Source format: XP_CARD | Original title: Yarra Storm Study
;; Links parsed from source: 9 | Routable in this .inp: 10

[TITLE]
;;Project Title/Notes
Yarra Storm Study

[OPTIONS]
FLOW_UNITS           CFS
INFILTRATION         HORTON
FLOW_ROUTING         DYNWAVE
LINK_OFFSETS         DEPTH
MIN_SLOPE            0.0
ALLOW_PONDING        NO
SKIP_STEADY_STATE    NO
ROUTING_STEP         00:01:00
VARIABLE_STEP        0.75
INERTIAL_DAMPING     PARTIAL
NORMAL_FLOW_LIMITED  BOTH
START_DATE           01/01/2001
START_TIME           00:00:00
REPORT_START_DATE    01/01/2001
REPORT_START_TIME    00:00:00
END_DATE             01/02/2001
END_TIME             00:00:00
SWEEP_START          01/01
SWEEP_END            12/31
DRY_DAYS             0
REPORT_STEP          00:15:00
WET_STEP             00:05:00
DRY_STEP             01:00:00

[JUNCTIONS]
;;Name           Elev       MaxDepth   InitDepth  SurDepth   Aponded
;;-------------- ---------- ---------- ---------- ---------- ----------
4/1              1293.34    0          0          0          0
3/375            1278.00    0          0          0          0
3/1              1279.00    0          0          0          0
Junction         1284.89    0          0          0          0
3/2              1289.00    0          0          0          0
6/1              1292.55    0          0          0          0
5/1              1283.15    0          0          0          0
5/2              1291.52    0          0          0          0
5/3              1302.06    0          0          0          0
5/4              1305.88    0          0          0          0

[OUTFALLS]
;;Name           Elev       Type       Stage      Gated
;;-------------- ---------- ---------- ---------- -----
OUT_SYNTH        1277.00    FREE                  NO

[CONDUITS]
;;Name           From             To               Length     Roughness  InOffset   OutOffset  InitFlow   MaxFlow
;;-------------- ---------------- ---------------- ---------- ---------- ---------- ---------- ---------- ----------
201              4/1              Junction         175.11     0.0140     1285.34    1276.89    0          0
203              3/1              3/375            164.21     0.0140     1271.00    1270.00    0          0
204              Junction         3/1              106.74     0.0140     1276.89    1271.00    0          0
205              3/2              Junction         108.32     0.0140     1281.00    1276.89    0          0
206              6/1              5/2              30.86      0.0140     1284.55    1283.52    0          0
208              5/2              5/1              113.84     0.0140     1283.52    1275.15    0          0
209              5/3              5/2              199.74     0.0140     1294.06    1283.52    0          0
210              5/4              5/3              168.33     0.0140     1297.88    1294.06    0          0
207              5/1              3/375            357.94     0.0140     1275.15    1270.00    0          0
C_OUT_SYNTH      3/375            OUT_SYNTH        50.00      0.0130     0          0          0          0

[XSECTIONS]
;;Link           Shape        Geom1      Geom2      Geom3      Geom4      Barrels
;;-------------- ------------ ---------- ---------- ---------- ---------- ----------
201              CIRCULAR     1.50       0.00       0          0          1
203              CIRCULAR     2.00       0.00       0          0          1
204              CIRCULAR     2.00       0.00       0          0          1
205              CIRCULAR     1.50       0.00       0          0          1
206              CIRCULAR     1.50       0.00       0          0          1
208              CIRCULAR     2.00       0.00       0          0          1
209              CIRCULAR     1.50       0.00       0          0          1
210              CIRCULAR     1.50       0.00       0          0          1
207              CIRCULAR     2.00       0.00       0          0          1
C_OUT_SYNTH      CIRCULAR     3.00       0          0          0          1

[LOSSES]
;;Link           Inlet      Outlet     Average    Flap Gate
;;-------------- ---------- ---------- ---------- ----------
201              0          0          0          NO
203              0          0          0          NO
204              0          0          0          NO
205              0          0          0          NO
206              0          0          0          NO
208              0          0          0          NO
209              0          0          0          NO
210              0          0          0          NO
207              0          0          0          NO
C_OUT_SYNTH      0          0          0          NO

[INFLOWS]
;;Node           Constituent  Time Series      Type     Mfactor  Sfactor  Baseline Pattern
;;-------------- ------------ ---------------- -------- -------- -------- -------- --------
;; SYNTHETIC TEST INFLOWS — the source .xp carried no constant inflows
;; and RUNF hydrology is not converted; 1.00 CFS is applied at each
;; headwater node so the network runs wet for QA. Replace with real
;; hydrology or inflow hydrographs before using results.
4/1              FLOW         ""               FLOW     1.0      1.0      1.00
3/2              FLOW         ""               FLOW     1.0      1.0      1.00
6/1              FLOW         ""               FLOW     1.0      1.0      1.00
5/4              FLOW         ""               FLOW     1.0      1.0      1.00

[COORDINATES]
;;Node           X-Coord            Y-Coord
;;-------------- ------------------ ------------------
4/1              -3347.47           4159.77           
3/375            -3594.33           3843.38           
3/1              -3543.94           3999.66           
Junction         -3512.68           4101.72           
3/2              -3478.24           4204.42           
6/1              -3207.78           4134.25           
5/1              -3287.51           4027.72           
5/2              -3238.39           4130.42           
5/3              -3152.92           4310.95           
5/4              -3080.20           4462.76           

[MAP]
DIMENSIONS -3594.33 3843.38 -3080.20 4462.76
Units      None

[REPORT]
SUBCATCHMENTS ALL
NODES ALL
LINKS ALL
